********************************************************************************
Field Output Report, written Thu Feb 22 16:22:37 2018

Source 1
---------

   ODB: C:/Users/JMJFVA~1/AppData/Local/Temp/Do228n.odb
   Step: Jam1
   Frame: Increment      1: Step Time =    1.000

Loc 1 : Element nodal  values at shell < ALUMINIUM > < 5 section points > from source 1 : SNEG, (fraction = -1.0) ( Average criteria = 75%, Not averaged across region boundaries )
Loc 2 : Element nodal  values at shell < ALUMINIUM > < 5 section points > from source 1 : SPOS, (fraction = 1.0) ( Average criteria = 75%, Not averaged across region boundaries )

Output sorted by column "Element Label".

Field Output reported at element nodes for region: DO228-1.Region_1
   Computation algorithm: EXTRAPOLATE_COMPUTE_AVERAGE
   Averaged at nodes
   Averaging regions: ODB_REGIONS

   Element Label      Node Label         S.Mises         S.Mises
                                          @Loc 1          @Loc 2
-----------------------------------------------------------------
             945               8     80.8528E-03     80.4741E-03
             945             210     79.1945E-03     78.8536E-03
             945             235     250.767E-06     245.455E-06
             945            1760     247.812E-06     243.090E-06
             946             210     79.1945E-03     78.8536E-03
             946             211     74.8433E-03     74.3746E-03
             946            1760     247.812E-06     243.090E-06
             946            1761     239.978E-06     236.653E-06
             947             211     74.8433E-03     74.3746E-03
             947             212     67.2328E-03     66.6585E-03
             947            1761     239.978E-06     236.653E-06
             947            1762     228.918E-06     225.790E-06
             948             212     67.2328E-03     66.6585E-03
             948             213     57.4041E-03     56.7619E-03
             948            1762     228.918E-06     225.790E-06
             948            1763     216.517E-06     212.019E-06
             949             213     57.4041E-03     56.7619E-03
             949             214     44.7327E-03     43.7466E-03
             949            1763     216.517E-06     212.019E-06
             949            1764     201.820E-06     198.962E-06
             950             214     44.7327E-03     43.7466E-03
             950             215     30.3854E-03     28.9549E-03
             950            1764     201.820E-06     198.962E-06
             950            1765     198.109E-06     199.570E-06
             951             215     30.3854E-03     28.9549E-03
             951             216     18.4495E-03     24.0398E-03
             951            1765     198.109E-06     199.570E-06
             951            1766     228.728E-06     229.587E-06
             952               2     13.1022E-03     25.9394E-03
             952             216     18.4495E-03     24.0398E-03
             952             217     254.581E-06     252.918E-06
             952            1766     228.728E-06     229.587E-06
             953             234     251.381E-06     249.801E-06
             953             235     250.767E-06     245.455E-06
             953            1760     247.812E-06     243.090E-06
             953            1767     248.384E-06     246.478E-06
             954            1760     247.812E-06     243.090E-06
             954            1761     239.978E-06     236.653E-06
             954            1767     248.384E-06     246.478E-06
             954            1768     239.659E-06     236.941E-06
             955            1761     239.978E-06     236.653E-06
             955            1762     228.918E-06     225.790E-06
             955            1768     239.659E-06     236.941E-06
             955            1769     227.575E-06     221.821E-06
             956            1762     228.918E-06     225.790E-06
             956            1763     216.517E-06     212.019E-06
             956            1769     227.575E-06     221.821E-06
             956            1770     212.568E-06     199.855E-06
             957            1763     216.517E-06     212.019E-06
             957            1764     201.820E-06     198.962E-06
             957            1770     212.568E-06     199.855E-06
             957            1771     194.956E-06     175.848E-06
             958            1764     201.820E-06     198.962E-06
             958            1765     198.109E-06     199.570E-06
             958            1771     194.956E-06     175.848E-06
             958            1772     185.053E-06     165.663E-06
             959            1765     198.109E-06     199.570E-06
             959            1766     228.728E-06     229.587E-06
             959            1772     185.053E-06     165.663E-06
             959            1773     191.773E-06     176.269E-06
             960             217     254.581E-06     252.918E-06
             960             218     199.434E-06     186.114E-06
             960            1766     228.728E-06     229.587E-06
             960            1773     191.773E-06     176.269E-06
             961             233     249.168E-06     249.225E-06
             961             234     251.381E-06     249.801E-06
             961            1767     248.384E-06     246.478E-06
             961            1774     245.055E-06     245.548E-06
             962            1767     248.384E-06     246.478E-06
             962            1768     239.659E-06     236.941E-06
             962            1774     245.055E-06     245.548E-06
             962            1775     233.249E-06     234.829E-06
             963            1768     239.659E-06     236.941E-06
             963            1769     227.575E-06     221.821E-06
             963            1775     233.249E-06     234.829E-06
             963            1776     214.141E-06     217.807E-06
             964            1769     227.575E-06     221.821E-06
             964            1770     212.568E-06     199.855E-06
             964            1776     214.141E-06     217.807E-06
             964            1777     188.564E-06     194.949E-06
             965            1770     212.568E-06     199.855E-06
             965            1771     194.956E-06     175.848E-06
             965            1777     188.564E-06     194.949E-06
             965            1778     158.639E-06     167.892E-06
             966            1771     194.956E-06     175.848E-06
             966            1772     185.053E-06     165.663E-06
             966            1778     158.639E-06     167.892E-06
             966            1779     128.819E-06     143.721E-06
             967            1772     185.053E-06     165.663E-06
             967            1773     191.773E-06     176.269E-06
             967            1779     128.819E-06     143.721E-06
             967            1780     121.147E-06     137.232E-06
             968             218     199.434E-06     186.114E-06
             968             219     127.531E-06     140.735E-06
             968            1773     191.773E-06     176.269E-06
             968            1780     121.147E-06     137.232E-06
             969             232     249.814E-06     248.916E-06
             969             233     249.168E-06     249.225E-06
             969            1774     245.055E-06     245.548E-06
             969            1781     245.474E-06     244.457E-06
             970            1774     245.055E-06     245.548E-06
             970            1775     233.249E-06     234.829E-06
             970            1781     245.474E-06     244.457E-06
             970            1782     232.549E-06     231.101E-06
             971            1775     233.249E-06     234.829E-06
             971            1776     214.141E-06     217.807E-06
             971            1782     232.549E-06     231.101E-06
             971            1783     210.436E-06     209.571E-06
             972            1776     214.141E-06     217.807E-06
             972            1777     188.564E-06     194.949E-06
             972            1783     210.436E-06     209.571E-06
             972            1784     180.763E-06     181.962E-06
             973            1777     188.564E-06     194.949E-06
             973            1778     158.639E-06     167.892E-06
             973            1784     180.763E-06     181.962E-06
             973            1785     146.181E-06     145.564E-06
             974            1778     158.639E-06     167.892E-06
             974            1779     128.819E-06     143.721E-06
             974            1785     146.181E-06     145.564E-06
             974            1786     106.888E-06     100.863E-06
             975            1779     128.819E-06     143.721E-06
             975            1780     121.147E-06     137.232E-06
             975            1786     106.888E-06     100.863E-06
             975            1787     86.9672E-06     79.4258E-06
             976             219     127.531E-06     140.735E-06
             976             220     87.9004E-06     81.2677E-06
             976            1780     121.147E-06     137.232E-06
             976            1787     86.9672E-06     79.4258E-06
             977             231     250.241E-06     249.309E-06
             977             232     249.814E-06     248.916E-06
             977            1781     245.474E-06     244.457E-06
             977            1788     245.729E-06     244.456E-06
             978            1781     245.474E-06     244.457E-06
             978            1782     232.549E-06     231.101E-06
             978            1788     245.729E-06     244.456E-06
             978            1789     231.576E-06     229.949E-06
             979            1782     232.549E-06     231.101E-06
             979            1783     210.436E-06     209.571E-06
             979            1789     231.576E-06     229.949E-06
             979            1790     207.691E-06     206.775E-06
             980            1783     210.436E-06     209.571E-06
             980            1784     180.763E-06     181.962E-06
             980            1790     207.691E-06     206.775E-06
             980            1791     174.192E-06     175.666E-06
             981            1784     180.763E-06     181.962E-06
             981            1785     146.181E-06     145.564E-06
             981            1791     174.192E-06     175.666E-06
             981            1792     133.522E-06     137.480E-06
             982            1785     146.181E-06     145.564E-06
             982            1786     106.888E-06     100.863E-06
             982            1792     133.522E-06     137.480E-06
             982            1793     88.0918E-06     87.4877E-06
             983            1786     106.888E-06     100.863E-06
             983            1787     86.9672E-06     79.4258E-06
             983            1793     88.0918E-06     87.4877E-06
             983            1794     57.4791E-06     53.4851E-06
             984             220     87.9004E-06     81.2677E-06
             984             221     50.8793E-06     48.8770E-06
             984            1787     86.9672E-06     79.4258E-06
             984            1794     57.4791E-06     53.4851E-06
             985             230     249.469E-06     248.047E-06
             985             231     250.241E-06     249.309E-06
             985            1788     245.729E-06     244.456E-06
             985            1795     244.665E-06     242.955E-06
             986            1788     245.729E-06     244.456E-06
             986            1789     231.576E-06     229.949E-06
             986            1795     244.665E-06     242.955E-06
             986            1796     230.009E-06     228.093E-06
             987            1789     231.576E-06     229.949E-06
             987            1790     207.691E-06     206.775E-06
             987            1796     230.009E-06     228.093E-06
             987            1797     205.248E-06     203.632E-06
             988            1790     207.691E-06     206.775E-06
             988            1791     174.192E-06     175.666E-06
             988            1797     205.248E-06     203.632E-06
             988            1798     170.537E-06     170.654E-06
             989            1791     174.192E-06     175.666E-06
             989            1792     133.522E-06     137.480E-06
             989            1798     170.537E-06     170.654E-06
             989            1799     125.888E-06     130.847E-06
             990            1792     133.522E-06     137.480E-06
             990            1793     88.0918E-06     87.4877E-06
             990            1799     125.888E-06     130.847E-06
             990            1800     80.1455E-06     86.4848E-06
             991            1793     88.0918E-06     87.4877E-06
             991            1794     57.4791E-06     53.4851E-06
             991            1800     80.1455E-06     86.4848E-06
             991            1801     53.7504E-06     64.4918E-06
             992             221     50.8793E-06     48.8770E-06
             992             222     48.2514E-06     65.3435E-06
             992            1794     57.4791E-06     53.4851E-06
             992            1801     53.7504E-06     64.4918E-06
             993              10     248.371E-06     247.246E-06
             993             229     243.393E-06     242.182E-06
             993             230     249.469E-06     248.047E-06
             993            1795     244.665E-06     242.955E-06
             994             228     228.771E-06     226.942E-06
             994             229     243.393E-06     242.182E-06
             994            1795     244.665E-06     242.955E-06
             994            1796     230.009E-06     228.093E-06
             995             227     204.099E-06     201.797E-06
             995             228     228.771E-06     226.942E-06
             995            1796     230.009E-06     228.093E-06
             995            1797     205.248E-06     203.632E-06
             996             226     169.616E-06     167.817E-06
             996             227     204.099E-06     201.797E-06
             996            1797     205.248E-06     203.632E-06
             996            1798     170.537E-06     170.654E-06
             997             225     125.313E-06     126.303E-06
             997             226     169.616E-06     167.817E-06
             997            1798     170.537E-06     170.654E-06
             997            1799     125.888E-06     130.847E-06
             998             224     79.7606E-06     85.8590E-06
             998             225     125.313E-06     126.303E-06
             998            1799     125.888E-06     130.847E-06
             998            1800     80.1455E-06     86.4848E-06
             999             223     58.5448E-06     80.3609E-06
             999             224     79.7606E-06     85.8590E-06
             999            1800     80.1455E-06     86.4848E-06
             999            1801     53.7504E-06     64.4918E-06
            1000               9     58.0338E-06     92.8049E-06
            1000             222     48.2514E-06     65.3435E-06
            1000             223     58.5448E-06     80.3609E-06
            1000            1801     53.7504E-06     64.4918E-06
            1001               8     80.8528E-03     80.4741E-03
            1001             236     79.2014E-03     78.8519E-03
            1001             351     162.068E-03     161.532E-03
            1001            1802     158.925E-03     158.482E-03
            1002             236     79.2014E-03     78.8519E-03
            1002             237     74.8581E-03     74.3715E-03
            1002            1802     158.925E-03     158.482E-03
            1002            1803     149.962E-03     149.636E-03
            1003             237     74.8581E-03     74.3715E-03
            1003             238     67.2558E-03     66.6525E-03
            1003            1803     149.962E-03     149.636E-03
            1003            1804     135.121E-03     135.065E-03
            1004             238     67.2558E-03     66.6525E-03
            1004             239     57.4359E-03     56.7541E-03
            1004            1804     135.121E-03     135.065E-03
            1004            1805     115.096E-03     115.746E-03
            1005             239     57.4359E-03     56.7541E-03
            1005             240     44.7775E-03     43.7365E-03
            1005            1805     115.096E-03     115.746E-03
            1005            1806     90.0450E-03     92.8378E-03
            1006             240     44.7775E-03     43.7365E-03
            1006             241     30.4561E-03     28.9206E-03
            1006            1806     90.0450E-03     92.8378E-03
            1006            1807     60.2727E-03     65.1796E-03
            1007             241     30.4561E-03     28.9206E-03
            1007             242     18.3803E-03     23.8817E-03
            1007            1807     60.2727E-03     65.1796E-03
            1007            1808     33.6920E-03     47.4600E-03
            1008               5     12.8758E-03     25.6792E-03
            1008             242     18.3803E-03     23.8817E-03
            1008             243     22.8306E-03     45.0323E-03
            1008            1808     33.6920E-03     47.4600E-03
            1009             350     163.458E-03     162.343E-03
            1009             351     162.068E-03     161.532E-03
            1009            1802     158.925E-03     158.482E-03
            1009            1809     160.687E-03     159.417E-03
            1010            1802     158.925E-03     158.482E-03
            1010            1803     149.962E-03     149.636E-03
            1010            1809     160.687E-03     159.417E-03
            1010            1810     151.997E-03     150.564E-03
            1011            1803     149.962E-03     149.636E-03
            1011            1804     135.121E-03     135.065E-03
            1011            1810     151.997E-03     150.564E-03
            1011            1811     138.396E-03     136.569E-03
            1012            1804     135.121E-03     135.065E-03
            1012            1805     115.096E-03     115.746E-03
            1012            1811     138.396E-03     136.569E-03
            1012            1812     120.138E-03     117.493E-03
            1013            1805     115.096E-03     115.746E-03
            1013            1806     90.0450E-03     92.8378E-03
            1013            1812     120.138E-03     117.493E-03
            1013            1813     98.2291E-03     95.7615E-03
            1014            1806     90.0450E-03     92.8378E-03
            1014            1807     60.2727E-03     65.1796E-03
            1014            1813     98.2291E-03     95.7615E-03
            1014            1814     74.6681E-03     68.8006E-03
            1015            1807     60.2727E-03     65.1796E-03
            1015            1808     33.6920E-03     47.4600E-03
            1015            1814     74.6681E-03     68.8006E-03
            1015            1815     57.7276E-03     49.5502E-03
            1016             243     22.8306E-03     45.0323E-03
            1016             244     53.0069E-03     46.5319E-03
            1016            1808     33.6920E-03     47.4600E-03
            1016            1815     57.7276E-03     49.5502E-03
            1017             349     162.688E-03     160.635E-03
            1017             350     163.458E-03     162.343E-03
            1017            1809     160.687E-03     159.417E-03
            1017            1816     159.825E-03     157.902E-03
            1018            1809     160.687E-03     159.417E-03
            1018            1810     151.997E-03     150.564E-03
            1018            1816     159.825E-03     157.902E-03
            1018            1817     151.616E-03     150.106E-03
            1019            1810     151.997E-03     150.564E-03
            1019            1811     138.396E-03     136.569E-03
            1019            1817     151.616E-03     150.106E-03
            1019            1818     138.130E-03     137.443E-03
            1020            1811     138.396E-03     136.569E-03
            1020            1812     120.138E-03     117.493E-03
            1020            1818     138.130E-03     137.443E-03
            1020            1819     121.240E-03     120.946E-03
            1021            1812     120.138E-03     117.493E-03
            1021            1813     98.2291E-03     95.7615E-03
            1021            1819     121.240E-03     120.946E-03
            1021            1820     100.505E-03     100.986E-03
            1022            1813     98.2291E-03     95.7615E-03
            1022            1814     74.6681E-03     68.8006E-03
            1022            1820     100.505E-03     100.986E-03
            1022            1821     79.4697E-03     80.5116E-03
            1023            1814     74.6681E-03     68.8006E-03
            1023            1815     57.7276E-03     49.5502E-03
            1023            1821     79.4697E-03     80.5116E-03
            1023            1822     80.3462E-03     81.1802E-03
            1024             244     53.0069E-03     46.5319E-03
            1024             245     90.2638E-03     91.2488E-03
            1024            1815     57.7276E-03     49.5502E-03
            1024            1822     80.3462E-03     81.1802E-03
            1025             348     165.150E-03     164.258E-03
            1025             349     162.688E-03     160.635E-03
            1025            1816     159.825E-03     157.902E-03
            1025            1823     161.943E-03     161.213E-03
            1026            1816     159.825E-03     157.902E-03
            1026            1817     151.616E-03     150.106E-03
            1026            1823     161.943E-03     161.213E-03
            1026            1824     153.278E-03     152.803E-03
            1027            1817     151.616E-03     150.106E-03
            1027            1818     138.130E-03     137.443E-03
            1027            1824     153.278E-03     152.803E-03
            1027            1825     138.474E-03     139.301E-03
            1028            1818     138.130E-03     137.443E-03
            1028            1819     121.240E-03     120.946E-03
            1028            1825     138.474E-03     139.301E-03
            1028            1826     120.243E-03     123.390E-03
            1029            1819     121.240E-03     120.946E-03
            1029            1820     100.505E-03     100.986E-03
            1029            1826     120.243E-03     123.390E-03
            1029            1827     99.0507E-03     107.267E-03
            1030            1820     100.505E-03     100.986E-03
            1030            1821     79.4697E-03     80.5116E-03
            1030            1827     99.0507E-03     107.267E-03
            1030            1828     78.7340E-03     93.3734E-03
            1031            1821     79.4697E-03     80.5116E-03
            1031            1822     80.3462E-03     81.1802E-03
            1031            1828     78.7340E-03     93.3734E-03
            1031            1829     69.0300E-03     82.2999E-03
            1032             245     90.2638E-03     91.2488E-03
            1032             246     67.3236E-03     76.7571E-03
            1032            1822     80.3462E-03     81.1802E-03
            1032            1829     69.0300E-03     82.2999E-03
            1033             347     169.458E-03     168.979E-03
            1033             348     165.150E-03     164.258E-03
            1033            1823     161.943E-03     161.213E-03
            1033            1830     166.659E-03     165.769E-03
            1034            1823     161.943E-03     161.213E-03
            1034            1824     153.278E-03     152.803E-03
            1034            1830     166.659E-03     165.769E-03
            1034            1831     158.013E-03     156.452E-03
            1035            1824     153.278E-03     152.803E-03
            1035            1825     138.474E-03     139.301E-03
            1035            1831     158.013E-03     156.452E-03
            1035            1832     143.831E-03     142.267E-03
            1036            1825     138.474E-03     139.301E-03
            1036            1826     120.243E-03     123.390E-03
            1036            1832     143.831E-03     142.267E-03
            1036            1833     125.963E-03     126.375E-03
            1037            1826     120.243E-03     123.390E-03
            1037            1827     99.0507E-03     107.267E-03
            1037            1833     125.963E-03     126.375E-03
            1037            1834     108.571E-03     111.401E-03
            1038            1827     99.0507E-03     107.267E-03
            1038            1828     78.7340E-03     93.3734E-03
            1038            1834     108.571E-03     111.401E-03
            1038            1835     93.9018E-03     94.8004E-03
            1039            1828     78.7340E-03     93.3734E-03
            1039            1829     69.0300E-03     82.2999E-03
            1039            1835     93.9018E-03     94.8004E-03
            1039            1836     68.0033E-03     63.9096E-03
            1040             246     67.3236E-03     76.7571E-03
            1040             247     48.8952E-03     42.4435E-03
            1040            1829     69.0300E-03     82.2999E-03
            1040            1836     68.0033E-03     63.9096E-03
            1041             346     170.039E-03     168.871E-03
            1041             347     169.458E-03     168.979E-03
            1041            1830     166.659E-03     165.769E-03
            1041            1837     167.673E-03     166.262E-03
            1042            1830     166.659E-03     165.769E-03
            1042            1831     158.013E-03     156.452E-03
            1042            1837     167.673E-03     166.262E-03
            1042            1838     160.328E-03     158.818E-03
            1043            1831     158.013E-03     156.452E-03
            1043            1832     143.831E-03     142.267E-03
            1043            1838     160.328E-03     158.818E-03
            1043            1839     148.176E-03     148.115E-03
            1044            1832     143.831E-03     142.267E-03
            1044            1833     125.963E-03     126.375E-03
            1044            1839     148.176E-03     148.115E-03
            1044            1840     133.131E-03     136.266E-03
            1045            1833     125.963E-03     126.375E-03
            1045            1834     108.571E-03     111.401E-03
            1045            1840     133.131E-03     136.266E-03
            1045            1841     118.549E-03     123.202E-03
            1046            1834     108.571E-03     111.401E-03
            1046            1835     93.9018E-03     94.8004E-03
            1046            1841     118.549E-03     123.202E-03
            1046            1842     102.482E-03     105.625E-03
            1047            1835     93.9018E-03     94.8004E-03
            1047            1836     68.0033E-03     63.9096E-03
            1047            1842     102.482E-03     105.625E-03
            1047            1843     85.0950E-03     85.2846E-03
            1048             247     48.8952E-03     42.4435E-03
            1048             248     77.0440E-03     75.4172E-03
            1048            1836     68.0033E-03     63.9096E-03
            1048            1843     85.0950E-03     85.2846E-03
            1049             345     170.001E-03     169.224E-03
            1049             346     170.039E-03     168.871E-03
            1049            1837     167.673E-03     166.262E-03
            1049            1844     168.231E-03     167.240E-03
            1050            1837     167.673E-03     166.262E-03
            1050            1838     160.328E-03     158.818E-03
            1050            1844     168.231E-03     167.240E-03
            1050            1845     162.708E-03     161.781E-03
            1051            1838     160.328E-03     158.818E-03
            1051            1839     148.176E-03     148.115E-03
            1051            1845     162.708E-03     161.781E-03
            1051            1846     153.678E-03     154.393E-03
            1052            1839     148.176E-03     148.115E-03
            1052            1840     133.131E-03     136.266E-03
            1052            1846     153.678E-03     154.393E-03
            1052            1847     142.675E-03     145.663E-03
            1053            1840     133.131E-03     136.266E-03
            1053            1841     118.549E-03     123.202E-03
            1053            1847     142.675E-03     145.663E-03
            1053            1848     130.152E-03     133.169E-03
            1054            1841     118.549E-03     123.202E-03
            1054            1842     102.482E-03     105.625E-03
            1054            1848     130.152E-03     133.169E-03
            1054            1849     116.292E-03     118.958E-03
            1055            1842     102.482E-03     105.625E-03
            1055            1843     85.0950E-03     85.2846E-03
            1055            1849     116.292E-03     118.958E-03
            1055            1850     109.400E-03     110.379E-03
            1056             248     77.0440E-03     75.4172E-03
            1056             249     109.548E-03     108.306E-03
            1056            1843     85.0950E-03     85.2846E-03
            1056            1850     109.400E-03     110.379E-03
            1057             344     169.594E-03     169.189E-03
            1057             345     170.001E-03     169.224E-03
            1057            1844     168.231E-03     167.240E-03
            1057            1851     168.620E-03     168.101E-03
            1058            1844     168.231E-03     167.240E-03
            1058            1845     162.708E-03     161.781E-03
            1058            1851     168.620E-03     168.101E-03
            1058            1852     165.375E-03     165.334E-03
            1059            1845     162.708E-03     161.781E-03
            1059            1846     153.678E-03     154.393E-03
            1059            1852     165.375E-03     165.334E-03
            1059            1853     160.154E-03     161.623E-03
            1060            1846     153.678E-03     154.393E-03
            1060            1847     142.675E-03     145.663E-03
            1060            1853     160.154E-03     161.623E-03
            1060            1854     153.632E-03     155.584E-03
            1061            1847     142.675E-03     145.663E-03
            1061            1848     130.152E-03     133.169E-03
            1061            1854     153.632E-03     155.584E-03
            1061            1855     144.569E-03     146.182E-03
            1062            1848     130.152E-03     133.169E-03
            1062            1849     116.292E-03     118.958E-03
            1062            1855     144.569E-03     146.182E-03
            1062            1856     135.061E-03     139.096E-03
            1063            1849     116.292E-03     118.958E-03
            1063            1850     109.400E-03     110.379E-03
            1063            1856     135.061E-03     139.096E-03
            1063            1857     135.166E-03     138.140E-03
            1064             249     109.548E-03     108.306E-03
            1064             250     139.259E-03     138.843E-03
            1064            1850     109.400E-03     110.379E-03
            1064            1857     135.166E-03     138.140E-03
            1065             343     169.599E-03     169.169E-03
            1065             344     169.594E-03     169.189E-03
            1065            1851     168.620E-03     168.101E-03
            1065            1858     169.571E-03     169.260E-03
            1066            1851     168.620E-03     168.101E-03
            1066            1852     165.375E-03     165.334E-03
            1066            1858     169.571E-03     169.260E-03
            1066            1859     169.242E-03     169.276E-03
            1067            1852     165.375E-03     165.334E-03
            1067            1853     160.154E-03     161.623E-03
            1067            1859     169.242E-03     169.276E-03
            1067            1860     168.556E-03     168.630E-03
            1068            1853     160.154E-03     161.623E-03
            1068            1854     153.632E-03     155.584E-03
            1068            1860     168.556E-03     168.630E-03
            1068            1861     166.725E-03     165.505E-03
            1069            1854     153.632E-03     155.584E-03
            1069            1855     144.569E-03     146.182E-03
            1069            1861     166.725E-03     165.505E-03
            1069            1862     162.617E-03     161.480E-03
            1070            1855     144.569E-03     146.182E-03
            1070            1856     135.061E-03     139.096E-03
            1070            1862     162.617E-03     161.480E-03
            1070            1863     158.658E-03     161.817E-03
            1071            1856     135.061E-03     139.096E-03
            1071            1857     135.166E-03     138.140E-03
            1071            1863     158.658E-03     161.817E-03
            1071            1864     162.687E-03     166.301E-03
            1072             250     139.259E-03     138.843E-03
            1072             251     167.979E-03     168.940E-03
            1072            1857     135.166E-03     138.140E-03
            1072            1864     162.687E-03     166.301E-03
            1073             342     169.405E-03     168.473E-03
            1073             343     169.599E-03     169.169E-03
            1073            1858     169.571E-03     169.260E-03
            1073            1865     170.239E-03     169.755E-03
            1074            1858     169.571E-03     169.260E-03
            1074            1859     169.242E-03     169.276E-03
            1074            1865     170.239E-03     169.755E-03
            1074            1866     172.788E-03     172.686E-03
            1075            1859     169.242E-03     169.276E-03
            1075            1860     168.556E-03     168.630E-03
            1075            1866     172.788E-03     172.686E-03
            1075            1867     176.318E-03     174.875E-03
            1076            1860     168.556E-03     168.630E-03
            1076            1861     166.725E-03     165.505E-03
            1076            1867     176.318E-03     174.875E-03
            1076            1868     178.542E-03     175.629E-03
            1077            1861     166.725E-03     165.505E-03
            1077            1862     162.617E-03     161.480E-03
            1077            1868     178.542E-03     175.629E-03
            1077            1869     179.125E-03     177.368E-03
            1078            1862     162.617E-03     161.480E-03
            1078            1863     158.658E-03     161.817E-03
            1078            1869     179.125E-03     177.368E-03
            1078            1870     182.345E-03     183.219E-03
            1079            1863     158.658E-03     161.817E-03
            1079            1864     162.687E-03     166.301E-03
            1079            1870     182.345E-03     183.219E-03
            1079            1871     192.282E-03     191.024E-03
            1080             251     167.979E-03     168.940E-03
            1080             252     199.135E-03     194.466E-03
            1080            1864     162.687E-03     166.301E-03
            1080            1871     192.282E-03     191.024E-03
            1081             341     168.092E-03     169.208E-03
            1081             342     169.405E-03     168.473E-03
            1081            1865     170.239E-03     169.755E-03
            1081            1872     169.558E-03     172.132E-03
            1082            1865     170.239E-03     169.755E-03
            1082            1866     172.788E-03     172.686E-03
            1082            1872     169.558E-03     172.132E-03
            1082            1873     174.366E-03     179.392E-03
            1083            1866     172.788E-03     172.686E-03
            1083            1867     176.318E-03     174.875E-03
            1083            1873     174.366E-03     179.392E-03
            1083            1874     181.506E-03     187.807E-03
            1084            1867     176.318E-03     174.875E-03
            1084            1868     178.542E-03     175.629E-03
            1084            1874     181.506E-03     187.807E-03
            1084            1875     187.534E-03     195.502E-03
            1085            1868     178.542E-03     175.629E-03
            1085            1869     179.125E-03     177.368E-03
            1085            1875     187.534E-03     195.502E-03
            1085            1876     191.938E-03     206.679E-03
            1086            1869     179.125E-03     177.368E-03
            1086            1870     182.345E-03     183.219E-03
            1086            1876     191.938E-03     206.679E-03
            1086            1877     198.416E-03     221.684E-03
            1087            1870     182.345E-03     183.219E-03
            1087            1871     192.282E-03     191.024E-03
            1087            1877     198.416E-03     221.684E-03
            1087            1878     212.332E-03     231.445E-03
            1088             252     199.135E-03     194.466E-03
            1088             253     221.906E-03     233.719E-03
            1088            1871     192.282E-03     191.024E-03
            1088            1878     212.332E-03     231.445E-03
            1089             340     170.398E-03     169.850E-03
            1089             341     168.092E-03     169.208E-03
            1089            1872     169.558E-03     172.132E-03
            1089            1879     174.315E-03     172.943E-03
            1090            1872     169.558E-03     172.132E-03
            1090            1873     174.366E-03     179.392E-03
            1090            1879     174.315E-03     172.943E-03
            1090            1880     185.032E-03     180.468E-03
            1091            1873     174.366E-03     179.392E-03
            1091            1874     181.506E-03     187.807E-03
            1091            1880     185.032E-03     180.468E-03
            1091            1881     201.231E-03     189.854E-03
            1092            1874     181.506E-03     187.807E-03
            1092            1875     187.534E-03     195.502E-03
            1092            1881     201.231E-03     189.854E-03
            1092            1882     219.143E-03     199.527E-03
            1093            1875     187.534E-03     195.502E-03
            1093            1876     191.938E-03     206.679E-03
            1093            1882     219.143E-03     199.527E-03
            1093            1883     235.484E-03     210.946E-03
            1094            1876     191.938E-03     206.679E-03
            1094            1877     198.416E-03     221.684E-03
            1094            1883     235.484E-03     210.946E-03
            1094            1884     253.253E-03     230.948E-03
            1095            1877     198.416E-03     221.684E-03
            1095            1878     212.332E-03     231.445E-03
            1095            1884     253.253E-03     230.948E-03
            1095            1885     268.592E-03     251.334E-03
            1096             253     221.906E-03     233.719E-03
            1096             254     273.937E-03     258.373E-03
            1096            1878     212.332E-03     231.445E-03
            1096            1885     268.592E-03     251.334E-03
            1097             339     169.963E-03     164.869E-03
            1097             340     170.398E-03     169.850E-03
            1097            1879     174.315E-03     172.943E-03
            1097            1886     173.674E-03     168.828E-03
            1098            1879     174.315E-03     172.943E-03
            1098            1880     185.032E-03     180.468E-03
            1098            1886     173.674E-03     168.828E-03
            1098            1887     184.267E-03     179.427E-03
            1099            1880     185.032E-03     180.468E-03
            1099            1881     201.231E-03     189.854E-03
            1099            1887     184.267E-03     179.427E-03
            1099            1888     199.497E-03     193.802E-03
            1100            1881     201.231E-03     189.854E-03
            1100            1882     219.143E-03     199.527E-03
            1100            1888     199.497E-03     193.802E-03
            1100            1889     217.967E-03     211.624E-03
            1101            1882     219.143E-03     199.527E-03
            1101            1883     235.484E-03     210.946E-03
            1101            1889     217.967E-03     211.624E-03
            1101            1890     236.065E-03     231.793E-03
            1102            1883     235.484E-03     210.946E-03
            1102            1884     253.253E-03     230.948E-03
            1102            1890     236.065E-03     231.793E-03
            1102            1891     256.331E-03     255.993E-03
            1103            1884     253.253E-03     230.948E-03
            1103            1885     268.592E-03     251.334E-03
            1103            1891     256.331E-03     255.993E-03
            1103            1892     289.045E-03     286.435E-03
            1104             254     273.937E-03     258.373E-03
            1104             255     309.423E-03     302.713E-03
            1104            1885     268.592E-03     251.334E-03
            1104            1892     289.045E-03     286.435E-03
            1105             338     169.473E-03     168.674E-03
            1105             339     169.963E-03     164.869E-03
            1105            1886     173.674E-03     168.828E-03
            1105            1893     170.982E-03     172.404E-03
            1106            1886     173.674E-03     168.828E-03
            1106            1887     184.267E-03     179.427E-03
            1106            1893     170.982E-03     172.404E-03
            1106            1894     175.589E-03     182.956E-03
            1107            1887     184.267E-03     179.427E-03
            1107            1888     199.497E-03     193.802E-03
            1107            1894     175.589E-03     182.956E-03
            1107            1895     183.069E-03     200.242E-03
            1108            1888     199.497E-03     193.802E-03
            1108            1889     217.967E-03     211.624E-03
            1108            1895     183.069E-03     200.242E-03
            1108            1896     193.682E-03     225.900E-03
            1109            1889     217.967E-03     211.624E-03
            1109            1890     236.065E-03     231.793E-03
            1109            1896     193.682E-03     225.900E-03
            1109            1897     205.947E-03     259.611E-03
            1110            1890     236.065E-03     231.793E-03
            1110            1891     256.331E-03     255.993E-03
            1110            1897     205.947E-03     259.611E-03
            1110            1898     219.707E-03     286.335E-03
            1111            1891     256.331E-03     255.993E-03
            1111            1892     289.045E-03     286.435E-03
            1111            1898     219.707E-03     286.335E-03
            1111            1899     242.668E-03     291.795E-03
            1112             255     309.423E-03     302.713E-03
            1112             256     257.867E-03     288.999E-03
            1112            1892     289.045E-03     286.435E-03
            1112            1899     242.668E-03     291.795E-03
            1113             337     172.300E-03     173.393E-03
            1113             338     169.473E-03     168.674E-03
            1113            1893     170.982E-03     172.404E-03
            1113            1900     175.726E-03     175.621E-03
            1114            1893     170.982E-03     172.404E-03
            1114            1894     175.589E-03     182.956E-03
            1114            1900     175.726E-03     175.621E-03
            1114            1901     185.352E-03     182.478E-03
            1115            1894     175.589E-03     182.956E-03
            1115            1895     183.069E-03     200.242E-03
            1115            1901     185.352E-03     182.478E-03
            1115            1902     200.571E-03     195.807E-03
            1116            1895     183.069E-03     200.242E-03
            1116            1896     193.682E-03     225.900E-03
            1116            1902     200.571E-03     195.807E-03
            1116            1903     221.236E-03     217.395E-03
            1117            1896     193.682E-03     225.900E-03
            1117            1897     205.947E-03     259.611E-03
            1117            1903     221.236E-03     217.395E-03
            1117            1904     244.477E-03     243.305E-03
            1118            1897     205.947E-03     259.611E-03
            1118            1898     219.707E-03     286.335E-03
            1118            1904     244.477E-03     243.305E-03
            1118            1905     261.363E-03     259.976E-03
            1119            1898     219.707E-03     286.335E-03
            1119            1899     242.668E-03     291.795E-03
            1119            1905     261.363E-03     259.976E-03
            1119            1906     255.266E-03     245.258E-03
            1120             256     257.867E-03     288.999E-03
            1120             257     243.831E-03     226.845E-03
            1120            1899     242.668E-03     291.795E-03
            1120            1906     255.266E-03     245.258E-03
            1121             336     173.341E-03     170.702E-03
            1121             337     172.300E-03     173.393E-03
            1121            1900     175.726E-03     175.621E-03
            1121            1907     178.623E-03     175.337E-03
            1122            1900     175.726E-03     175.621E-03
            1122            1901     185.352E-03     182.478E-03
            1122            1907     178.623E-03     175.337E-03
            1122            1908     192.816E-03     188.552E-03
            1123            1901     185.352E-03     182.478E-03
            1123            1902     200.571E-03     195.807E-03
            1123            1908     192.816E-03     188.552E-03
            1123            1909     213.835E-03     209.346E-03
            1124            1902     200.571E-03     195.807E-03
            1124            1903     221.236E-03     217.395E-03
            1124            1909     213.835E-03     209.346E-03
            1124            1910     239.542E-03     234.762E-03
            1125            1903     221.236E-03     217.395E-03
            1125            1904     244.477E-03     243.305E-03
            1125            1910     239.542E-03     234.762E-03
            1125            1911     264.106E-03     256.262E-03
            1126            1904     244.477E-03     243.305E-03
            1126            1905     261.363E-03     259.976E-03
            1126            1911     264.106E-03     256.262E-03
            1126            1912     276.388E-03     268.176E-03
            1127            1905     261.363E-03     259.976E-03
            1127            1906     255.266E-03     245.258E-03
            1127            1912     276.388E-03     268.176E-03
            1127            1913     273.811E-03     264.172E-03
            1128             257     243.831E-03     226.845E-03
            1128             258     269.860E-03     256.494E-03
            1128            1906     255.266E-03     245.258E-03
            1128            1913     273.811E-03     264.172E-03
            1129             335     174.354E-03     172.105E-03
            1129             336     173.341E-03     170.702E-03
            1129            1907     178.623E-03     175.337E-03
            1129            1914     180.420E-03     178.892E-03
            1130            1907     178.623E-03     175.337E-03
            1130            1908     192.816E-03     188.552E-03
            1130            1914     180.420E-03     178.892E-03
            1130            1915     196.604E-03     197.716E-03
            1131            1908     192.816E-03     188.552E-03
            1131            1909     213.835E-03     209.346E-03
            1131            1915     196.604E-03     197.716E-03
            1131            1916     218.913E-03     224.866E-03
            1132            1909     213.835E-03     209.346E-03
            1132            1910     239.542E-03     234.762E-03
            1132            1916     218.913E-03     224.866E-03
            1132            1917     242.961E-03     253.106E-03
            1133            1910     239.542E-03     234.762E-03
            1133            1911     264.106E-03     256.262E-03
            1133            1917     242.961E-03     253.106E-03
            1133            1918     261.055E-03     274.902E-03
            1134            1911     264.106E-03     256.262E-03
            1134            1912     276.388E-03     268.176E-03
            1134            1918     261.055E-03     274.902E-03
            1134            1919     270.014E-03     290.002E-03
            1135            1912     276.388E-03     268.176E-03
            1135            1913     273.811E-03     264.172E-03
            1135            1919     270.014E-03     290.002E-03
            1135            1920     281.443E-03     294.859E-03
            1136             258     269.860E-03     256.494E-03
            1136             259     290.093E-03     293.220E-03
            1136            1913     273.811E-03     264.172E-03
            1136            1920     281.443E-03     294.859E-03
            1137             334     173.503E-03     172.293E-03
            1137             335     174.354E-03     172.105E-03
            1137            1914     180.420E-03     178.892E-03
            1137            1921     181.902E-03     180.722E-03
            1138            1914     180.420E-03     178.892E-03
            1138            1915     196.604E-03     197.716E-03
            1138            1921     181.902E-03     180.722E-03
            1138            1922     203.652E-03     203.044E-03
            1139            1915     196.604E-03     197.716E-03
            1139            1916     218.913E-03     224.866E-03
            1139            1922     203.652E-03     203.044E-03
            1139            1923     232.402E-03     232.257E-03
            1140            1916     218.913E-03     224.866E-03
            1140            1917     242.961E-03     253.106E-03
            1140            1923     232.402E-03     232.257E-03
            1140            1924     260.137E-03     259.098E-03
            1141            1917     242.961E-03     253.106E-03
            1141            1918     261.055E-03     274.902E-03
            1141            1924     260.137E-03     259.098E-03
            1141            1925     280.569E-03     280.104E-03
            1142            1918     261.055E-03     274.902E-03
            1142            1919     270.014E-03     290.002E-03
            1142            1925     280.569E-03     280.104E-03
            1142            1926     295.649E-03     300.067E-03
            1143            1919     270.014E-03     290.002E-03
            1143            1920     281.443E-03     294.859E-03
            1143            1926     295.649E-03     300.067E-03
            1143            1927     312.095E-03     314.788E-03
            1144             259     290.093E-03     293.220E-03
            1144             260     321.496E-03     318.963E-03
            1144            1920     281.443E-03     294.859E-03
            1144            1927     312.095E-03     314.788E-03
            1145             333     172.847E-03     172.271E-03
            1145             334     173.503E-03     172.293E-03
            1145            1921     181.902E-03     180.722E-03
            1145            1928     183.039E-03     183.234E-03
            1146            1921     181.902E-03     180.722E-03
            1146            1922     203.652E-03     203.044E-03
            1146            1928     183.039E-03     183.234E-03
            1146            1929     209.420E-03     211.049E-03
            1147            1922     203.652E-03     203.044E-03
            1147            1923     232.402E-03     232.257E-03
            1147            1929     209.420E-03     211.049E-03
            1147            1930     242.828E-03     244.373E-03
            1148            1923     232.402E-03     232.257E-03
            1148            1924     260.137E-03     259.098E-03
            1148            1930     242.828E-03     244.373E-03
            1148            1931     273.419E-03     274.111E-03
            1149            1924     260.137E-03     259.098E-03
            1149            1925     280.569E-03     280.104E-03
            1149            1931     273.419E-03     274.111E-03
            1149            1932     295.579E-03     300.712E-03
            1150            1925     280.569E-03     280.104E-03
            1150            1926     295.649E-03     300.067E-03
            1150            1932     295.579E-03     300.712E-03
            1150            1933     313.385E-03     326.997E-03
            1151            1926     295.649E-03     300.067E-03
            1151            1927     312.095E-03     314.788E-03
            1151            1933     313.385E-03     326.997E-03
            1151            1934     335.813E-03     344.359E-03
            1152             260     321.496E-03     318.963E-03
            1152             261     349.152E-03     348.698E-03
            1152            1927     312.095E-03     314.788E-03
            1152            1934     335.813E-03     344.359E-03
            1153             332     172.370E-03     172.574E-03
            1153             333     172.847E-03     172.271E-03
            1153            1928     183.039E-03     183.234E-03
            1153            1935     184.797E-03     185.809E-03
            1154            1928     183.039E-03     183.234E-03
            1154            1929     209.420E-03     211.049E-03
            1154            1935     184.797E-03     185.809E-03
            1154            1936     216.567E-03     217.633E-03
            1155            1929     209.420E-03     211.049E-03
            1155            1930     242.828E-03     244.373E-03
            1155            1936     216.567E-03     217.633E-03
            1155            1937     255.735E-03     254.143E-03
            1156            1930     242.828E-03     244.373E-03
            1156            1931     273.419E-03     274.111E-03
            1156            1937     255.735E-03     254.143E-03
            1156            1938     290.575E-03     287.296E-03
            1157            1931     273.419E-03     274.111E-03
            1157            1932     295.579E-03     300.712E-03
            1157            1938     290.575E-03     287.296E-03
            1157            1939     317.319E-03     318.729E-03
            1158            1932     295.579E-03     300.712E-03
            1158            1933     313.385E-03     326.997E-03
            1158            1939     317.319E-03     318.729E-03
            1158            1940     339.630E-03     350.320E-03
            1159            1933     313.385E-03     326.997E-03
            1159            1934     335.813E-03     344.359E-03
            1159            1940     339.630E-03     350.320E-03
            1159            1941     363.034E-03     371.897E-03
            1160             261     349.152E-03     348.698E-03
            1160             262     375.784E-03     378.009E-03
            1160            1934     335.813E-03     344.359E-03
            1160            1941     363.034E-03     371.897E-03
            1161             331     171.751E-03     171.581E-03
            1161             332     172.370E-03     172.574E-03
            1161            1935     184.797E-03     185.809E-03
            1161            1942     185.926E-03     186.440E-03
            1162            1935     184.797E-03     185.809E-03
            1162            1936     216.567E-03     217.633E-03
            1162            1942     185.926E-03     186.440E-03
            1162            1943     222.166E-03     222.051E-03
            1163            1936     216.567E-03     217.633E-03
            1163            1937     255.735E-03     254.143E-03
            1163            1943     222.166E-03     222.051E-03
            1163            1944     266.598E-03     262.292E-03
            1164            1937     255.735E-03     254.143E-03
            1164            1938     290.575E-03     287.296E-03
            1164            1944     266.598E-03     262.292E-03
            1164            1945     306.444E-03     299.682E-03
            1165            1938     290.575E-03     287.296E-03
            1165            1939     317.319E-03     318.729E-03
            1165            1945     306.444E-03     299.682E-03
            1165            1946     337.925E-03     335.658E-03
            1166            1939     317.319E-03     318.729E-03
            1166            1940     339.630E-03     350.320E-03
            1166            1946     337.925E-03     335.658E-03
            1166            1947     366.230E-03     370.273E-03
            1167            1940     339.630E-03     350.320E-03
            1167            1941     363.034E-03     371.897E-03
            1167            1947     366.230E-03     370.273E-03
            1167            1948     394.185E-03     393.527E-03
            1168             262     375.784E-03     378.009E-03
            1168             263     407.762E-03     400.160E-03
            1168            1941     363.034E-03     371.897E-03
            1168            1948     394.185E-03     393.527E-03
            1169             330     169.381E-03     173.036E-03
            1169             331     171.751E-03     171.581E-03
            1169            1942     185.926E-03     186.440E-03
            1169            1949     184.261E-03     190.680E-03
            1170            1942     185.926E-03     186.440E-03
            1170            1943     222.166E-03     222.051E-03
            1170            1949     184.261E-03     190.680E-03
            1170            1950     222.583E-03     233.285E-03
            1171            1943     222.166E-03     222.051E-03
            1171            1944     266.598E-03     262.292E-03
            1171            1950     222.583E-03     233.285E-03
            1171            1951     270.689E-03     283.534E-03
            1172            1944     266.598E-03     262.292E-03
            1172            1945     306.444E-03     299.682E-03
            1172            1951     270.689E-03     283.534E-03
            1172            1952     315.065E-03     331.053E-03
            1173            1945     306.444E-03     299.682E-03
            1173            1946     337.925E-03     335.658E-03
            1173            1952     315.065E-03     331.053E-03
            1173            1953     349.841E-03     377.230E-03
            1174            1946     337.925E-03     335.658E-03
            1174            1947     366.230E-03     370.273E-03
            1174            1953     349.841E-03     377.230E-03
            1174            1954     378.160E-03     419.712E-03
            1175            1947     366.230E-03     370.273E-03
            1175            1948     394.185E-03     393.527E-03
            1175            1954     378.160E-03     419.712E-03
            1175            1955     408.883E-03     441.316E-03
            1176             263     407.762E-03     400.160E-03
            1176             264     426.274E-03     444.298E-03
            1176            1948     394.185E-03     393.527E-03
            1176            1955     408.883E-03     441.316E-03
            1177             329     173.484E-03     173.955E-03
            1177             330     169.381E-03     173.036E-03
            1177            1949     184.261E-03     190.680E-03
            1177            1956     192.904E-03     190.637E-03
            1178            1949     184.261E-03     190.680E-03
            1178            1950     222.583E-03     233.285E-03
            1178            1956     192.904E-03     190.637E-03
            1178            1957     241.128E-03     231.319E-03
            1179            1950     222.583E-03     233.285E-03
            1179            1951     270.689E-03     283.534E-03
            1179            1957     241.128E-03     231.319E-03
            1179            1958     302.412E-03     281.130E-03
            1180            1951     270.689E-03     283.534E-03
            1180            1952     315.065E-03     331.053E-03
            1180            1958     302.412E-03     281.130E-03
            1180            1959     363.882E-03     330.760E-03
            1181            1952     315.065E-03     331.053E-03
            1181            1953     349.841E-03     377.230E-03
            1181            1959     363.882E-03     330.760E-03
            1181            1960     415.830E-03     375.495E-03
            1182            1953     349.841E-03     377.230E-03
            1182            1954     378.160E-03     419.712E-03
            1182            1960     415.830E-03     375.495E-03
            1182            1961     457.333E-03     421.851E-03
            1183            1954     378.160E-03     419.712E-03
            1183            1955     408.883E-03     441.316E-03
            1183            1961     457.333E-03     421.851E-03
            1183            1962     483.161E-03     455.281E-03
            1184             264     426.274E-03     444.298E-03
            1184             265     490.352E-03     463.189E-03
            1184            1955     408.883E-03     441.316E-03
            1184            1962     483.161E-03     455.281E-03
            1185             328     172.994E-03     165.617E-03
            1185             329     173.484E-03     173.955E-03
            1185            1956     192.904E-03     190.637E-03
            1185            1963     190.798E-03     183.285E-03
            1186            1956     192.904E-03     190.637E-03
            1186            1957     241.128E-03     231.319E-03
            1186            1963     190.798E-03     183.285E-03
            1186            1964     236.185E-03     227.512E-03
            1187            1957     241.128E-03     231.319E-03
            1187            1958     302.412E-03     281.130E-03
            1187            1964     236.185E-03     227.512E-03
            1187            1965     293.762E-03     283.034E-03
            1188            1958     302.412E-03     281.130E-03
            1188            1959     363.882E-03     330.760E-03
            1188            1965     293.762E-03     283.034E-03
            1188            1966     354.298E-03     342.928E-03
            1189            1959     363.882E-03     330.760E-03
            1189            1960     415.830E-03     375.495E-03
            1189            1966     354.298E-03     342.928E-03
            1189            1967     408.486E-03     400.544E-03
            1190            1960     415.830E-03     375.495E-03
            1190            1961     457.333E-03     421.851E-03
            1190            1967     408.486E-03     400.544E-03
            1190            1968     454.531E-03     452.283E-03
            1191            1961     457.333E-03     421.851E-03
            1191            1962     483.161E-03     455.281E-03
            1191            1968     454.531E-03     452.283E-03
            1191            1969     502.605E-03     494.867E-03
            1192             265     490.352E-03     463.189E-03
            1192             266     528.195E-03     512.311E-03
            1192            1962     483.161E-03     455.281E-03
            1192            1969     502.605E-03     494.867E-03
            1193             327     172.027E-03     172.496E-03
            1193             328     172.994E-03     165.617E-03
            1193            1963     190.798E-03     183.285E-03
            1193            1970     183.971E-03     190.223E-03
            1194            1963     190.798E-03     183.285E-03
            1194            1964     236.185E-03     227.512E-03
            1194            1970     183.971E-03     190.223E-03
            1194            1971     215.227E-03     235.310E-03
            1195            1964     236.185E-03     227.512E-03
            1195            1965     293.762E-03     283.034E-03
            1195            1971     215.227E-03     235.310E-03
            1195            1972     257.659E-03     296.458E-03
            1196            1965     293.762E-03     283.034E-03
            1196            1966     354.298E-03     342.928E-03
            1196            1972     257.659E-03     296.458E-03
            1196            1973     303.912E-03     368.318E-03
            1197            1966     354.298E-03     342.928E-03
            1197            1967     408.486E-03     400.544E-03
            1197            1973     303.912E-03     368.318E-03
            1197            1974     347.160E-03     446.561E-03
            1198            1967     408.486E-03     400.544E-03
            1198            1968     454.531E-03     452.283E-03
            1198            1974     347.160E-03     446.561E-03
            1198            1975     384.350E-03     504.169E-03
            1199            1968     454.531E-03     452.283E-03
            1199            1969     502.605E-03     494.867E-03
            1199            1975     384.350E-03     504.169E-03
            1199            1976     430.710E-03     518.864E-03
            1200             266     528.195E-03     512.311E-03
            1200             267     459.936E-03     516.033E-03
            1200            1969     502.605E-03     494.867E-03
            1200            1976     430.710E-03     518.864E-03
            1201             326     176.778E-03     179.774E-03
            1201             327     172.027E-03     172.496E-03
            1201            1970     183.971E-03     190.223E-03
            1201            1977     193.672E-03     193.982E-03
            1202            1970     183.971E-03     190.223E-03
            1202            1971     215.227E-03     235.310E-03
            1202            1977     193.672E-03     193.982E-03
            1202            1978     236.777E-03     231.412E-03
            1203            1971     215.227E-03     235.310E-03
            1203            1972     257.659E-03     296.458E-03
            1203            1978     236.777E-03     231.412E-03
            1203            1979     293.551E-03     284.265E-03
            1204            1972     257.659E-03     296.458E-03
            1204            1973     303.912E-03     368.318E-03
            1204            1979     293.551E-03     284.265E-03
            1204            1980     355.864E-03     347.144E-03
            1205            1973     303.912E-03     368.318E-03
            1205            1974     347.160E-03     446.561E-03
            1205            1980     355.864E-03     347.144E-03
            1205            1981     414.584E-03     409.842E-03
            1206            1974     347.160E-03     446.561E-03
            1206            1975     384.350E-03     504.169E-03
            1206            1981     414.584E-03     409.842E-03
            1206            1982     456.748E-03     453.756E-03
            1207            1975     384.350E-03     504.169E-03
            1207            1976     430.710E-03     518.864E-03
            1207            1982     456.748E-03     453.756E-03
            1207            1983     466.247E-03     451.256E-03
            1208             267     459.936E-03     516.033E-03
            1208             268     460.464E-03     434.215E-03
            1208            1976     430.710E-03     518.864E-03
            1208            1983     466.247E-03     451.256E-03
            1209             325     178.510E-03     174.583E-03
            1209             326     176.778E-03     179.774E-03
            1209            1977     193.672E-03     193.982E-03
            1209            1984     199.238E-03     193.591E-03
            1210            1977     193.672E-03     193.982E-03
            1210            1978     236.777E-03     231.412E-03
            1210            1984     199.238E-03     193.591E-03
            1210            1985     250.655E-03     241.541E-03
            1211            1978     236.777E-03     231.412E-03
            1211            1979     293.551E-03     284.265E-03
            1211            1985     250.655E-03     241.541E-03
            1211            1986     316.111E-03     303.400E-03
            1212            1979     293.551E-03     284.265E-03
            1212            1980     355.864E-03     347.144E-03
            1212            1986     316.111E-03     303.400E-03
            1212            1987     384.399E-03     367.523E-03
            1213            1980     355.864E-03     347.144E-03
            1213            1981     414.584E-03     409.842E-03
            1213            1987     384.399E-03     367.523E-03
            1213            1988     442.973E-03     419.976E-03
            1214            1981     414.584E-03     409.842E-03
            1214            1982     456.748E-03     453.756E-03
            1214            1988     442.973E-03     419.976E-03
            1214            1989     477.409E-03     456.353E-03
            1215            1982     456.748E-03     453.756E-03
            1215            1983     466.247E-03     451.256E-03
            1215            1989     477.409E-03     456.353E-03
            1215            1990     485.211E-03     464.986E-03
            1216             268     460.464E-03     434.215E-03
            1216             269     483.531E-03     458.396E-03
            1216            1983     466.247E-03     451.256E-03
            1216            1990     485.211E-03     464.986E-03
            1217             324     180.366E-03     177.274E-03
            1217             325     178.510E-03     174.583E-03
            1217            1984     199.238E-03     193.591E-03
            1217            1991     201.015E-03     200.356E-03
            1218            1984     199.238E-03     193.591E-03
            1218            1985     250.655E-03     241.541E-03
            1218            1991     201.015E-03     200.356E-03
            1218            1992     252.029E-03     257.204E-03
            1219            1985     250.655E-03     241.541E-03
            1219            1986     316.111E-03     303.400E-03
            1219            1992     252.029E-03     257.204E-03
            1219            1993     314.724E-03     327.041E-03
            1220            1986     316.111E-03     303.400E-03
            1220            1987     384.399E-03     367.523E-03
            1220            1993     314.724E-03     327.041E-03
            1220            1994     375.074E-03     392.909E-03
            1221            1987     384.399E-03     367.523E-03
            1221            1988     442.973E-03     419.976E-03
            1221            1994     375.074E-03     392.909E-03
            1221            1995     420.100E-03     445.505E-03
            1222            1988     442.973E-03     419.976E-03
            1222            1989     477.409E-03     456.353E-03
            1222            1995     420.100E-03     445.505E-03
            1222            1996     447.283E-03     484.963E-03
            1223            1989     477.409E-03     456.353E-03
            1223            1990     485.211E-03     464.986E-03
            1223            1996     447.283E-03     484.963E-03
            1223            1997     474.320E-03     500.879E-03
            1224             269     483.531E-03     458.396E-03
            1224             270     491.092E-03     500.036E-03
            1224            1990     485.211E-03     464.986E-03
            1224            1997     474.320E-03     500.879E-03
            1225             323     178.995E-03     177.756E-03
            1225             324     180.366E-03     177.274E-03
            1225            1991     201.015E-03     200.356E-03
            1225            1998     203.650E-03     202.604E-03
            1226            1991     201.015E-03     200.356E-03
            1226            1992     252.029E-03     257.204E-03
            1226            1998     203.650E-03     202.604E-03
            1226            1999     262.978E-03     262.369E-03
            1227            1992     252.029E-03     257.204E-03
            1227            1993     314.724E-03     327.041E-03
            1227            1999     262.978E-03     262.369E-03
            1227            2000     332.976E-03     331.334E-03
            1228            1993     314.724E-03     327.041E-03
            1228            1994     375.074E-03     392.909E-03
            1228            2000     332.976E-03     331.334E-03
            1228            2001     395.708E-03     391.970E-03
            1229            1994     375.074E-03     392.909E-03
            1229            1995     420.100E-03     445.505E-03
            1229            2001     395.708E-03     391.970E-03
            1229            2002     442.200E-03     441.049E-03
            1230            1995     420.100E-03     445.505E-03
            1230            1996     447.283E-03     484.963E-03
            1230            2002     442.200E-03     441.049E-03
            1230            2003     477.333E-03     484.507E-03
            1231            1996     447.283E-03     484.963E-03
            1231            1997     474.320E-03     500.879E-03
            1231            2003     477.333E-03     484.507E-03
            1231            2004     509.658E-03     513.010E-03
            1232             270     491.092E-03     500.036E-03
            1232             271     525.832E-03     520.444E-03
            1232            1997     474.320E-03     500.879E-03
            1232            2004     509.658E-03     513.010E-03
            1233             322     178.048E-03     177.697E-03
            1233             323     178.995E-03     177.756E-03
            1233            1998     203.650E-03     202.604E-03
            1233            2005     205.256E-03     206.387E-03
            1234            1998     203.650E-03     202.604E-03
            1234            1999     262.978E-03     262.369E-03
            1234            2005     205.256E-03     206.387E-03
            1234            2006     270.305E-03     273.114E-03
            1235            1999     262.978E-03     262.369E-03
            1235            2000     332.976E-03     331.334E-03
            1235            2006     270.305E-03     273.114E-03
            1235            2007     344.670E-03     345.835E-03
            1236            2000     332.976E-03     331.334E-03
            1236            2001     395.708E-03     391.970E-03
            1236            2007     344.670E-03     345.835E-03
            1236            2008     408.900E-03     408.608E-03
            1237            2001     395.708E-03     391.970E-03
            1237            2002     442.200E-03     441.049E-03
            1237            2008     408.900E-03     408.608E-03
            1237            2009     456.008E-03     463.441E-03
            1238            2002     442.200E-03     441.049E-03
            1238            2003     477.333E-03     484.507E-03
            1238            2009     456.008E-03     463.441E-03
            1238            2010     492.904E-03     513.796E-03
            1239            2003     477.333E-03     484.507E-03
            1239            2004     509.658E-03     513.010E-03
            1239            2010     492.904E-03     513.796E-03
            1239            2011     531.337E-03     544.865E-03
            1240             271     525.832E-03     520.444E-03
            1240             272     552.169E-03     552.216E-03
            1240            2004     509.658E-03     513.010E-03
            1240            2011     531.337E-03     544.865E-03
            1241             321     177.326E-03     178.155E-03
            1241             322     178.048E-03     177.697E-03
            1241            2005     205.256E-03     206.387E-03
            1241            2012     207.465E-03     209.739E-03
            1242            2005     205.256E-03     206.387E-03
            1242            2006     270.305E-03     273.114E-03
            1242            2012     207.465E-03     209.739E-03
            1242            2013     278.762E-03     280.999E-03
            1243            2006     270.305E-03     273.114E-03
            1243            2007     344.670E-03     345.835E-03
            1243            2013     278.762E-03     280.999E-03
            1243            2014     358.846E-03     356.631E-03
            1244            2007     344.670E-03     345.835E-03
            1244            2008     408.900E-03     408.608E-03
            1244            2014     358.846E-03     356.631E-03
            1244            2015     426.886E-03     422.466E-03
            1245            2008     408.900E-03     408.608E-03
            1245            2009     456.008E-03     463.441E-03
            1245            2015     426.886E-03     422.466E-03
            1245            2016     478.179E-03     481.808E-03
            1246            2009     456.008E-03     463.441E-03
            1246            2010     492.904E-03     513.796E-03
            1246            2016     478.179E-03     481.808E-03
            1246            2017     519.259E-03     537.197E-03
            1247            2010     492.904E-03     513.796E-03
            1247            2011     531.337E-03     544.865E-03
            1247            2017     519.259E-03     537.197E-03
            1247            2018     558.508E-03     572.352E-03
            1248             272     552.169E-03     552.216E-03
            1248             273     578.747E-03     581.467E-03
            1248            2011     531.337E-03     544.865E-03
            1248            2018     558.508E-03     572.352E-03
            1249             320     176.344E-03     176.681E-03
            1249             321     177.326E-03     178.155E-03
            1249            2012     207.465E-03     209.739E-03
            1249            2019     208.670E-03     209.907E-03
            1250            2012     207.465E-03     209.739E-03
            1250            2013     278.762E-03     280.999E-03
            1250            2019     208.670E-03     209.907E-03
            1250            2020     284.931E-03     285.040E-03
            1251            2013     278.762E-03     280.999E-03
            1251            2014     358.846E-03     356.631E-03
            1251            2020     284.931E-03     285.040E-03
            1251            2021     370.618E-03     364.513E-03
            1252            2014     358.846E-03     356.631E-03
            1252            2015     426.886E-03     422.466E-03
            1252            2021     370.618E-03     364.513E-03
            1252            2022     444.301E-03     434.599E-03
            1253            2015     426.886E-03     422.466E-03
            1253            2016     478.179E-03     481.808E-03
            1253            2022     444.301E-03     434.599E-03
            1253            2023     500.730E-03     497.711E-03
            1254            2016     478.179E-03     481.808E-03
            1254            2017     519.259E-03     537.197E-03
            1254            2023     500.730E-03     497.711E-03
            1254            2024     548.222E-03     554.973E-03
            1255            2017     519.259E-03     537.197E-03
            1255            2018     558.508E-03     572.352E-03
            1255            2024     548.222E-03     554.973E-03
            1255            2025     591.619E-03     591.611E-03
            1256             273     578.747E-03     581.467E-03
            1256             274     611.908E-03     601.464E-03
            1256            2018     558.508E-03     572.352E-03
            1256            2025     591.619E-03     591.611E-03
            1257             319     172.820E-03     178.676E-03
            1257             320     176.344E-03     176.681E-03
            1257            2019     208.670E-03     209.907E-03
            1257            2026     205.494E-03     215.616E-03
            1258            2019     208.670E-03     209.907E-03
            1258            2020     284.931E-03     285.040E-03
            1258            2026     205.494E-03     215.616E-03
            1258            2027     282.990E-03     299.443E-03
            1259            2020     284.931E-03     285.040E-03
            1259            2021     370.618E-03     364.513E-03
            1259            2027     282.990E-03     299.443E-03
            1259            2028     371.942E-03     391.453E-03
            1260            2021     370.618E-03     364.513E-03
            1260            2022     444.301E-03     434.599E-03
            1260            2028     371.942E-03     391.453E-03
            1260            2029     450.864E-03     474.494E-03
            1261            2022     444.301E-03     434.599E-03
            1261            2023     500.730E-03     497.711E-03
            1261            2029     450.864E-03     474.494E-03
            1261            2030     510.755E-03     549.750E-03
            1262            2023     500.730E-03     497.711E-03
            1262            2024     548.222E-03     554.973E-03
            1262            2030     510.755E-03     549.750E-03
            1262            2031     556.015E-03     615.187E-03
            1263            2024     548.222E-03     554.973E-03
            1263            2025     591.619E-03     591.611E-03
            1263            2031     556.015E-03     615.187E-03
            1263            2032     601.609E-03     647.088E-03
            1264             274     611.908E-03     601.464E-03
            1264             275     626.927E-03     650.763E-03
            1264            2025     591.619E-03     591.611E-03
            1264            2032     601.609E-03     647.088E-03
            1265             318     178.673E-03     179.509E-03
            1265             319     172.820E-03     178.676E-03
            1265            2026     205.494E-03     215.616E-03
            1265            2033     217.597E-03     213.900E-03
            1266            2026     205.494E-03     215.616E-03
            1266            2027     282.990E-03     299.443E-03
            1266            2033     217.597E-03     213.900E-03
            1266            2034     307.876E-03     293.069E-03
            1267            2027     282.990E-03     299.443E-03
            1267            2028     371.942E-03     391.453E-03
            1267            2034     307.876E-03     293.069E-03
            1267            2035     413.102E-03     383.019E-03
            1268            2028     371.942E-03     391.453E-03
            1268            2029     450.864E-03     474.494E-03
            1268            2035     413.102E-03     383.019E-03
            1268            2036     514.119E-03     468.558E-03
            1269            2029     450.864E-03     474.494E-03
            1269            2030     510.755E-03     549.750E-03
            1269            2036     514.119E-03     468.558E-03
            1269            2037     597.214E-03     541.829E-03
            1270            2030     510.755E-03     549.750E-03
            1270            2031     556.015E-03     615.187E-03
            1270            2037     597.214E-03     541.829E-03
            1270            2038     659.163E-03     610.930E-03
            1271            2031     556.015E-03     615.187E-03
            1271            2032     601.609E-03     647.088E-03
            1271            2038     659.163E-03     610.930E-03
            1271            2039     694.335E-03     655.923E-03
            1272             275     626.927E-03     650.763E-03
            1272             276     703.376E-03     664.607E-03
            1272            2032     601.609E-03     647.088E-03
            1272            2039     694.335E-03     655.923E-03
            1273             317     177.750E-03     168.022E-03
            1273             318     178.673E-03     179.509E-03
            1273            2033     217.597E-03     213.900E-03
            1273            2040     213.281E-03     203.340E-03
            1274            2033     217.597E-03     213.900E-03
            1274            2034     307.876E-03     293.069E-03
            1274            2040     213.281E-03     203.340E-03
            1274            2041     297.693E-03     285.724E-03
            1275            2034     307.876E-03     293.069E-03
            1275            2035     413.102E-03     383.019E-03
            1275            2041     297.693E-03     285.724E-03
            1275            2042     396.705E-03     381.343E-03
            1276            2035     413.102E-03     383.019E-03
            1276            2036     514.119E-03     468.558E-03
            1276            2042     396.705E-03     381.343E-03
            1276            2043     495.570E-03     479.332E-03
            1277            2036     514.119E-03     468.558E-03
            1277            2037     597.214E-03     541.829E-03
            1277            2043     495.570E-03     479.332E-03
            1277            2044     581.813E-03     570.448E-03
            1278            2037     597.214E-03     541.829E-03
            1278            2038     659.163E-03     610.930E-03
            1278            2044     581.813E-03     570.448E-03
            1278            2045     651.019E-03     647.288E-03
            1279            2038     659.163E-03     610.930E-03
            1279            2039     694.335E-03     655.923E-03
            1279            2045     651.019E-03     647.288E-03
            1279            2046     713.507E-03     700.805E-03
            1280             276     703.376E-03     664.607E-03
            1280             277     744.179E-03     719.045E-03
            1280            2039     694.335E-03     655.923E-03
            1280            2046     713.507E-03     700.805E-03
            1281             316     175.672E-03     178.614E-03
            1281             317     177.750E-03     168.022E-03
            1281            2040     213.281E-03     203.340E-03
            1281            2047     201.723E-03     214.542E-03
            1282            2040     213.281E-03     203.340E-03
            1282            2041     297.693E-03     285.724E-03
            1282            2047     201.723E-03     214.542E-03
            1282            2048     265.061E-03     298.907E-03
            1283            2041     297.693E-03     285.724E-03
            1283            2042     396.705E-03     381.343E-03
            1283            2048     265.061E-03     298.907E-03
            1283            2049     342.360E-03     401.785E-03
            1284            2042     396.705E-03     381.343E-03
            1284            2043     495.570E-03     479.332E-03
            1284            2049     342.360E-03     401.785E-03
            1284            2050     420.190E-03     514.274E-03
            1285            2043     495.570E-03     479.332E-03
            1285            2044     581.813E-03     570.448E-03
            1285            2050     420.190E-03     514.274E-03
            1285            2051     490.119E-03     632.733E-03
            1286            2044     581.813E-03     570.448E-03
            1286            2045     651.019E-03     647.288E-03
            1286            2051     490.119E-03     632.733E-03
            1286            2052     547.816E-03     719.637E-03
            1287            2045     651.019E-03     647.288E-03
            1287            2046     713.507E-03     700.805E-03
            1287            2052     547.816E-03     719.637E-03
            1287            2053     616.665E-03     743.472E-03
            1288             277     744.179E-03     719.045E-03
            1288             278     659.839E-03     740.689E-03
            1288            2046     713.507E-03     700.805E-03
            1288            2053     616.665E-03     743.472E-03
            1289             315     182.187E-03     188.482E-03
            1289             316     175.672E-03     178.614E-03
            1289            2047     201.723E-03     214.542E-03
            1289            2054     217.653E-03     219.029E-03
            1290            2047     201.723E-03     214.542E-03
            1290            2048     265.061E-03     298.907E-03
            1290            2054     217.653E-03     219.029E-03
            1290            2055     300.198E-03     292.610E-03
            1291            2048     265.061E-03     298.907E-03
            1291            2049     342.360E-03     401.785E-03
            1291            2055     300.198E-03     292.610E-03
            1291            2056     397.025E-03     383.125E-03
            1292            2049     342.360E-03     401.785E-03
            1292            2050     420.190E-03     514.274E-03
            1292            2056     397.025E-03     383.125E-03
            1292            2057     495.555E-03     481.732E-03
            1293            2050     420.190E-03     514.274E-03
            1293            2051     490.119E-03     632.733E-03
            1293            2057     495.555E-03     481.732E-03
            1293            2058     584.503E-03     576.375E-03
            1294            2051     490.119E-03     632.733E-03
            1294            2052     547.816E-03     719.637E-03
            1294            2058     584.503E-03     576.375E-03
            1294            2059     649.779E-03     645.283E-03
            1295            2052     547.816E-03     719.637E-03
            1295            2053     616.665E-03     743.472E-03
            1295            2059     649.779E-03     645.283E-03
            1295            2060     674.730E-03     655.408E-03
            1296             278     659.839E-03     740.689E-03
            1296             279     674.452E-03     640.033E-03
            1296            2053     616.665E-03     743.472E-03
            1296            2060     674.730E-03     655.408E-03
            1297             314     184.583E-03     181.192E-03
            1297             315     182.187E-03     188.482E-03
            1297            2054     217.653E-03     219.029E-03
            1297            2061     225.693E-03     218.806E-03
            1298            2054     217.653E-03     219.029E-03
            1298            2055     300.198E-03     292.610E-03
            1298            2061     225.693E-03     218.806E-03
            1298            2062     320.420E-03     306.226E-03
            1299            2055     300.198E-03     292.610E-03
            1299            2056     397.025E-03     383.125E-03
            1299            2062     320.420E-03     306.226E-03
            1299            2063     428.943E-03     407.199E-03
            1300            2056     397.025E-03     383.125E-03
            1300            2057     495.555E-03     481.732E-03
            1300            2063     428.943E-03     407.199E-03
            1300            2064     534.955E-03     504.800E-03
            1301            2057     495.555E-03     481.732E-03
            1301            2058     584.503E-03     576.375E-03
            1301            2064     534.955E-03     504.800E-03
            1301            2065     623.158E-03     584.007E-03
            1302            2058     584.503E-03     576.375E-03
            1302            2059     649.779E-03     645.283E-03
            1302            2065     623.158E-03     584.007E-03
            1302            2066     676.635E-03     643.225E-03
            1303            2059     649.779E-03     645.283E-03
            1303            2060     674.730E-03     655.408E-03
            1303            2066     676.635E-03     643.225E-03
            1303            2067     694.657E-03     664.259E-03
            1304             279     674.452E-03     640.033E-03
            1304             280     696.164E-03     658.725E-03
            1304            2060     674.730E-03     655.408E-03
            1304            2067     694.657E-03     664.259E-03
            1305             313     186.396E-03     184.834E-03
            1305             314     184.583E-03     181.192E-03
            1305            2061     225.693E-03     218.806E-03
            1305            2068     226.034E-03     228.225E-03
            1306            2061     225.693E-03     218.806E-03
            1306            2062     320.420E-03     306.226E-03
            1306            2068     226.034E-03     228.225E-03
            1306            2069     317.078E-03     327.149E-03
            1307            2062     320.420E-03     306.226E-03
            1307            2063     428.943E-03     407.199E-03
            1307            2069     317.078E-03     327.149E-03
            1307            2070     420.114E-03     437.773E-03
            1308            2063     428.943E-03     407.199E-03
            1308            2064     534.955E-03     504.800E-03
            1308            2070     420.114E-03     437.773E-03
            1308            2071     513.341E-03     536.740E-03
            1309            2064     534.955E-03     504.800E-03
            1309            2065     623.158E-03     584.007E-03
            1309            2071     513.341E-03     536.740E-03
            1309            2072     581.517E-03     615.435E-03
            1310            2065     623.158E-03     584.007E-03
            1310            2066     676.635E-03     643.225E-03
            1310            2072     581.517E-03     615.435E-03
            1310            2073     625.362E-03     676.854E-03
            1311            2066     676.635E-03     643.225E-03
            1311            2067     694.657E-03     664.259E-03
            1311            2073     625.362E-03     676.854E-03
            1311            2074     666.720E-03     705.110E-03
            1312             280     696.164E-03     658.725E-03
            1312             281     690.691E-03     706.628E-03
            1312            2067     694.657E-03     664.259E-03
            1312            2074     666.720E-03     705.110E-03
            1313             312     184.068E-03     185.401E-03
            1313             313     186.396E-03     184.834E-03
            1313            2068     226.034E-03     228.225E-03
            1313            2075     228.418E-03     230.451E-03
            1314            2068     226.034E-03     228.225E-03
            1314            2069     317.078E-03     327.149E-03
            1314            2075     228.418E-03     230.451E-03
            1314            2076     329.709E-03     332.384E-03
            1315            2069     317.078E-03     327.149E-03
            1315            2070     420.114E-03     437.773E-03
            1315            2076     329.709E-03     332.384E-03
            1315            2077     440.483E-03     441.046E-03
            1316            2070     420.114E-03     437.773E-03
            1316            2071     513.341E-03     536.740E-03
            1316            2077     440.483E-03     441.046E-03
            1316            2078     535.752E-03     533.070E-03
            1317            2071     513.341E-03     536.740E-03
            1317            2072     581.517E-03     615.435E-03
            1317            2078     535.752E-03     533.070E-03
            1317            2079     604.017E-03     607.391E-03
            1318            2072     581.517E-03     615.435E-03
            1318            2073     625.362E-03     676.854E-03
            1318            2079     604.017E-03     607.391E-03
            1318            2080     655.064E-03     671.940E-03
            1319            2073     625.362E-03     676.854E-03
            1319            2074     666.720E-03     705.110E-03
            1319            2080     655.064E-03     671.940E-03
            1319            2081     705.058E-03     712.035E-03
            1320             281     690.691E-03     706.628E-03
            1320             282     730.697E-03     721.523E-03
            1320            2074     666.720E-03     705.110E-03
            1320            2081     705.058E-03     712.035E-03
            1321             311     183.875E-03     184.414E-03
            1321             312     184.068E-03     185.401E-03
            1321            2075     228.418E-03     230.451E-03
            1321            2082     231.793E-03     233.895E-03
            1322            2075     228.418E-03     230.451E-03
            1322            2076     329.709E-03     332.384E-03
            1322            2082     231.793E-03     233.895E-03
            1322            2083     340.424E-03     342.565E-03
            1323            2076     329.709E-03     332.384E-03
            1323            2077     440.483E-03     441.046E-03
            1323            2083     340.424E-03     342.565E-03
            1323            2084     458.205E-03     453.880E-03
            1324            2077     440.483E-03     441.046E-03
            1324            2078     535.752E-03     533.070E-03
            1324            2084     458.205E-03     453.880E-03
            1324            2085     556.901E-03     546.729E-03
            1325            2078     535.752E-03     533.070E-03
            1325            2079     604.017E-03     607.391E-03
            1325            2085     556.901E-03     546.729E-03
            1325            2086     628.634E-03     626.061E-03
            1326            2079     604.017E-03     607.391E-03
            1326            2080     655.064E-03     671.940E-03
            1326            2086     628.634E-03     626.061E-03
            1326            2087     681.797E-03     699.809E-03
            1327            2080     655.064E-03     671.940E-03
            1327            2081     705.058E-03     712.035E-03
            1327            2087     681.797E-03     699.809E-03
            1327            2088     729.949E-03     747.108E-03
            1328             282     730.697E-03     721.523E-03
            1328             283     754.904E-03     759.126E-03
            1328            2081     705.058E-03     712.035E-03
            1328            2088     729.949E-03     747.108E-03
            1329             310     183.280E-03     182.445E-03
            1329             311     183.875E-03     184.414E-03
            1329            2082     231.793E-03     233.895E-03
            1329            2089     232.701E-03     234.401E-03
            1330            2082     231.793E-03     233.895E-03
            1330            2083     340.424E-03     342.565E-03
            1330            2089     232.701E-03     234.401E-03
            1330            2090     345.283E-03     347.973E-03
            1331            2083     340.424E-03     342.565E-03
            1331            2084     458.205E-03     453.880E-03
            1331            2090     345.283E-03     347.973E-03
            1331            2091     466.861E-03     462.989E-03
            1332            2084     458.205E-03     453.880E-03
            1332            2085     556.901E-03     546.729E-03
            1332            2091     466.861E-03     462.989E-03
            1332            2092     569.170E-03     560.025E-03
            1333            2085     556.901E-03     546.729E-03
            1333            2086     628.634E-03     626.061E-03
            1333            2092     569.170E-03     560.025E-03
            1333            2093     643.998E-03     643.254E-03
            1334            2086     628.634E-03     626.061E-03
            1334            2087     681.797E-03     699.809E-03
            1334            2093     643.998E-03     643.254E-03
            1334            2094     704.463E-03     717.813E-03
            1335            2087     681.797E-03     699.809E-03
            1335            2088     729.949E-03     747.108E-03
            1335            2094     704.463E-03     717.813E-03
            1335            2095     762.326E-03     765.005E-03
            1336             283     754.904E-03     759.126E-03
            1336             284     790.519E-03     777.084E-03
            1336            2088     729.949E-03     747.108E-03
            1336            2095     762.326E-03     765.005E-03
            1337             309     178.417E-03     184.753E-03
            1337             310     183.280E-03     182.445E-03
            1337            2089     232.701E-03     234.401E-03
            1337            2096     228.367E-03     241.213E-03
            1338            2089     232.701E-03     234.401E-03
            1338            2090     345.283E-03     347.973E-03
            1338            2096     228.367E-03     241.213E-03
            1338            2097     341.741E-03     364.088E-03
            1339            2090     345.283E-03     347.973E-03
            1339            2091     466.861E-03     462.989E-03
            1339            2097     341.741E-03     364.088E-03
            1339            2098     466.181E-03     491.939E-03
            1340            2091     466.861E-03     462.989E-03
            1340            2092     569.170E-03     560.025E-03
            1340            2098     466.181E-03     491.939E-03
            1340            2099     574.037E-03     602.931E-03
            1341            2092     569.170E-03     560.025E-03
            1341            2093     643.998E-03     643.254E-03
            1341            2099     574.037E-03     602.931E-03
            1341            2100     653.476E-03     699.861E-03
            1342            2093     643.998E-03     643.254E-03
            1342            2094     704.463E-03     717.813E-03
            1342            2100     653.476E-03     699.861E-03
            1342            2101     711.873E-03     784.073E-03
            1343            2094     704.463E-03     717.813E-03
            1343            2095     762.326E-03     765.005E-03
            1343            2101     711.873E-03     784.073E-03
            1343            2102     770.243E-03     826.472E-03
            1344             284     790.519E-03     777.084E-03
            1344             285     802.675E-03     831.876E-03
            1344            2095     762.326E-03     765.005E-03
            1344            2102     770.243E-03     826.472E-03
            1345             308     185.885E-03     185.256E-03
            1345             309     178.417E-03     184.753E-03
            1345            2096     228.367E-03     241.213E-03
            1345            2103     243.509E-03     237.964E-03
            1346            2096     228.367E-03     241.213E-03
            1346            2097     341.741E-03     364.088E-03
            1346            2103     243.509E-03     237.964E-03
            1346            2104     371.902E-03     353.746E-03
            1347            2097     341.741E-03     364.088E-03
            1347            2098     466.181E-03     491.939E-03
            1347            2104     371.902E-03     353.746E-03
            1347            2105     514.319E-03     477.465E-03
            1348            2098     466.181E-03     491.939E-03
            1348            2099     574.037E-03     602.931E-03
            1348            2105     514.319E-03     477.465E-03
            1348            2106     648.193E-03     591.156E-03
            1349            2099     574.037E-03     602.931E-03
            1349            2100     653.476E-03     699.861E-03
            1349            2106     648.193E-03     591.156E-03
            1349            2107     756.802E-03     686.949E-03
            1350            2100     653.476E-03     699.861E-03
            1350            2101     711.873E-03     784.073E-03
            1350            2107     756.802E-03     686.949E-03
            1350            2108     835.360E-03     775.909E-03
            1351            2101     711.873E-03     784.073E-03
            1351            2102     770.243E-03     826.472E-03
            1351            2108     835.360E-03     775.909E-03
            1351            2109     879.636E-03     831.925E-03
            1352             285     802.675E-03     831.876E-03
            1352             286     891.580E-03     841.583E-03
            1352            2102     770.243E-03     826.472E-03
            1352            2109     879.636E-03     831.925E-03
            1353             307     183.988E-03     171.530E-03
            1353             308     185.885E-03     185.256E-03
            1353            2103     243.509E-03     237.964E-03
            1353            2110     236.962E-03     225.063E-03
            1354            2103     243.509E-03     237.964E-03
            1354            2104     371.902E-03     353.746E-03
            1354            2110     236.962E-03     225.063E-03
            1354            2111     356.838E-03     343.202E-03
            1355            2104     371.902E-03     353.746E-03
            1355            2105     514.319E-03     477.465E-03
            1355            2111     356.838E-03     343.202E-03
            1355            2112     490.296E-03     471.442E-03
            1356            2105     514.319E-03     477.465E-03
            1356            2106     648.193E-03     591.156E-03
            1356            2112     490.296E-03     471.442E-03
            1356            2113     620.465E-03     599.580E-03
            1357            2106     648.193E-03     591.156E-03
            1357            2107     756.802E-03     686.949E-03
            1357            2113     620.465E-03     599.580E-03
            1357            2114     733.139E-03     718.517E-03
            1358            2107     756.802E-03     686.949E-03
            1358            2108     835.360E-03     775.909E-03
            1358            2114     733.139E-03     718.517E-03
            1358            2115     822.717E-03     817.988E-03
            1359            2108     835.360E-03     775.909E-03
            1359            2109     879.636E-03     831.925E-03
            1359            2115     822.717E-03     817.988E-03
            1359            2116     899.239E-03     882.557E-03
            1360             286     891.580E-03     841.583E-03
            1360             287     935.100E-03     901.939E-03
            1360            2109     879.636E-03     831.925E-03
            1360            2116     899.239E-03     882.557E-03
            1361             306     175.637E-03     184.319E-03
            1361             307     183.988E-03     171.530E-03
            1361            2110     236.962E-03     225.063E-03
            1361            2117     218.565E-03     241.885E-03
            1362            2110     236.962E-03     225.063E-03
            1362            2111     356.838E-03     343.202E-03
            1362            2117     218.565E-03     241.885E-03
            1362            2118     315.849E-03     366.842E-03
            1363            2111     356.838E-03     343.202E-03
            1363            2112     490.296E-03     471.442E-03
            1363            2118     315.849E-03     366.842E-03
            1363            2119     423.147E-03     502.212E-03
            1364            2112     490.296E-03     471.442E-03
            1364            2113     620.465E-03     599.580E-03
            1364            2119     423.147E-03     502.212E-03
            1364            2120     523.745E-03     640.333E-03
            1365            2113     620.465E-03     599.580E-03
            1365            2114     733.139E-03     718.517E-03
            1365            2120     523.745E-03     640.333E-03
            1365            2121     610.901E-03     785.637E-03
            1366            2114     733.139E-03     718.517E-03
            1366            2115     822.717E-03     817.988E-03
            1366            2121     610.901E-03     785.637E-03
            1366            2122     683.032E-03     896.925E-03
            1367            2115     822.717E-03     817.988E-03
            1367            2116     899.239E-03     882.557E-03
            1367            2122     683.032E-03     896.925E-03
            1367            2123     773.331E-03     933.626E-03
            1368             287     935.100E-03     901.939E-03
            1368             288     830.889E-03     934.043E-03
            1368            2116     899.239E-03     882.557E-03
            1368            2123     773.331E-03     933.626E-03
            1369             305     180.893E-03     193.341E-03
            1369             306     175.637E-03     184.319E-03
            1369            2117     218.565E-03     241.885E-03
            1369            2124     240.330E-03     245.209E-03
            1370            2117     218.565E-03     241.885E-03
            1370            2118     315.849E-03     366.842E-03
            1370            2124     240.330E-03     245.209E-03
            1370            2125     368.040E-03     359.490E-03
            1371            2118     315.849E-03     366.842E-03
            1371            2119     423.147E-03     502.212E-03
            1371            2125     368.040E-03     359.490E-03
            1371            2126     500.862E-03     480.985E-03
            1372            2119     423.147E-03     502.212E-03
            1372            2120     523.745E-03     640.333E-03
            1372            2126     500.862E-03     480.985E-03
            1372            2127     623.583E-03     597.781E-03
            1373            2120     523.745E-03     640.333E-03
            1373            2121     610.901E-03     785.637E-03
            1373            2127     623.583E-03     597.781E-03
            1373            2128     730.396E-03     705.735E-03
            1374            2121     610.901E-03     785.637E-03
            1374            2122     683.032E-03     896.925E-03
            1374            2128     730.396E-03     705.735E-03
            1374            2129     809.808E-03     794.044E-03
            1375            2122     683.032E-03     896.925E-03
            1375            2123     773.331E-03     933.626E-03
            1375            2129     809.808E-03     794.044E-03
            1375            2130     845.905E-03     823.819E-03
            1376             288     830.889E-03     934.043E-03
            1376             289     851.070E-03     815.390E-03
            1376            2123     773.331E-03     933.626E-03
            1376            2130     845.905E-03     823.819E-03
            1377             304     184.492E-03     180.526E-03
            1377             305     180.893E-03     193.341E-03
            1377            2124     240.330E-03     245.209E-03
            1377            2131     248.808E-03     239.155E-03
            1378            2124     240.330E-03     245.209E-03
            1378            2125     368.040E-03     359.490E-03
            1378            2131     248.808E-03     239.155E-03
            1378            2132     388.504E-03     368.829E-03
            1379            2125     368.040E-03     359.490E-03
            1379            2126     500.862E-03     480.985E-03
            1379            2132     388.504E-03     368.829E-03
            1379            2133     535.919E-03     505.616E-03
            1380            2126     500.862E-03     480.985E-03
            1380            2127     623.583E-03     597.781E-03
            1380            2133     535.919E-03     505.616E-03
            1380            2134     671.129E-03     625.734E-03
            1381            2127     623.583E-03     597.781E-03
            1381            2128     730.396E-03     705.735E-03
            1381            2134     671.129E-03     625.734E-03
            1381            2135     778.648E-03     715.952E-03
            1382            2128     730.396E-03     705.735E-03
            1382            2129     809.808E-03     794.044E-03
            1382            2135     778.648E-03     715.952E-03
            1382            2136     847.145E-03     788.021E-03
            1383            2129     809.808E-03     794.044E-03
            1383            2130     845.905E-03     823.819E-03
            1383            2136     847.145E-03     788.021E-03
            1383            2137     877.789E-03     824.418E-03
            1384             289     851.070E-03     815.390E-03
            1384             290     884.104E-03     824.434E-03
            1384            2130     845.905E-03     823.819E-03
            1384            2137     877.789E-03     824.418E-03
            1385             303     182.958E-03     188.028E-03
            1385             304     184.492E-03     180.526E-03
            1385            2131     248.808E-03     239.155E-03
            1385            2138     238.905E-03     255.108E-03
            1386            2131     248.808E-03     239.155E-03
            1386            2132     388.504E-03     368.829E-03
            1386            2138     238.905E-03     255.108E-03
            1386            2139     364.394E-03     402.631E-03
            1387            2132     388.504E-03     368.829E-03
            1387            2133     535.919E-03     505.616E-03
            1387            2139     364.394E-03     402.631E-03
            1387            2140     503.346E-03     560.091E-03
            1388            2133     535.919E-03     505.616E-03
            1388            2134     671.129E-03     625.734E-03
            1388            2140     503.346E-03     560.091E-03
            1388            2141     628.370E-03     693.450E-03
            1389            2134     671.129E-03     625.734E-03
            1389            2135     778.648E-03     715.952E-03
            1389            2141     628.370E-03     693.450E-03
            1389            2142     714.646E-03     795.528E-03
            1390            2135     778.648E-03     715.952E-03
            1390            2136     847.145E-03     788.021E-03
            1390            2142     714.646E-03     795.528E-03
            1390            2143     763.157E-03     876.012E-03
            1391            2136     847.145E-03     788.021E-03
            1391            2137     877.789E-03     824.418E-03
            1391            2143     763.157E-03     876.012E-03
            1391            2144     819.633E-03     910.823E-03
            1392             290     884.104E-03     824.434E-03
            1392             291     858.116E-03     910.715E-03
            1392            2137     877.789E-03     824.418E-03
            1392            2144     819.633E-03     910.823E-03
            1393             302     192.426E-03     188.845E-03
            1393             303     182.958E-03     188.028E-03
            1393            2138     238.905E-03     255.108E-03
            1393            2145     259.282E-03     249.142E-03
            1394            2138     238.905E-03     255.108E-03
            1394            2139     364.394E-03     402.631E-03
            1394            2145     259.282E-03     249.142E-03
            1394            2146     405.593E-03     384.097E-03
            1395            2139     364.394E-03     402.631E-03
            1395            2140     503.346E-03     560.091E-03
            1395            2146     405.593E-03     384.097E-03
            1395            2147     564.468E-03     528.244E-03
            1396            2140     503.346E-03     560.091E-03
            1396            2141     628.370E-03     693.450E-03
            1396            2147     564.468E-03     528.244E-03
            1396            2148     712.631E-03     651.236E-03
            1397            2141     628.370E-03     693.450E-03
            1397            2142     714.646E-03     795.528E-03
            1397            2148     712.631E-03     651.236E-03
            1397            2149     828.252E-03     742.016E-03
            1398            2142     714.646E-03     795.528E-03
            1398            2143     763.157E-03     876.012E-03
            1398            2149     828.252E-03     742.016E-03
            1398            2150     907.755E-03     828.606E-03
            1399            2143     763.157E-03     876.012E-03
            1399            2144     819.633E-03     910.823E-03
            1399            2150     907.755E-03     828.606E-03
            1399            2151     955.246E-03     890.592E-03
            1400             291     858.116E-03     910.715E-03
            1400             292     969.935E-03     903.114E-03
            1400            2144     819.633E-03     910.823E-03
            1400            2151     955.246E-03     890.592E-03
            1401             301     191.445E-03     174.113E-03
            1401             302     192.426E-03     188.845E-03
            1401            2145     259.282E-03     249.142E-03
            1401            2152     253.534E-03     238.810E-03
            1402            2145     259.282E-03     249.142E-03
            1402            2146     405.593E-03     384.097E-03
            1402            2152     253.534E-03     238.810E-03
            1402            2153     390.693E-03     378.140E-03
            1403            2146     405.593E-03     384.097E-03
            1403            2147     564.468E-03     528.244E-03
            1403            2153     390.693E-03     378.140E-03
            1403            2154     538.714E-03     520.475E-03
            1404            2147     564.468E-03     528.244E-03
            1404            2148     712.631E-03     651.236E-03
            1404            2154     538.714E-03     520.475E-03
            1404            2155     678.730E-03     651.516E-03
            1405            2148     712.631E-03     651.236E-03
            1405            2149     828.252E-03     742.016E-03
            1405            2155     678.730E-03     651.516E-03
            1405            2156     797.223E-03     769.732E-03
            1406            2149     828.252E-03     742.016E-03
            1406            2150     907.755E-03     828.606E-03
            1406            2156     797.223E-03     769.732E-03
            1406            2157     890.493E-03     877.789E-03
            1407            2150     907.755E-03     828.606E-03
            1407            2151     955.246E-03     890.592E-03
            1407            2157     890.493E-03     877.789E-03
            1407            2158     973.214E-03     955.398E-03
            1408             292     969.935E-03     903.114E-03
            1408             293         1.01394     979.656E-03
            1408            2151     955.246E-03     890.592E-03
            1408            2158     973.214E-03     955.398E-03
            1409              12     189.831E-03     198.264E-03
            1409             300     240.555E-03     269.505E-03
            1409             301     191.445E-03     174.113E-03
            1409            2152     253.534E-03     238.810E-03
            1410             299     351.852E-03     415.188E-03
            1410             300     240.555E-03     269.505E-03
            1410            2152     253.534E-03     238.810E-03
            1410            2153     390.693E-03     378.140E-03
            1411             298     473.372E-03     563.886E-03
            1411             299     351.852E-03     415.188E-03
            1411            2153     390.693E-03     378.140E-03
            1411            2154     538.714E-03     520.475E-03
            1412             297     583.267E-03     706.488E-03
            1412             298     473.372E-03     563.886E-03
            1412            2154     538.714E-03     520.475E-03
            1412            2155     678.730E-03     651.516E-03
            1413             296     675.790E-03     857.134E-03
            1413             297     583.267E-03     706.488E-03
            1413            2155     678.730E-03     651.516E-03
            1413            2156     797.223E-03     769.732E-03
            1414             295     753.055E-03     981.459E-03
            1414             296     675.790E-03     857.134E-03
            1414            2156     797.223E-03     769.732E-03
            1414            2157     890.493E-03     877.789E-03
            1415             294     853.936E-03         1.03152
            1415             295     753.055E-03     981.459E-03
            1415            2157     890.493E-03     877.789E-03
            1415            2158     973.214E-03     955.398E-03
            1416              11     920.172E-03         1.03777
            1416             293         1.01394     979.656E-03
            1416             294     853.936E-03         1.03152
            1416            2158     973.214E-03     955.398E-03
            2705               5     12.8758E-03     25.6792E-03
            2705             183     254.581E-06     252.918E-06
            2705             242     18.3803E-03     23.8817E-03
            2705            3271     228.728E-06     229.587E-06
            2706             241     30.4561E-03     28.9206E-03
            2706             242     18.3803E-03     23.8817E-03
            2706            3271     228.728E-06     229.587E-06
            2706            3272     198.109E-06     199.570E-06
            2707             240     44.7775E-03     43.7365E-03
            2707             241     30.4561E-03     28.9206E-03
            2707            3272     198.109E-06     199.570E-06
            2707            3273     201.820E-06     198.962E-06
            2708             239     57.4359E-03     56.7541E-03
            2708             240     44.7775E-03     43.7365E-03
            2708            3273     201.820E-06     198.962E-06
            2708            3274     216.517E-06     212.019E-06
            2709             238     67.2558E-03     66.6525E-03
            2709             239     57.4359E-03     56.7541E-03
            2709            3274     216.517E-06     212.019E-06
            2709            3275     228.918E-06     225.790E-06
            2710             237     74.8581E-03     74.3715E-03
            2710             238     67.2558E-03     66.6525E-03
            2710            3275     228.918E-06     225.790E-06
            2710            3276     239.978E-06     236.653E-06
            2711             236     79.2014E-03     78.8519E-03
            2711             237     74.8581E-03     74.3715E-03
            2711            3276     239.978E-06     236.653E-06
            2711            3277     247.812E-06     243.090E-06
            2712               8     80.8528E-03     80.4741E-03
            2712             235     250.767E-06     245.455E-06
            2712             236     79.2014E-03     78.8519E-03
            2712            3277     247.812E-06     243.090E-06
            2713             183     254.581E-06     252.918E-06
            2713             184     199.434E-06     186.114E-06
            2713            3271     228.728E-06     229.587E-06
            2713            3278     191.773E-06     176.269E-06
            2714            3271     228.728E-06     229.587E-06
            2714            3272     198.109E-06     199.570E-06
            2714            3278     191.773E-06     176.269E-06
            2714            3279     185.053E-06     165.663E-06
            2715            3272     198.109E-06     199.570E-06
            2715            3273     201.820E-06     198.962E-06
            2715            3279     185.053E-06     165.663E-06
            2715            3280     194.956E-06     175.848E-06
            2716            3273     201.820E-06     198.962E-06
            2716            3274     216.517E-06     212.019E-06
            2716            3280     194.956E-06     175.848E-06
            2716            3281     212.568E-06     199.855E-06
            2717            3274     216.517E-06     212.019E-06
            2717            3275     228.918E-06     225.790E-06
            2717            3281     212.568E-06     199.855E-06
            2717            3282     227.575E-06     221.821E-06
            2718            3275     228.918E-06     225.790E-06
            2718            3276     239.978E-06     236.653E-06
            2718            3282     227.575E-06     221.821E-06
            2718            3283     239.659E-06     236.941E-06
            2719            3276     239.978E-06     236.653E-06
            2719            3277     247.812E-06     243.090E-06
            2719            3283     239.659E-06     236.941E-06
            2719            3284     248.384E-06     246.478E-06
            2720             234     251.381E-06     249.801E-06
            2720             235     250.767E-06     245.455E-06
            2720            3277     247.812E-06     243.090E-06
            2720            3284     248.384E-06     246.478E-06
            2721             184     199.434E-06     186.114E-06
            2721             185     127.531E-06     140.735E-06
            2721            3278     191.773E-06     176.269E-06
            2721            3285     121.147E-06     137.232E-06
            2722            3278     191.773E-06     176.269E-06
            2722            3279     185.053E-06     165.663E-06
            2722            3285     121.147E-06     137.232E-06
            2722            3286     128.819E-06     143.721E-06
            2723            3279     185.053E-06     165.663E-06
            2723            3280     194.956E-06     175.848E-06
            2723            3286     128.819E-06     143.721E-06
            2723            3287     158.639E-06     167.892E-06
            2724            3280     194.956E-06     175.848E-06
            2724            3281     212.568E-06     199.855E-06
            2724            3287     158.639E-06     167.892E-06
            2724            3288     188.564E-06     194.949E-06
            2725            3281     212.568E-06     199.855E-06
            2725            3282     227.575E-06     221.821E-06
            2725            3288     188.564E-06     194.949E-06
            2725            3289     214.141E-06     217.807E-06
            2726            3282     227.575E-06     221.821E-06
            2726            3283     239.659E-06     236.941E-06
            2726            3289     214.141E-06     217.807E-06
            2726            3290     233.249E-06     234.829E-06
            2727            3283     239.659E-06     236.941E-06
            2727            3284     248.384E-06     246.478E-06
            2727            3290     233.249E-06     234.829E-06
            2727            3291     245.055E-06     245.548E-06
            2728             233     249.168E-06     249.225E-06
            2728             234     251.381E-06     249.801E-06
            2728            3284     248.384E-06     246.478E-06
            2728            3291     245.055E-06     245.548E-06
            2729             185     127.531E-06     140.735E-06
            2729             186     87.9004E-06     81.2677E-06
            2729            3285     121.147E-06     137.232E-06
            2729            3292     86.9672E-06     79.4258E-06
            2730            3285     121.147E-06     137.232E-06
            2730            3286     128.819E-06     143.721E-06
            2730            3292     86.9672E-06     79.4258E-06
            2730            3293     106.888E-06     100.863E-06
            2731            3286     128.819E-06     143.721E-06
            2731            3287     158.639E-06     167.892E-06
            2731            3293     106.888E-06     100.863E-06
            2731            3294     146.181E-06     145.564E-06
            2732            3287     158.639E-06     167.892E-06
            2732            3288     188.564E-06     194.949E-06
            2732            3294     146.181E-06     145.564E-06
            2732            3295     180.763E-06     181.962E-06
            2733            3288     188.564E-06     194.949E-06
            2733            3289     214.141E-06     217.807E-06
            2733            3295     180.763E-06     181.962E-06
            2733            3296     210.436E-06     209.571E-06
            2734            3289     214.141E-06     217.807E-06
            2734            3290     233.249E-06     234.829E-06
            2734            3296     210.436E-06     209.571E-06
            2734            3297     232.549E-06     231.101E-06
            2735            3290     233.249E-06     234.829E-06
            2735            3291     245.055E-06     245.548E-06
            2735            3297     232.549E-06     231.101E-06
            2735            3298     245.474E-06     244.457E-06
            2736             232     249.814E-06     248.916E-06
            2736             233     249.168E-06     249.225E-06
            2736            3291     245.055E-06     245.548E-06
            2736            3298     245.474E-06     244.457E-06
            2737             186     87.9004E-06     81.2677E-06
            2737             187     50.8793E-06     48.8770E-06
            2737            3292     86.9672E-06     79.4258E-06
            2737            3299     57.4791E-06     53.4851E-06
            2738            3292     86.9672E-06     79.4258E-06
            2738            3293     106.888E-06     100.863E-06
            2738            3299     57.4791E-06     53.4851E-06
            2738            3300     88.0918E-06     87.4877E-06
            2739            3293     106.888E-06     100.863E-06
            2739            3294     146.181E-06     145.564E-06
            2739            3300     88.0918E-06     87.4877E-06
            2739            3301     133.522E-06     137.480E-06
            2740            3294     146.181E-06     145.564E-06
            2740            3295     180.763E-06     181.962E-06
            2740            3301     133.522E-06     137.480E-06
            2740            3302     174.192E-06     175.666E-06
            2741            3295     180.763E-06     181.962E-06
            2741            3296     210.436E-06     209.571E-06
            2741            3302     174.192E-06     175.666E-06
            2741            3303     207.691E-06     206.775E-06
            2742            3296     210.436E-06     209.571E-06
            2742            3297     232.549E-06     231.101E-06
            2742            3303     207.691E-06     206.775E-06
            2742            3304     231.576E-06     229.949E-06
            2743            3297     232.549E-06     231.101E-06
            2743            3298     245.474E-06     244.457E-06
            2743            3304     231.576E-06     229.949E-06
            2743            3305     245.729E-06     244.456E-06
            2744             231     250.241E-06     249.309E-06
            2744             232     249.814E-06     248.916E-06
            2744            3298     245.474E-06     244.457E-06
            2744            3305     245.729E-06     244.456E-06
            2745             187     50.8793E-06     48.8770E-06
            2745             188     48.2514E-06     65.3435E-06
            2745            3299     57.4791E-06     53.4851E-06
            2745            3306     53.7504E-06     64.4918E-06
            2746            3299     57.4791E-06     53.4851E-06
            2746            3300     88.0918E-06     87.4877E-06
            2746            3306     53.7504E-06     64.4918E-06
            2746            3307     80.1455E-06     86.4848E-06
            2747            3300     88.0918E-06     87.4877E-06
            2747            3301     133.522E-06     137.480E-06
            2747            3307     80.1455E-06     86.4848E-06
            2747            3308     125.888E-06     130.847E-06
            2748            3301     133.522E-06     137.480E-06
            2748            3302     174.192E-06     175.666E-06
            2748            3308     125.888E-06     130.847E-06
            2748            3309     170.537E-06     170.654E-06
            2749            3302     174.192E-06     175.666E-06
            2749            3303     207.691E-06     206.775E-06
            2749            3309     170.537E-06     170.654E-06
            2749            3310     205.248E-06     203.632E-06
            2750            3303     207.691E-06     206.775E-06
            2750            3304     231.576E-06     229.949E-06
            2750            3310     205.248E-06     203.632E-06
            2750            3311     230.009E-06     228.093E-06
            2751            3304     231.576E-06     229.949E-06
            2751            3305     245.729E-06     244.456E-06
            2751            3311     230.009E-06     228.093E-06
            2751            3312     244.665E-06     242.955E-06
            2752             230     249.469E-06     248.047E-06
            2752             231     250.241E-06     249.309E-06
            2752            3305     245.729E-06     244.456E-06
            2752            3312     244.665E-06     242.955E-06
            2753               6     58.0338E-06     92.8049E-06
            2753             188     48.2514E-06     65.3435E-06
            2753             488     58.5448E-06     80.3609E-06
            2753            3306     53.7504E-06     64.4918E-06
            2754             487     79.7606E-06     85.8590E-06
            2754             488     58.5448E-06     80.3609E-06
            2754            3306     53.7504E-06     64.4918E-06
            2754            3307     80.1455E-06     86.4848E-06
            2755             486     125.313E-06     126.303E-06
            2755             487     79.7606E-06     85.8590E-06
            2755            3307     80.1455E-06     86.4848E-06
            2755            3308     125.888E-06     130.847E-06
            2756             485     169.616E-06     167.817E-06
            2756             486     125.313E-06     126.303E-06
            2756            3308     125.888E-06     130.847E-06
            2756            3309     170.537E-06     170.654E-06
            2757             484     204.099E-06     201.797E-06
            2757             485     169.616E-06     167.817E-06
            2757            3309     170.537E-06     170.654E-06
            2757            3310     205.248E-06     203.632E-06
            2758             483     228.771E-06     226.942E-06
            2758             484     204.099E-06     201.797E-06
            2758            3310     205.248E-06     203.632E-06
            2758            3311     230.009E-06     228.093E-06
            2759             482     243.393E-06     242.182E-06
            2759             483     228.771E-06     226.942E-06
            2759            3311     230.009E-06     228.093E-06
            2759            3312     244.665E-06     242.955E-06
            2760              10     248.371E-06     247.246E-06
            2760             230     249.469E-06     248.047E-06
            2760             482     243.393E-06     242.182E-06
            2760            3312     244.665E-06     242.955E-06
            2761               3     914.150E-03         1.03472
            2761             433     960.445E-03     908.036E-03
            2761             489     848.852E-03         1.02826
            2761            3313     950.042E-03     909.869E-03
            2762             489     848.852E-03         1.02826
            2762             490     750.074E-03     977.529E-03
            2762            3313     950.042E-03     909.869E-03
            2762            3314     902.275E-03     873.488E-03
            2763             490     750.074E-03     977.529E-03
            2763             491     673.861E-03     852.549E-03
            2763            3314     902.275E-03     873.488E-03
            2763            3315     812.964E-03     781.544E-03
            2764             491     673.861E-03     852.549E-03
            2764             492     580.556E-03     701.077E-03
            2764            3315     812.964E-03     781.544E-03
            2764            3316     696.144E-03     665.691E-03
            2765             492     580.556E-03     701.077E-03
            2765             493     469.758E-03     557.481E-03
            2765            3316     696.144E-03     665.691E-03
            2765            3317     559.034E-03     536.627E-03
            2766             493     469.758E-03     557.481E-03
            2766             494     348.100E-03     408.505E-03
            2766            3317     559.034E-03     536.627E-03
            2766            3318     408.535E-03     397.765E-03
            2767             494     348.100E-03     408.505E-03
            2767             495     237.771E-03     264.421E-03
            2767            3318     408.535E-03     397.765E-03
            2767            3319     265.371E-03     268.440E-03
            2768              12     189.831E-03     198.264E-03
            2768             495     237.771E-03     264.421E-03
            2768             496     202.217E-03     213.194E-03
            2768            3319     265.371E-03     268.440E-03
            2769             433     960.445E-03     908.036E-03
            2769             434     973.556E-03     956.646E-03
            2769            3313     950.042E-03     909.869E-03
            2769            3320     961.589E-03     960.079E-03
            2770            3313     950.042E-03     909.869E-03
            2770            3314     902.275E-03     873.488E-03
            2770            3320     961.589E-03     960.079E-03
            2770            3321     929.646E-03     923.566E-03
            2771            3314     902.275E-03     873.488E-03
            2771            3315     812.964E-03     781.544E-03
            2771            3321     929.646E-03     923.566E-03
            2771            3322     861.183E-03     839.549E-03
            2772            3315     812.964E-03     781.544E-03
            2772            3316     696.144E-03     665.691E-03
            2772            3322     861.183E-03     839.549E-03
            2772            3323     740.919E-03     732.353E-03
            2773            3316     696.144E-03     665.691E-03
            2773            3317     559.034E-03     536.627E-03
            2773            3323     740.919E-03     732.353E-03
            2773            3324     588.126E-03     589.347E-03
            2774            3317     559.034E-03     536.627E-03
            2774            3318     408.535E-03     397.765E-03
            2774            3324     588.126E-03     589.347E-03
            2774            3325     424.065E-03     426.140E-03
            2775            3318     408.535E-03     397.765E-03
            2775            3319     265.371E-03     268.440E-03
            2775            3325     424.065E-03     426.140E-03
            2775            3326     270.543E-03     273.368E-03
            2776             496     202.217E-03     213.194E-03
            2776             497     201.086E-03     204.059E-03
            2776            3319     265.371E-03     268.440E-03
            2776            3326     270.543E-03     273.368E-03
            2777             434     973.556E-03     956.646E-03
            2777             435         1.03225     993.445E-03
            2777            3320     961.589E-03     960.079E-03
            2777            3327         1.01400     987.592E-03
            2778            3320     961.589E-03     960.079E-03
            2778            3321     929.646E-03     923.566E-03
            2778            3327         1.01400     987.592E-03
            2778            3328     969.792E-03     933.466E-03
            2779            3321     929.646E-03     923.566E-03
            2779            3322     861.183E-03     839.549E-03
            2779            3328     969.792E-03     933.466E-03
            2779            3329     894.747E-03     844.194E-03
            2780            3322     861.183E-03     839.549E-03
            2780            3323     740.919E-03     732.353E-03
            2780            3329     894.747E-03     844.194E-03
            2780            3330     770.284E-03     741.072E-03
            2781            3323     740.919E-03     732.353E-03
            2781            3324     588.126E-03     589.347E-03
            2781            3330     770.284E-03     741.072E-03
            2781            3331     610.811E-03     597.459E-03
            2782            3324     588.126E-03     589.347E-03
            2782            3325     424.065E-03     426.140E-03
            2782            3331     610.811E-03     597.459E-03
            2782            3332     443.049E-03     432.528E-03
            2783            3325     424.065E-03     426.140E-03
            2783            3326     270.543E-03     273.368E-03
            2783            3332     443.049E-03     432.528E-03
            2783            3333     288.268E-03     280.018E-03
            2784             497     201.086E-03     204.059E-03
            2784             498     215.822E-03     210.558E-03
            2784            3326     270.543E-03     273.368E-03
            2784            3333     288.268E-03     280.018E-03
            2785             435         1.03225     993.445E-03
            2785             436         1.09425         1.04783
            2785            3327         1.01400     987.592E-03
            2785            3334         1.05110         1.01841
            2786            3327         1.01400     987.592E-03
            2786            3328     969.792E-03     933.466E-03
            2786            3334         1.05110         1.01841
            2786            3335     962.834E-03     937.222E-03
            2787            3328     969.792E-03     933.466E-03
            2787            3329     894.747E-03     844.194E-03
            2787            3335     962.834E-03     937.222E-03
            2787            3336     864.907E-03     831.241E-03
            2788            3329     894.747E-03     844.194E-03
            2788            3330     770.284E-03     741.072E-03
            2788            3336     864.907E-03     831.241E-03
            2788            3337     740.257E-03     711.365E-03
            2789            3330     770.284E-03     741.072E-03
            2789            3331     610.811E-03     597.459E-03
            2789            3337     740.257E-03     711.365E-03
            2789            3338     590.898E-03     571.558E-03
            2790            3331     610.811E-03     597.459E-03
            2790            3332     443.049E-03     432.528E-03
            2790            3338     590.898E-03     571.558E-03
            2790            3339     431.117E-03     416.173E-03
            2791            3332     443.049E-03     432.528E-03
            2791            3333     288.268E-03     280.018E-03
            2791            3339     431.117E-03     416.173E-03
            2791            3340     281.157E-03     266.035E-03
            2792             498     215.822E-03     210.558E-03
            2792             499     211.607E-03     194.476E-03
            2792            3333     288.268E-03     280.018E-03
            2792            3340     281.157E-03     266.035E-03
            2793             436         1.09425         1.04783
            2793             437     999.530E-03         1.08443
            2793            3334         1.05110         1.01841
            2793            3341     943.936E-03         1.06018
            2794            3334         1.05110         1.01841
            2794            3335     962.834E-03     937.222E-03
            2794            3341     943.936E-03         1.06018
            2794            3342     853.200E-03     992.054E-03
            2795            3335     962.834E-03     937.222E-03
            2795            3336     864.907E-03     831.241E-03
            2795            3342     853.200E-03     992.054E-03
            2795            3343     769.907E-03     879.278E-03
            2796            3336     864.907E-03     831.241E-03
            2796            3337     740.257E-03     711.365E-03
            2796            3343     769.907E-03     879.278E-03
            2796            3344     661.088E-03     739.323E-03
            2797            3337     740.257E-03     711.365E-03
            2797            3338     590.898E-03     571.558E-03
            2797            3344     661.088E-03     739.323E-03
            2797            3345     529.293E-03     588.726E-03
            2798            3338     590.898E-03     571.558E-03
            2798            3339     431.117E-03     416.173E-03
            2798            3345     529.293E-03     588.726E-03
            2798            3346     382.669E-03     422.148E-03
            2799            3339     431.117E-03     416.173E-03
            2799            3340     281.157E-03     266.035E-03
            2799            3346     382.669E-03     422.148E-03
            2799            3347     241.502E-03     254.059E-03
            2800             499     211.607E-03     194.476E-03
            2800             500     173.161E-03     168.029E-03
            2800            3340     281.157E-03     266.035E-03
            2800            3347     241.502E-03     254.059E-03
            2801              16         1.02938         1.12095
            2801             437     999.530E-03         1.08443
            2801             507     964.051E-03         1.09135
            2801            3341     943.936E-03         1.06018
            2802             506     862.083E-03         1.01725
            2802             507     964.051E-03         1.09135
            2802            3341     943.936E-03         1.06018
            2802            3342     853.200E-03     992.054E-03
            2803             505     778.659E-03     901.580E-03
            2803             506     862.083E-03         1.01725
            2803            3342     853.200E-03     992.054E-03
            2803            3343     769.907E-03     879.278E-03
            2804             504     672.367E-03     757.142E-03
            2804             505     778.659E-03     901.580E-03
            2804            3343     769.907E-03     879.278E-03
            2804            3344     661.088E-03     739.323E-03
            2805             503     545.156E-03     605.388E-03
            2805             504     672.367E-03     757.142E-03
            2805            3344     661.088E-03     739.323E-03
            2805            3345     529.293E-03     588.726E-03
            2806             502     407.167E-03     443.664E-03
            2806             503     545.156E-03     605.388E-03
            2806            3345     529.293E-03     588.726E-03
            2806            3346     382.669E-03     422.148E-03
            2807             501     278.958E-03     286.886E-03
            2807             502     407.167E-03     443.664E-03
            2807            3346     382.669E-03     422.148E-03
            2807            3347     241.502E-03     254.059E-03
            2808              19     217.942E-03     209.185E-03
            2808             500     173.161E-03     168.029E-03
            2808             501     278.958E-03     286.886E-03
            2808            3347     241.502E-03     254.059E-03
            3001              19     217.942E-03     209.185E-03
            3001             553     270.733E-03     275.940E-03
            3001             576     298.306E-03     276.928E-03
            3001            3498     346.117E-03     327.540E-03
            3002             553     270.733E-03     275.940E-03
            3002             554     396.611E-03     429.873E-03
            3002            3498     346.117E-03     327.540E-03
            3002            3499     467.973E-03     453.300E-03
            3003             554     396.611E-03     429.873E-03
            3003             555     534.526E-03     591.752E-03
            3003            3499     467.973E-03     453.300E-03
            3003            3500     613.821E-03     594.667E-03
            3004             555     534.526E-03     591.752E-03
            3004             556     662.479E-03     744.472E-03
            3004            3500     613.821E-03     594.667E-03
            3004            3501     758.926E-03     729.228E-03
            3005             556     662.479E-03     744.472E-03
            3005             557     769.653E-03     890.155E-03
            3005            3501     758.926E-03     729.228E-03
            3005            3502     882.940E-03     852.378E-03
            3006             557     769.653E-03     890.155E-03
            3006             558     853.545E-03         1.00737
            3006            3502     882.940E-03     852.378E-03
            3006            3503     982.769E-03     970.309E-03
            3007             558     853.545E-03         1.00737
            3007             559     955.868E-03         1.08310
            3007            3503     982.769E-03     970.309E-03
            3007            3504         1.08355         1.06643
            3008              20         1.02144         1.11344
            3008             559     955.868E-03         1.08310
            3008             560         1.13753         1.10201
            3008            3504         1.08355         1.06643
            3009             575     298.983E-03     295.262E-03
            3009             576     298.306E-03     276.928E-03
            3009            3498     346.117E-03     327.540E-03
            3009            3505     351.057E-03     341.402E-03
            3010            3498     346.117E-03     327.540E-03
            3010            3499     467.973E-03     453.300E-03
            3010            3505     351.057E-03     341.402E-03
            3010            3506     481.319E-03     459.523E-03
            3011            3499     467.973E-03     453.300E-03
            3011            3500     613.821E-03     594.667E-03
            3011            3506     481.319E-03     459.523E-03
            3011            3507     638.173E-03     598.966E-03
            3012            3500     613.821E-03     594.667E-03
            3012            3501     758.926E-03     729.228E-03
            3012            3507     638.173E-03     598.966E-03
            3012            3508     791.375E-03     721.763E-03
            3013            3501     758.926E-03     729.228E-03
            3013            3502     882.940E-03     852.378E-03
            3013            3508     791.375E-03     721.763E-03
            3013            3509     912.339E-03     812.571E-03
            3014            3502     882.940E-03     852.378E-03
            3014            3503     982.769E-03     970.309E-03
            3014            3509     912.339E-03     812.571E-03
            3014            3510     997.401E-03     905.100E-03
            3015            3503     982.769E-03     970.309E-03
            3015            3504         1.08355         1.06643
            3015            3510     997.401E-03     905.100E-03
            3015            3511         1.05158     977.419E-03
            3016             560         1.13753         1.10201
            3016             561         1.06955     994.593E-03
            3016            3504         1.08355         1.06643
            3016            3511         1.05158     977.419E-03
            3017             574     289.048E-03     293.146E-03
            3017             575     298.983E-03     295.262E-03
            3017            3505     351.057E-03     341.402E-03
            3017            3512     330.709E-03     344.724E-03
            3018            3505     351.057E-03     341.402E-03
            3018            3506     481.319E-03     459.523E-03
            3018            3512     330.709E-03     344.724E-03
            3018            3513     437.309E-03     473.937E-03
            3019            3506     481.319E-03     459.523E-03
            3019            3507     638.173E-03     598.966E-03
            3019            3513     437.309E-03     473.937E-03
            3019            3514     568.097E-03     625.970E-03
            3020            3507     638.173E-03     598.966E-03
            3020            3508     791.375E-03     721.763E-03
            3020            3514     568.097E-03     625.970E-03
            3020            3515     691.324E-03     759.811E-03
            3021            3508     791.375E-03     721.763E-03
            3021            3509     912.339E-03     812.571E-03
            3021            3515     691.324E-03     759.811E-03
            3021            3516     777.500E-03     863.623E-03
            3022            3509     912.339E-03     812.571E-03
            3022            3510     997.401E-03     905.100E-03
            3022            3516     777.500E-03     863.623E-03
            3022            3517     825.118E-03     945.790E-03
            3023            3510     997.401E-03     905.100E-03
            3023            3511         1.05158     977.419E-03
            3023            3517     825.118E-03     945.790E-03
            3023            3518     883.396E-03     981.347E-03
            3024             561         1.06955     994.593E-03
            3024             562     924.371E-03     981.130E-03
            3024            3511         1.05158     977.419E-03
            3024            3518     883.396E-03     981.347E-03
            3025             573     289.193E-03     285.505E-03
            3025             574     289.048E-03     293.146E-03
            3025            3512     330.709E-03     344.724E-03
            3025            3519     337.865E-03     329.068E-03
            3026            3512     330.709E-03     344.724E-03
            3026            3513     437.309E-03     473.937E-03
            3026            3519     337.865E-03     329.068E-03
            3026            3520     456.886E-03     437.881E-03
            3027            3513     437.309E-03     473.937E-03
            3027            3514     568.097E-03     625.970E-03
            3027            3520     456.886E-03     437.881E-03
            3027            3521     594.149E-03     564.372E-03
            3028            3514     568.097E-03     625.970E-03
            3028            3515     691.324E-03     759.811E-03
            3028            3521     594.149E-03     564.372E-03
            3028            3522     724.805E-03     681.640E-03
            3029            3515     691.324E-03     759.811E-03
            3029            3516     777.500E-03     863.623E-03
            3029            3522     724.805E-03     681.640E-03
            3029            3523     831.449E-03     771.451E-03
            3030            3516     777.500E-03     863.623E-03
            3030            3517     825.118E-03     945.790E-03
            3030            3523     831.449E-03     771.451E-03
            3030            3524     898.156E-03     840.052E-03
            3031            3517     825.118E-03     945.790E-03
            3031            3518     883.396E-03     981.347E-03
            3031            3524     898.156E-03     840.052E-03
            3031            3525     924.293E-03     869.530E-03
            3032             562     924.371E-03     981.130E-03
            3032             563     928.181E-03     865.613E-03
            3032            3518     883.396E-03     981.347E-03
            3032            3525     924.293E-03     869.530E-03
            3033             572     285.719E-03     299.716E-03
            3033             573     289.193E-03     285.505E-03
            3033            3519     337.865E-03     329.068E-03
            3033            3526     330.153E-03     337.113E-03
            3034            3519     337.865E-03     329.068E-03
            3034            3520     456.886E-03     437.881E-03
            3034            3526     330.153E-03     337.113E-03
            3034            3527     436.318E-03     428.447E-03
            3035            3520     456.886E-03     437.881E-03
            3035            3521     594.149E-03     564.372E-03
            3035            3527     436.318E-03     428.447E-03
            3035            3528     556.497E-03     535.283E-03
            3036            3521     594.149E-03     564.372E-03
            3036            3522     724.805E-03     681.640E-03
            3036            3528     556.497E-03     535.283E-03
            3036            3529     671.509E-03     644.753E-03
            3037            3522     724.805E-03     681.640E-03
            3037            3523     831.449E-03     771.451E-03
            3037            3529     671.509E-03     644.753E-03
            3037            3530     775.018E-03     750.071E-03
            3038            3523     831.449E-03     771.451E-03
            3038            3524     898.156E-03     840.052E-03
            3038            3530     775.018E-03     750.071E-03
            3038            3531     852.412E-03     834.867E-03
            3039            3524     898.156E-03     840.052E-03
            3039            3525     924.293E-03     869.530E-03
            3039            3531     852.412E-03     834.867E-03
            3039            3532     876.555E-03     850.831E-03
            3040             563     928.181E-03     865.613E-03
            3040             564     871.473E-03     831.628E-03
            3040            3525     924.293E-03     869.530E-03
            3040            3532     876.555E-03     850.831E-03
            3041              24     279.215E-03     285.712E-03
            3041             571     307.556E-03     326.303E-03
            3041             572     285.719E-03     299.716E-03
            3041            3526     330.153E-03     337.113E-03
            3042             570     380.197E-03     426.048E-03
            3042             571     307.556E-03     326.303E-03
            3042            3526     330.153E-03     337.113E-03
            3042            3527     436.318E-03     428.447E-03
            3043             569     467.892E-03     542.032E-03
            3043             570     380.197E-03     426.048E-03
            3043            3527     436.318E-03     428.447E-03
            3043            3528     556.497E-03     535.283E-03
            3044             568     553.530E-03     658.838E-03
            3044             569     467.892E-03     542.032E-03
            3044            3528     556.497E-03     535.283E-03
            3044            3529     671.509E-03     644.753E-03
            3045             567     626.528E-03     782.816E-03
            3045             568     553.530E-03     658.838E-03
            3045            3529     671.509E-03     644.753E-03
            3045            3530     775.018E-03     750.071E-03
            3046             566     686.237E-03     884.696E-03
            3046             567     626.528E-03     782.816E-03
            3046            3530     775.018E-03     750.071E-03
            3046            3531     852.412E-03     834.867E-03
            3047             565     772.856E-03     927.131E-03
            3047             566     686.237E-03     884.696E-03
            3047            3531     852.412E-03     834.867E-03
            3047            3532     876.555E-03     850.831E-03
            3048              23     831.243E-03     932.905E-03
            3048             564     871.473E-03     831.628E-03
            3048             565     772.856E-03     927.131E-03
            3048            3532     876.555E-03     850.831E-03
            3049               2     13.1022E-03     25.9394E-03
            3049              51     23.1352E-03     45.1578E-03
            3049             216     18.4495E-03     24.0398E-03
            3049            3533     33.7814E-03     47.4618E-03
            3050             215     30.3854E-03     28.9549E-03
            3050             216     18.4495E-03     24.0398E-03
            3050            3533     33.7814E-03     47.4618E-03
            3050            3534     60.1475E-03     65.0624E-03
            3051             214     44.7327E-03     43.7466E-03
            3051             215     30.3854E-03     28.9549E-03
            3051            3534     60.1475E-03     65.0624E-03
            3051            3535     89.9431E-03     92.7445E-03
            3052             213     57.4041E-03     56.7619E-03
            3052             214     44.7327E-03     43.7466E-03
            3052            3535     89.9431E-03     92.7445E-03
            3052            3536     115.025E-03     115.682E-03
            3053             212     67.2328E-03     66.6585E-03
            3053             213     57.4041E-03     56.7619E-03
            3053            3536     115.025E-03     115.682E-03
            3053            3537     135.068E-03     135.020E-03
            3054             211     74.8433E-03     74.3746E-03
            3054             212     67.2328E-03     66.6585E-03
            3054            3537     135.068E-03     135.020E-03
            3054            3538     149.929E-03     149.607E-03
            3055             210     79.1945E-03     78.8536E-03
            3055             211     74.8433E-03     74.3746E-03
            3055            3538     149.929E-03     149.607E-03
            3055            3539     158.909E-03     158.468E-03
            3056               8     80.8528E-03     80.4741E-03
            3056             210     79.1945E-03     78.8536E-03
            3056             351     162.068E-03     161.532E-03
            3056            3539     158.909E-03     158.468E-03
            3057              51     23.1352E-03     45.1578E-03
            3057              52     52.8350E-03     46.2121E-03
            3057            3533     33.7814E-03     47.4618E-03
            3057            3540     57.4952E-03     49.2240E-03
            3058            3533     33.7814E-03     47.4618E-03
            3058            3534     60.1475E-03     65.0624E-03
            3058            3540     57.4952E-03     49.2240E-03
            3058            3541     74.3954E-03     68.5410E-03
            3059            3534     60.1475E-03     65.0624E-03
            3059            3535     89.9431E-03     92.7445E-03
            3059            3541     74.3954E-03     68.5410E-03
            3059            3542     98.0099E-03     95.5939E-03
            3060            3535     89.9431E-03     92.7445E-03
            3060            3536     115.025E-03     115.682E-03
            3060            3542     98.0099E-03     95.5939E-03
            3060            3543     119.978E-03     117.365E-03
            3061            3536     115.025E-03     115.682E-03
            3061            3537     135.068E-03     135.020E-03
            3061            3543     119.978E-03     117.365E-03
            3061            3544     138.284E-03     136.480E-03
            3062            3537     135.068E-03     135.020E-03
            3062            3538     149.929E-03     149.607E-03
            3062            3544     138.284E-03     136.480E-03
            3062            3545     151.925E-03     150.507E-03
            3063            3538     149.929E-03     149.607E-03
            3063            3539     158.909E-03     158.468E-03
            3063            3545     151.925E-03     150.507E-03
            3063            3546     160.652E-03     159.389E-03
            3064             350     163.458E-03     162.343E-03
            3064             351     162.068E-03     161.532E-03
            3064            3539     158.909E-03     158.468E-03
            3064            3546     160.652E-03     159.389E-03
            3065              52     52.8350E-03     46.2121E-03
            3065              53     89.7808E-03     90.8031E-03
            3065            3540     57.4952E-03     49.2240E-03
            3065            3547     79.8988E-03     80.7574E-03
            3066            3540     57.4952E-03     49.2240E-03
            3066            3541     74.3954E-03     68.5410E-03
            3066            3547     79.8988E-03     80.7574E-03
            3066            3548     79.1185E-03     80.1776E-03
            3067            3541     74.3954E-03     68.5410E-03
            3067            3542     98.0099E-03     95.5939E-03
            3067            3548     79.1185E-03     80.1776E-03
            3067            3549     100.251E-03     100.743E-03
            3068            3542     98.0099E-03     95.5939E-03
            3068            3543     119.978E-03     117.365E-03
            3068            3549     100.251E-03     100.743E-03
            3068            3550     121.055E-03     120.756E-03
            3069            3543     119.978E-03     117.365E-03
            3069            3544     138.284E-03     136.480E-03
            3069            3550     121.055E-03     120.756E-03
            3069            3551     138.002E-03     137.307E-03
            3070            3544     138.284E-03     136.480E-03
            3070            3545     151.925E-03     150.507E-03
            3070            3551     138.002E-03     137.307E-03
            3070            3552     151.533E-03     150.017E-03
            3071            3545     151.925E-03     150.507E-03
            3071            3546     160.652E-03     159.389E-03
            3071            3552     151.533E-03     150.017E-03
            3071            3553     159.785E-03     157.858E-03
            3072             349     162.688E-03     160.635E-03
            3072             350     163.458E-03     162.343E-03
            3072            3546     160.652E-03     159.389E-03
            3072            3553     159.785E-03     157.858E-03
            3073              53     89.7808E-03     90.8031E-03
            3073              54     66.8833E-03     76.2959E-03
            3073            3547     79.8988E-03     80.7574E-03
            3073            3554     68.6413E-03     81.8342E-03
            3074            3547     79.8988E-03     80.7574E-03
            3074            3548     79.1185E-03     80.1776E-03
            3074            3554     68.6413E-03     81.8342E-03
            3074            3555     78.4283E-03     92.9361E-03
            3075            3548     79.1185E-03     80.1776E-03
            3075            3549     100.251E-03     100.743E-03
            3075            3555     78.4283E-03     92.9361E-03
            3075            3556     98.8151E-03     106.924E-03
            3076            3549     100.251E-03     100.743E-03
            3076            3550     121.055E-03     120.756E-03
            3076            3556     98.8151E-03     106.924E-03
            3076            3557     120.072E-03     123.148E-03
            3077            3550     121.055E-03     120.756E-03
            3077            3551     138.002E-03     137.307E-03
            3077            3557     120.072E-03     123.148E-03
            3077            3558     138.352E-03     139.131E-03
            3078            3551     138.002E-03     137.307E-03
            3078            3552     151.533E-03     150.017E-03
            3078            3558     138.352E-03     139.131E-03
            3078            3559     153.200E-03     152.694E-03
            3079            3552     151.533E-03     150.017E-03
            3079            3553     159.785E-03     157.858E-03
            3079            3559     153.200E-03     152.694E-03
            3079            3560     161.904E-03     161.159E-03
            3080             348     165.150E-03     164.258E-03
            3080             349     162.688E-03     160.635E-03
            3080            3553     159.785E-03     157.858E-03
            3080            3560     161.904E-03     161.159E-03
            3081              54     66.8833E-03     76.2959E-03
            3081              55     48.4017E-03     42.0261E-03
            3081            3554     68.6413E-03     81.8342E-03
            3081            3561     67.5311E-03     63.4842E-03
            3082            3554     68.6413E-03     81.8342E-03
            3082            3555     78.4283E-03     92.9361E-03
            3082            3561     67.5311E-03     63.4842E-03
            3082            3562     93.4656E-03     94.3945E-03
            3083            3555     78.4283E-03     92.9361E-03
            3083            3556     98.8151E-03     106.924E-03
            3083            3562     93.4656E-03     94.3945E-03
            3083            3563     108.193E-03     111.068E-03
            3084            3556     98.8151E-03     106.924E-03
            3084            3557     120.072E-03     123.148E-03
            3084            3563     108.193E-03     111.068E-03
            3084            3564     125.674E-03     126.130E-03
            3085            3557     120.072E-03     123.148E-03
            3085            3558     138.352E-03     139.131E-03
            3085            3564     125.674E-03     126.130E-03
            3085            3565     143.624E-03     142.096E-03
            3086            3558     138.352E-03     139.131E-03
            3086            3559     153.200E-03     152.694E-03
            3086            3565     143.624E-03     142.096E-03
            3086            3566     157.878E-03     156.341E-03
            3087            3559     153.200E-03     152.694E-03
            3087            3560     161.904E-03     161.159E-03
            3087            3566     157.878E-03     156.341E-03
            3087            3567     166.591E-03     165.714E-03
            3088             347     169.458E-03     168.979E-03
            3088             348     165.150E-03     164.258E-03
            3088            3560     161.904E-03     161.159E-03
            3088            3567     166.591E-03     165.714E-03
            3089              55     48.4017E-03     42.0261E-03
            3089              56     76.5262E-03     74.9480E-03
            3089            3561     67.5311E-03     63.4842E-03
            3089            3568     84.5886E-03     84.8082E-03
            3090            3561     67.5311E-03     63.4842E-03
            3090            3562     93.4656E-03     94.3945E-03
            3090            3568     84.5886E-03     84.8082E-03
            3090            3569     101.999E-03     105.173E-03
            3091            3562     93.4656E-03     94.3945E-03
            3091            3563     108.193E-03     111.068E-03
            3091            3569     101.999E-03     105.173E-03
            3091            3570     118.112E-03     122.809E-03
            3092            3563     108.193E-03     111.068E-03
            3092            3564     125.674E-03     126.130E-03
            3092            3570     118.112E-03     122.809E-03
            3092            3571     132.779E-03     135.939E-03
            3093            3564     125.674E-03     126.130E-03
            3093            3565     143.624E-03     142.096E-03
            3093            3571     132.779E-03     135.939E-03
            3093            3572     147.919E-03     147.868E-03
            3094            3565     143.624E-03     142.096E-03
            3094            3566     157.878E-03     156.341E-03
            3094            3572     147.919E-03     147.868E-03
            3094            3573     160.158E-03     158.654E-03
            3095            3566     157.878E-03     156.341E-03
            3095            3567     166.591E-03     165.714E-03
            3095            3573     160.158E-03     158.654E-03
            3095            3574     167.588E-03     166.179E-03
            3096             346     170.039E-03     168.871E-03
            3096             347     169.458E-03     168.979E-03
            3096            3567     166.591E-03     165.714E-03
            3096            3574     167.588E-03     166.179E-03
            3097              56     76.5262E-03     74.9480E-03
            3097              57     109.074E-03     107.823E-03
            3097            3568     84.5886E-03     84.8082E-03
            3097            3575     108.926E-03     109.874E-03
            3098            3568     84.5886E-03     84.8082E-03
            3098            3569     101.999E-03     105.173E-03
            3098            3575     108.926E-03     109.874E-03
            3098            3576     115.831E-03     118.457E-03
            3099            3569     101.999E-03     105.173E-03
            3099            3570     118.112E-03     122.809E-03
            3099            3576     115.831E-03     118.457E-03
            3099            3577     129.727E-03     132.722E-03
            3100            3570     118.112E-03     122.809E-03
            3100            3571     132.779E-03     135.939E-03
            3100            3577     129.727E-03     132.722E-03
            3100            3578     142.310E-03     145.282E-03
            3101            3571     132.779E-03     135.939E-03
            3101            3572     147.919E-03     147.868E-03
            3101            3578     142.310E-03     145.282E-03
            3101            3579     153.397E-03     154.094E-03
            3102            3572     147.919E-03     147.868E-03
            3102            3573     160.158E-03     158.654E-03
            3102            3579     153.397E-03     154.094E-03
            3102            3580     162.519E-03     161.578E-03
            3103            3573     160.158E-03     158.654E-03
            3103            3574     167.588E-03     166.179E-03
            3103            3580     162.519E-03     161.578E-03
            3103            3581     168.135E-03     167.137E-03
            3104             345     170.001E-03     169.224E-03
            3104             346     170.039E-03     168.871E-03
            3104            3574     167.588E-03     166.179E-03
            3104            3581     168.135E-03     167.137E-03
            3105              57     109.074E-03     107.823E-03
            3105              58     138.777E-03     138.374E-03
            3105            3575     108.926E-03     109.874E-03
            3105            3582     134.673E-03     137.649E-03
            3106            3575     108.926E-03     109.874E-03
            3106            3576     115.831E-03     118.457E-03
            3106            3582     134.673E-03     137.649E-03
            3106            3583     134.568E-03     138.597E-03
            3107            3576     115.831E-03     118.457E-03
            3107            3577     129.727E-03     132.722E-03
            3107            3583     134.568E-03     138.597E-03
            3107            3584     144.106E-03     145.722E-03
            3108            3577     129.727E-03     132.722E-03
            3108            3578     142.310E-03     145.282E-03
            3108            3584     144.106E-03     145.722E-03
            3108            3585     153.222E-03     155.183E-03
            3109            3578     142.310E-03     145.282E-03
            3109            3579     153.397E-03     154.094E-03
            3109            3585     153.222E-03     155.183E-03
            3109            3586     159.826E-03     161.297E-03
            3110            3579     153.397E-03     154.094E-03
            3110            3580     162.519E-03     161.578E-03
            3110            3586     159.826E-03     161.297E-03
            3110            3587     165.149E-03     165.105E-03
            3111            3580     162.519E-03     161.578E-03
            3111            3581     168.135E-03     167.137E-03
            3111            3587     165.149E-03     165.105E-03
            3111            3588     168.505E-03     167.983E-03
            3112             344     169.594E-03     169.189E-03
            3112             345     170.001E-03     169.224E-03
            3112            3581     168.135E-03     167.137E-03
            3112            3588     168.505E-03     167.983E-03
            3113              58     138.777E-03     138.374E-03
            3113              59     167.501E-03     168.462E-03
            3113            3582     134.673E-03     137.649E-03
            3113            3589     162.192E-03     165.802E-03
            3114            3582     134.673E-03     137.649E-03
            3114            3583     134.568E-03     138.597E-03
            3114            3589     162.192E-03     165.802E-03
            3114            3590     158.148E-03     161.302E-03
            3115            3583     134.568E-03     138.597E-03
            3115            3584     144.106E-03     145.722E-03
            3115            3590     158.148E-03     161.302E-03
            3115            3591     162.126E-03     160.993E-03
            3116            3584     144.106E-03     145.722E-03
            3116            3585     153.222E-03     155.183E-03
            3116            3591     162.126E-03     160.993E-03
            3116            3592     166.282E-03     165.073E-03
            3117            3585     153.222E-03     155.183E-03
            3117            3586     159.826E-03     161.297E-03
            3117            3592     166.282E-03     165.073E-03
            3117            3593     168.191E-03     168.272E-03
            3118            3586     159.826E-03     161.297E-03
            3118            3587     165.149E-03     165.105E-03
            3118            3593     168.191E-03     168.272E-03
            3118            3594     168.985E-03     169.018E-03
            3119            3587     165.149E-03     165.105E-03
            3119            3588     168.505E-03     167.983E-03
            3119            3594     168.985E-03     169.018E-03
            3119            3595     169.439E-03     169.125E-03
            3120             343     169.599E-03     169.169E-03
            3120             344     169.594E-03     169.189E-03
            3120            3588     168.505E-03     167.983E-03
            3120            3595     169.439E-03     169.125E-03
            3121              59     167.501E-03     168.462E-03
            3121              60     198.651E-03     193.994E-03
            3121            3589     162.192E-03     165.802E-03
            3121            3596     191.782E-03     190.528E-03
            3122            3589     162.192E-03     165.802E-03
            3122            3590     158.148E-03     161.302E-03
            3122            3596     191.782E-03     190.528E-03
            3122            3597     181.829E-03     182.700E-03
            3123            3590     158.148E-03     161.302E-03
            3123            3591     162.126E-03     160.993E-03
            3123            3597     181.829E-03     182.700E-03
            3123            3598     178.620E-03     176.865E-03
            3124            3591     162.126E-03     160.993E-03
            3124            3592     166.282E-03     165.073E-03
            3124            3598     178.620E-03     176.865E-03
            3124            3599     178.079E-03     175.173E-03
            3125            3592     166.282E-03     165.073E-03
            3125            3593     168.191E-03     168.272E-03
            3125            3599     178.079E-03     175.173E-03
            3125            3600     175.931E-03     174.492E-03
            3126            3593     168.191E-03     168.272E-03
            3126            3594     168.985E-03     169.018E-03
            3126            3600     175.931E-03     174.492E-03
            3126            3601     172.511E-03     172.406E-03
            3127            3594     168.985E-03     169.018E-03
            3127            3595     169.439E-03     169.125E-03
            3127            3601     172.511E-03     172.406E-03
            3127            3602     170.095E-03     169.608E-03
            3128             342     169.405E-03     168.473E-03
            3128             343     169.599E-03     169.169E-03
            3128            3595     169.439E-03     169.125E-03
            3128            3602     170.095E-03     169.608E-03
            3129              60     198.651E-03     193.994E-03
            3129              61     221.428E-03     233.227E-03
            3129            3596     191.782E-03     190.528E-03
            3129            3603     211.840E-03     230.926E-03
            3130            3596     191.782E-03     190.528E-03
            3130            3597     181.829E-03     182.700E-03
            3130            3603     211.840E-03     230.926E-03
            3130            3604     197.905E-03     221.134E-03
            3131            3597     181.829E-03     182.700E-03
            3131            3598     178.620E-03     176.865E-03
            3131            3604     197.905E-03     221.134E-03
            3131            3605     191.431E-03     206.137E-03
            3132            3598     178.620E-03     176.865E-03
            3132            3599     178.079E-03     175.173E-03
            3132            3605     191.431E-03     206.137E-03
            3132            3606     187.064E-03     194.998E-03
            3133            3599     178.079E-03     175.173E-03
            3133            3600     175.931E-03     174.492E-03
            3133            3606     187.064E-03     194.998E-03
            3133            3607     181.111E-03     187.376E-03
            3134            3600     175.931E-03     174.492E-03
            3134            3601     172.511E-03     172.406E-03
            3134            3607     181.111E-03     187.376E-03
            3134            3608     174.081E-03     179.072E-03
            3135            3601     172.511E-03     172.406E-03
            3135            3602     170.095E-03     169.608E-03
            3135            3608     174.081E-03     179.072E-03
            3135            3609     169.408E-03     171.959E-03
            3136             341     168.092E-03     169.208E-03
            3136             342     169.405E-03     168.473E-03
            3136            3602     170.095E-03     169.608E-03
            3136            3609     169.408E-03     171.959E-03
            3137              61     221.428E-03     233.227E-03
            3137              62     273.417E-03     257.886E-03
            3137            3603     211.840E-03     230.926E-03
            3137            3610     268.047E-03     250.824E-03
            3138            3603     211.840E-03     230.926E-03
            3138            3604     197.905E-03     221.134E-03
            3138            3610     268.047E-03     250.824E-03
            3138            3611     252.676E-03     230.418E-03
            3139            3604     197.905E-03     221.134E-03
            3139            3605     191.431E-03     206.137E-03
            3139            3611     252.676E-03     230.418E-03
            3139            3612     234.907E-03     210.425E-03
            3140            3605     191.431E-03     206.137E-03
            3140            3606     187.064E-03     194.998E-03
            3140            3612     234.907E-03     210.425E-03
            3140            3613     218.603E-03     199.041E-03
            3141            3606     187.064E-03     194.998E-03
            3141            3607     181.111E-03     187.376E-03
            3141            3613     218.603E-03     199.041E-03
            3141            3614     200.765E-03     189.441E-03
            3142            3607     181.111E-03     187.376E-03
            3142            3608     174.081E-03     179.072E-03
            3142            3614     200.765E-03     189.441E-03
            3142            3615     184.683E-03     180.162E-03
            3143            3608     174.081E-03     179.072E-03
            3143            3609     169.408E-03     171.959E-03
            3143            3615     184.683E-03     180.162E-03
            3143            3616     174.125E-03     172.778E-03
            3144             340     170.398E-03     169.850E-03
            3144             341     168.092E-03     169.208E-03
            3144            3609     169.408E-03     171.959E-03
            3144            3616     174.125E-03     172.778E-03
            3145              62     273.417E-03     257.886E-03
            3145              63     308.883E-03     302.197E-03
            3145            3610     268.047E-03     250.824E-03
            3145            3617     288.500E-03     285.909E-03
            3146            3610     268.047E-03     250.824E-03
            3146            3611     252.676E-03     230.418E-03
            3146            3617     288.500E-03     285.909E-03
            3146            3618     255.778E-03     255.456E-03
            3147            3611     252.676E-03     230.418E-03
            3147            3612     234.907E-03     210.425E-03
            3147            3618     255.778E-03     255.456E-03
            3147            3619     235.519E-03     231.265E-03
            3148            3612     234.907E-03     210.425E-03
            3148            3613     218.603E-03     199.041E-03
            3148            3619     235.519E-03     231.265E-03
            3148            3620     217.459E-03     211.133E-03
            3149            3613     218.603E-03     199.041E-03
            3149            3614     200.765E-03     189.441E-03
            3149            3620     217.459E-03     211.133E-03
            3149            3621     199.061E-03     193.379E-03
            3150            3614     200.765E-03     189.441E-03
            3150            3615     184.683E-03     180.162E-03
            3150            3621     199.061E-03     193.379E-03
            3150            3622     183.940E-03     179.108E-03
            3151            3615     184.683E-03     180.162E-03
            3151            3616     174.125E-03     172.778E-03
            3151            3622     183.940E-03     179.108E-03
            3151            3623     173.496E-03     168.652E-03
            3152             339     169.963E-03     164.869E-03
            3152             340     170.398E-03     169.850E-03
            3152            3616     174.125E-03     172.778E-03
            3152            3623     173.496E-03     168.652E-03
            3153              63     308.883E-03     302.197E-03
            3153              64     257.363E-03     288.425E-03
            3153            3617     288.500E-03     285.909E-03
            3153            3624     242.190E-03     291.218E-03
            3154            3617     288.500E-03     285.909E-03
            3154            3618     255.778E-03     255.456E-03
            3154            3624     242.190E-03     291.218E-03
            3154            3625     219.250E-03     285.748E-03
            3155            3618     255.778E-03     255.456E-03
            3155            3619     235.519E-03     231.265E-03
            3155            3625     219.250E-03     285.748E-03
            3155            3626     205.497E-03     259.033E-03
            3156            3619     235.519E-03     231.265E-03
            3156            3620     217.459E-03     211.133E-03
            3156            3626     205.497E-03     259.033E-03
            3156            3627     193.267E-03     225.365E-03
            3157            3620     217.459E-03     211.133E-03
            3157            3621     199.061E-03     193.379E-03
            3157            3627     193.267E-03     225.365E-03
            3157            3628     182.720E-03     199.780E-03
            3158            3621     199.061E-03     193.379E-03
            3158            3622     183.940E-03     179.108E-03
            3158            3628     182.720E-03     199.780E-03
            3158            3629     175.336E-03     182.608E-03
            3159            3622     183.940E-03     179.108E-03
            3159            3623     173.496E-03     168.652E-03
            3159            3629     175.336E-03     182.608E-03
            3159            3630     170.847E-03     172.214E-03
            3160             338     169.473E-03     168.674E-03
            3160             339     169.963E-03     164.869E-03
            3160            3623     173.496E-03     168.652E-03
            3160            3630     170.847E-03     172.214E-03
            3161              64     257.363E-03     288.425E-03
            3161              65     243.292E-03     226.330E-03
            3161            3624     242.190E-03     291.218E-03
            3161            3631     254.727E-03     244.736E-03
            3162            3624     242.190E-03     291.218E-03
            3162            3625     219.250E-03     285.748E-03
            3162            3631     254.727E-03     244.736E-03
            3162            3632     260.815E-03     259.447E-03
            3163            3625     219.250E-03     285.748E-03
            3163            3626     205.497E-03     259.033E-03
            3163            3632     260.815E-03     259.447E-03
            3163            3633     243.924E-03     242.783E-03
            3164            3626     205.497E-03     259.033E-03
            3164            3627     193.267E-03     225.365E-03
            3164            3633     243.924E-03     242.783E-03
            3164            3634     220.707E-03     216.905E-03
            3165            3627     193.267E-03     225.365E-03
            3165            3628     182.720E-03     199.780E-03
            3165            3634     220.707E-03     216.905E-03
            3165            3635     200.107E-03     195.385E-03
            3166            3628     182.720E-03     199.780E-03
            3166            3629     175.336E-03     182.608E-03
            3166            3635     200.107E-03     195.385E-03
            3166            3636     184.999E-03     182.163E-03
            3167            3629     175.336E-03     182.608E-03
            3167            3630     170.847E-03     172.214E-03
            3167            3636     184.999E-03     182.163E-03
            3167            3637     175.533E-03     175.451E-03
            3168             337     172.300E-03     173.393E-03
            3168             338     169.473E-03     168.674E-03
            3168            3630     170.847E-03     172.214E-03
            3168            3637     175.533E-03     175.451E-03
            3169              65     243.292E-03     226.330E-03
            3169              66     269.337E-03     256.005E-03
            3169            3631     254.727E-03     244.736E-03
            3169            3638     273.269E-03     263.662E-03
            3170            3631     254.727E-03     244.736E-03
            3170            3632     260.815E-03     259.447E-03
            3170            3638     273.269E-03     263.662E-03
            3170            3639     275.813E-03     267.646E-03
            3171            3632     260.815E-03     259.447E-03
            3171            3633     243.924E-03     242.783E-03
            3171            3639     275.813E-03     267.646E-03
            3171            3640     263.516E-03     255.729E-03
            3172            3633     243.924E-03     242.783E-03
            3172            3634     220.707E-03     216.905E-03
            3172            3640     263.516E-03     255.729E-03
            3172            3641     238.966E-03     234.241E-03
            3173            3634     220.707E-03     216.905E-03
            3173            3635     200.107E-03     195.385E-03
            3173            3641     238.966E-03     234.241E-03
            3173            3642     213.319E-03     208.874E-03
            3174            3635     200.107E-03     195.385E-03
            3174            3636     184.999E-03     182.163E-03
            3174            3642     213.319E-03     208.874E-03
            3174            3643     192.416E-03     188.184E-03
            3175            3636     184.999E-03     182.163E-03
            3175            3637     175.533E-03     175.451E-03
            3175            3643     192.416E-03     188.184E-03
            3175            3644     178.401E-03     175.131E-03
            3176             336     173.341E-03     170.702E-03
            3176             337     172.300E-03     173.393E-03
            3176            3637     175.533E-03     175.451E-03
            3176            3644     178.401E-03     175.131E-03
            3177              66     269.337E-03     256.005E-03
            3177              67     289.610E-03     292.725E-03
            3177            3638     273.269E-03     263.662E-03
            3177            3645     280.951E-03     294.337E-03
            3178            3638     273.269E-03     263.662E-03
            3178            3639     275.813E-03     267.646E-03
            3178            3645     280.951E-03     294.337E-03
            3178            3646     269.499E-03     289.445E-03
            3179            3639     275.813E-03     267.646E-03
            3179            3640     263.516E-03     255.729E-03
            3179            3646     269.499E-03     289.445E-03
            3179            3647     260.520E-03     274.337E-03
            3180            3640     263.516E-03     255.729E-03
            3180            3641     238.966E-03     234.241E-03
            3180            3647     260.520E-03     274.337E-03
            3180            3648     242.430E-03     252.549E-03
            3181            3641     238.966E-03     234.241E-03
            3181            3642     213.319E-03     208.874E-03
            3181            3648     242.430E-03     252.549E-03
            3181            3649     218.430E-03     224.350E-03
            3182            3642     213.319E-03     208.874E-03
            3182            3643     192.416E-03     188.184E-03
            3182            3649     218.430E-03     224.350E-03
            3182            3650     196.225E-03     197.303E-03
            3183            3643     192.416E-03     188.184E-03
            3183            3644     178.401E-03     175.131E-03
            3183            3650     196.225E-03     197.303E-03
            3183            3651     180.208E-03     178.656E-03
            3184             335     174.354E-03     172.105E-03
            3184             336     173.341E-03     170.702E-03
            3184            3644     178.401E-03     175.131E-03
            3184            3651     180.208E-03     178.656E-03
            3185              67     289.610E-03     292.725E-03
            3185              68     321.006E-03     318.485E-03
            3185            3645     280.951E-03     294.337E-03
            3185            3652     311.591E-03     314.289E-03
            3186            3645     280.951E-03     294.337E-03
            3186            3646     269.499E-03     289.445E-03
            3186            3652     311.591E-03     314.289E-03
            3186            3653     295.117E-03     299.538E-03
            3187            3646     269.499E-03     289.445E-03
            3187            3647     260.520E-03     274.337E-03
            3187            3653     295.117E-03     299.538E-03
            3187            3654     280.019E-03     279.562E-03
            3188            3647     260.520E-03     274.337E-03
            3188            3648     242.430E-03     252.549E-03
            3188            3654     280.019E-03     279.562E-03
            3188            3655     259.585E-03     258.561E-03
            3189            3648     242.430E-03     252.549E-03
            3189            3649     218.430E-03     224.350E-03
            3189            3655     259.585E-03     258.561E-03
            3189            3656     231.888E-03     231.754E-03
            3190            3649     218.430E-03     224.350E-03
            3190            3650     196.225E-03     197.303E-03
            3190            3656     231.888E-03     231.754E-03
            3190            3657     203.238E-03     202.633E-03
            3191            3650     196.225E-03     197.303E-03
            3191            3651     180.208E-03     178.656E-03
            3191            3657     203.238E-03     202.633E-03
            3191            3658     181.665E-03     180.483E-03
            3192             334     173.503E-03     172.293E-03
            3192             335     174.354E-03     172.105E-03
            3192            3651     180.208E-03     178.656E-03
            3192            3658     181.665E-03     180.483E-03
            3193              68     321.006E-03     318.485E-03
            3193              69     348.666E-03     348.215E-03
            3193            3652     311.591E-03     314.289E-03
            3193            3659     335.313E-03     343.854E-03
            3194            3652     311.591E-03     314.289E-03
            3194            3653     295.117E-03     299.538E-03
            3194            3659     335.313E-03     343.854E-03
            3194            3660     312.857E-03     326.459E-03
            3195            3653     295.117E-03     299.538E-03
            3195            3654     280.019E-03     279.562E-03
            3195            3660     312.857E-03     326.459E-03
            3195            3661     295.027E-03     300.159E-03
            3196            3654     280.019E-03     279.562E-03
            3196            3655     259.585E-03     258.561E-03
            3196            3661     295.027E-03     300.159E-03
            3196            3662     272.864E-03     273.559E-03
            3197            3655     259.585E-03     258.561E-03
            3197            3656     231.888E-03     231.754E-03
            3197            3662     272.864E-03     273.559E-03
            3197            3663     242.306E-03     243.852E-03
            3198            3656     231.888E-03     231.754E-03
            3198            3657     203.238E-03     202.633E-03
            3198            3663     242.306E-03     243.852E-03
            3198            3664     208.992E-03     210.614E-03
            3199            3657     203.238E-03     202.633E-03
            3199            3658     181.665E-03     180.483E-03
            3199            3664     208.992E-03     210.614E-03
            3199            3665     182.789E-03     182.976E-03
            3200             333     172.847E-03     172.271E-03
            3200             334     173.503E-03     172.293E-03
            3200            3658     181.665E-03     180.483E-03
            3200            3665     182.789E-03     182.976E-03
            3201              69     348.666E-03     348.215E-03
            3201              70     375.299E-03     377.525E-03
            3201            3659     335.313E-03     343.854E-03
            3201            3666     362.534E-03     371.391E-03
            3202            3659     335.313E-03     343.854E-03
            3202            3660     312.857E-03     326.459E-03
            3202            3666     362.534E-03     371.391E-03
            3202            3667     339.098E-03     349.781E-03
            3203            3660     312.857E-03     326.459E-03
            3203            3661     295.027E-03     300.159E-03
            3203            3667     339.098E-03     349.781E-03
            3203            3668     316.763E-03     318.172E-03
            3204            3661     295.027E-03     300.159E-03
            3204            3662     272.864E-03     273.559E-03
            3204            3668     316.763E-03     318.172E-03
            3204            3669     290.015E-03     286.738E-03
            3205            3662     272.864E-03     273.559E-03
            3205            3663     242.306E-03     243.852E-03
            3205            3669     290.015E-03     286.738E-03
            3205            3670     255.205E-03     253.614E-03
            3206            3663     242.306E-03     243.852E-03
            3206            3664     208.992E-03     210.614E-03
            3206            3670     255.205E-03     253.614E-03
            3206            3671     216.126E-03     217.187E-03
            3207            3664     208.992E-03     210.614E-03
            3207            3665     182.789E-03     182.976E-03
            3207            3671     216.126E-03     217.187E-03
            3207            3672     184.535E-03     185.540E-03
            3208             332     172.370E-03     172.574E-03
            3208             333     172.847E-03     172.271E-03
            3208            3665     182.789E-03     182.976E-03
            3208            3672     184.535E-03     185.540E-03
            3209              70     375.299E-03     377.525E-03
            3209              71     407.272E-03     399.681E-03
            3209            3666     362.534E-03     371.391E-03
            3209            3673     393.679E-03     393.026E-03
            3210            3666     362.534E-03     371.391E-03
            3210            3667     339.098E-03     349.781E-03
            3210            3673     393.679E-03     393.026E-03
            3210            3674     365.692E-03     369.739E-03
            3211            3667     339.098E-03     349.781E-03
            3211            3668     316.763E-03     318.172E-03
            3211            3674     365.692E-03     369.739E-03
            3211            3675     337.364E-03     335.103E-03
            3212            3668     316.763E-03     318.172E-03
            3212            3669     290.015E-03     286.738E-03
            3212            3675     337.364E-03     335.103E-03
            3212            3676     305.878E-03     299.125E-03
            3213            3669     290.015E-03     286.738E-03
            3213            3670     255.205E-03     253.614E-03
            3213            3676     305.878E-03     299.125E-03
            3213            3677     266.061E-03     261.762E-03
            3214            3670     255.205E-03     253.614E-03
            3214            3671     216.126E-03     217.187E-03
            3214            3677     266.061E-03     261.762E-03
            3214            3678     221.715E-03     221.603E-03
            3215            3671     216.126E-03     217.187E-03
            3215            3672     184.535E-03     185.540E-03
            3215            3678     221.715E-03     221.603E-03
            3215            3679     185.654E-03     186.167E-03
            3216             331     171.751E-03     171.581E-03
            3216             332     172.370E-03     172.574E-03
            3216            3672     184.535E-03     185.540E-03
            3216            3679     185.654E-03     186.167E-03
            3217              71     407.272E-03     399.681E-03
            3217              72     425.791E-03     443.802E-03
            3217            3673     393.679E-03     393.026E-03
            3217            3680     408.387E-03     440.792E-03
            3218            3673     393.679E-03     393.026E-03
            3218            3674     365.692E-03     369.739E-03
            3218            3680     408.387E-03     440.792E-03
            3218            3681     377.633E-03     419.146E-03
            3219            3674     365.692E-03     369.739E-03
            3219            3675     337.364E-03     335.103E-03
            3219            3681     377.633E-03     419.146E-03
            3219            3682     349.289E-03     376.644E-03
            3220            3675     337.364E-03     335.103E-03
            3220            3676     305.878E-03     299.125E-03
            3220            3682     349.289E-03     376.644E-03
            3220            3683     314.510E-03     330.464E-03
            3221            3676     305.878E-03     299.125E-03
            3221            3677     266.061E-03     261.762E-03
            3221            3683     314.510E-03     330.464E-03
            3221            3684     270.163E-03     282.971E-03
            3222            3677     266.061E-03     261.762E-03
            3222            3678     221.715E-03     221.603E-03
            3222            3684     270.163E-03     282.971E-03
            3222            3685     222.140E-03     232.804E-03
            3223            3678     221.715E-03     221.603E-03
            3223            3679     185.654E-03     186.167E-03
            3223            3685     222.140E-03     232.804E-03
            3223            3686     183.992E-03     190.382E-03
            3224             330     169.381E-03     173.036E-03
            3224             331     171.751E-03     171.581E-03
            3224            3679     185.654E-03     186.167E-03
            3224            3686     183.992E-03     190.382E-03
            3225              72     425.791E-03     443.802E-03
            3225              73     489.829E-03     462.699E-03
            3225            3680     408.387E-03     440.792E-03
            3225            3687     482.612E-03     454.767E-03
            3226            3680     408.387E-03     440.792E-03
            3226            3681     377.633E-03     419.146E-03
            3226            3687     482.612E-03     454.767E-03
            3226            3688     456.744E-03     421.307E-03
            3227            3681     377.633E-03     419.146E-03
            3227            3682     349.289E-03     376.644E-03
            3227            3688     456.744E-03     421.307E-03
            3227            3689     415.221E-03     374.936E-03
            3228            3682     349.289E-03     376.644E-03
            3228            3683     314.510E-03     330.464E-03
            3228            3689     415.221E-03     374.936E-03
            3228            3690     363.272E-03     330.200E-03
            3229            3683     314.510E-03     330.464E-03
            3229            3684     270.163E-03     282.971E-03
            3229            3690     363.272E-03     330.200E-03
            3229            3691     301.832E-03     280.600E-03
            3230            3684     270.163E-03     282.971E-03
            3230            3685     222.140E-03     232.804E-03
            3230            3691     301.832E-03     280.600E-03
            3230            3692     240.628E-03     230.870E-03
            3231            3685     222.140E-03     232.804E-03
            3231            3686     183.992E-03     190.382E-03
            3231            3692     240.628E-03     230.870E-03
            3231            3693     192.592E-03     190.360E-03
            3232             329     173.484E-03     173.955E-03
            3232             330     169.381E-03     173.036E-03
            3232            3686     183.992E-03     190.382E-03
            3232            3693     192.592E-03     190.360E-03
            3233              73     489.829E-03     462.699E-03
            3233              74     527.653E-03     511.793E-03
            3233            3687     482.612E-03     454.767E-03
            3233            3694     502.055E-03     494.336E-03
            3234            3687     482.612E-03     454.767E-03
            3234            3688     456.744E-03     421.307E-03
            3234            3694     502.055E-03     494.336E-03
            3234            3695     453.966E-03     451.734E-03
            3235            3688     456.744E-03     421.307E-03
            3235            3689     415.221E-03     374.936E-03
            3235            3695     453.966E-03     451.734E-03
            3235            3696     407.908E-03     399.985E-03
            3236            3689     415.221E-03     374.936E-03
            3236            3690     363.272E-03     330.200E-03
            3236            3696     407.908E-03     399.985E-03
            3236            3697     353.726E-03     342.375E-03
            3237            3690     363.272E-03     330.200E-03
            3237            3691     301.832E-03     280.600E-03
            3237            3697     353.726E-03     342.375E-03
            3237            3698     293.221E-03     282.510E-03
            3238            3691     301.832E-03     280.600E-03
            3238            3692     240.628E-03     230.870E-03
            3238            3698     293.221E-03     282.510E-03
            3238            3699     235.723E-03     227.062E-03
            3239            3692     240.628E-03     230.870E-03
            3239            3693     192.592E-03     190.360E-03
            3239            3699     235.723E-03     227.062E-03
            3239            3700     190.511E-03     183.003E-03
            3240             328     172.994E-03     165.617E-03
            3240             329     173.484E-03     173.955E-03
            3240            3693     192.592E-03     190.360E-03
            3240            3700     190.511E-03     183.003E-03
            3241              74     527.653E-03     511.793E-03
            3241              75     459.429E-03     515.456E-03
            3241            3694     502.055E-03     494.336E-03
            3241            3701     430.227E-03     518.281E-03
            3242            3694     502.055E-03     494.336E-03
            3242            3695     453.966E-03     451.734E-03
            3242            3701     430.227E-03     518.281E-03
            3242            3702     383.880E-03     503.569E-03
            3243            3695     453.966E-03     451.734E-03
            3243            3696     407.908E-03     399.985E-03
            3243            3702     383.880E-03     503.569E-03
            3243            3703     346.679E-03     445.956E-03
            3244            3696     407.908E-03     399.985E-03
            3244            3697     353.726E-03     342.375E-03
            3244            3703     346.679E-03     445.956E-03
            3244            3704     303.436E-03     367.726E-03
            3245            3697     353.726E-03     342.375E-03
            3245            3698     293.221E-03     282.510E-03
            3245            3704     303.436E-03     367.726E-03
            3245            3705     257.214E-03     295.896E-03
            3246            3698     293.221E-03     282.510E-03
            3246            3699     235.723E-03     227.062E-03
            3246            3705     257.214E-03     295.896E-03
            3246            3706     214.859E-03     234.827E-03
            3247            3699     235.723E-03     227.062E-03
            3247            3700     190.511E-03     183.003E-03
            3247            3706     214.859E-03     234.827E-03
            3247            3707     183.753E-03     189.922E-03
            3248             327     172.027E-03     172.496E-03
            3248             328     172.994E-03     165.617E-03
            3248            3700     190.511E-03     183.003E-03
            3248            3707     183.753E-03     189.922E-03
            3249              75     459.429E-03     515.456E-03
            3249              76     459.923E-03     433.698E-03
            3249            3701     430.227E-03     518.281E-03
            3249            3708     465.702E-03     450.729E-03
            3250            3701     430.227E-03     518.281E-03
            3250            3702     383.880E-03     503.569E-03
            3250            3708     465.702E-03     450.729E-03
            3250            3709     456.188E-03     453.214E-03
            3251            3702     383.880E-03     503.569E-03
            3251            3703     346.679E-03     445.956E-03
            3251            3709     456.188E-03     453.214E-03
            3251            3710     414.006E-03     409.291E-03
            3252            3703     346.679E-03     445.956E-03
            3252            3704     303.436E-03     367.726E-03
            3252            3710     414.006E-03     409.291E-03
            3252            3711     355.283E-03     346.597E-03
            3253            3704     303.436E-03     367.726E-03
            3253            3705     257.214E-03     295.896E-03
            3253            3711     355.283E-03     346.597E-03
            3253            3712     292.994E-03     283.746E-03
            3254            3705     257.214E-03     295.896E-03
            3254            3706     214.859E-03     234.827E-03
            3254            3712     292.994E-03     283.746E-03
            3254            3713     236.298E-03     230.972E-03
            3255            3706     214.859E-03     234.827E-03
            3255            3707     183.753E-03     189.922E-03
            3255            3713     236.298E-03     230.972E-03
            3255            3714     193.374E-03     193.715E-03
            3256             326     176.778E-03     179.774E-03
            3256             327     172.027E-03     172.496E-03
            3256            3707     183.753E-03     189.922E-03
            3256            3714     193.374E-03     193.715E-03
            3257              76     459.923E-03     433.698E-03
            3257              77     483.009E-03     457.906E-03
            3257            3708     465.702E-03     450.729E-03
            3257            3715     484.665E-03     464.473E-03
            3258            3708     465.702E-03     450.729E-03
            3258            3709     456.188E-03     453.214E-03
            3258            3715     484.665E-03     464.473E-03
            3258            3716     476.824E-03     455.812E-03
            3259            3709     456.188E-03     453.214E-03
            3259            3710     414.006E-03     409.291E-03
            3259            3716     476.824E-03     455.812E-03
            3259            3717     442.360E-03     419.419E-03
            3260            3710     414.006E-03     409.291E-03
            3260            3711     355.283E-03     346.597E-03
            3260            3717     442.360E-03     419.419E-03
            3260            3718     383.776E-03     366.954E-03
            3261            3711     355.283E-03     346.597E-03
            3261            3712     292.994E-03     283.746E-03
            3261            3718     383.776E-03     366.954E-03
            3261            3719     315.506E-03     302.845E-03
            3262            3712     292.994E-03     283.746E-03
            3262            3713     236.298E-03     230.972E-03
            3262            3719     315.506E-03     302.845E-03
            3262            3720     250.127E-03     241.054E-03
            3263            3713     236.298E-03     230.972E-03
            3263            3714     193.374E-03     193.715E-03
            3263            3720     250.127E-03     241.054E-03
            3263            3721     198.904E-03     193.282E-03
            3264             325     178.510E-03     174.583E-03
            3264             326     176.778E-03     179.774E-03
            3264            3714     193.374E-03     193.715E-03
            3264            3721     198.904E-03     193.282E-03
            3265              77     483.009E-03     457.906E-03
            3265              78     490.609E-03     499.540E-03
            3265            3715     484.665E-03     464.473E-03
            3265            3722     473.826E-03     500.356E-03
            3266            3715     484.665E-03     464.473E-03
            3266            3716     476.824E-03     455.812E-03
            3266            3722     473.826E-03     500.356E-03
            3266            3723     446.759E-03     484.398E-03
            3267            3716     476.824E-03     455.812E-03
            3267            3717     442.360E-03     419.419E-03
            3267            3723     446.759E-03     484.398E-03
            3267            3724     419.545E-03     444.919E-03
            3268            3717     442.360E-03     419.419E-03
            3268            3718     383.776E-03     366.954E-03
            3268            3724     419.545E-03     444.919E-03
            3268            3725     374.502E-03     392.309E-03
            3269            3718     383.776E-03     366.954E-03
            3269            3719     315.506E-03     302.845E-03
            3269            3725     374.502E-03     392.309E-03
            3269            3726     314.166E-03     326.448E-03
            3270            3719     315.506E-03     302.845E-03
            3270            3720     250.127E-03     241.054E-03
            3270            3726     314.166E-03     326.448E-03
            3270            3727     251.542E-03     256.675E-03
            3271            3720     250.127E-03     241.054E-03
            3271            3721     198.904E-03     193.282E-03
            3271            3727     251.542E-03     256.675E-03
            3271            3728     200.708E-03     200.015E-03
            3272             324     180.366E-03     177.274E-03
            3272             325     178.510E-03     174.583E-03
            3272            3721     198.904E-03     193.282E-03
            3272            3728     200.708E-03     200.015E-03
            3273              78     490.609E-03     499.540E-03
            3273              79     525.341E-03     519.965E-03
            3273            3722     473.826E-03     500.356E-03
            3273            3729     509.152E-03     512.510E-03
            3274            3722     473.826E-03     500.356E-03
            3274            3723     446.759E-03     484.398E-03
            3274            3729     509.152E-03     512.510E-03
            3274            3730     476.795E-03     483.972E-03
            3275            3723     446.759E-03     484.398E-03
            3275            3724     419.545E-03     444.919E-03
            3275            3730     476.795E-03     483.972E-03
            3275            3731     441.632E-03     440.489E-03
            3276            3724     419.545E-03     444.919E-03
            3276            3725     374.502E-03     392.309E-03
            3276            3731     441.632E-03     440.489E-03
            3276            3732     395.120E-03     391.395E-03
            3277            3725     374.502E-03     392.309E-03
            3277            3726     314.166E-03     326.448E-03
            3277            3732     395.120E-03     391.395E-03
            3277            3733     332.394E-03     330.764E-03
            3278            3726     314.166E-03     326.448E-03
            3278            3727     251.542E-03     256.675E-03
            3278            3733     332.394E-03     330.764E-03
            3278            3734     262.461E-03     261.855E-03
            3279            3727     251.542E-03     256.675E-03
            3279            3728     200.708E-03     200.015E-03
            3279            3734     262.461E-03     261.855E-03
            3279            3735     203.316E-03     202.269E-03
            3280             323     178.995E-03     177.756E-03
            3280             324     180.366E-03     177.274E-03
            3280            3728     200.708E-03     200.015E-03
            3280            3735     203.316E-03     202.269E-03
            3281              79     525.341E-03     519.965E-03
            3281              80     551.683E-03     551.731E-03
            3281            3729     509.152E-03     512.510E-03
            3281            3736     530.836E-03     544.359E-03
            3282            3729     509.152E-03     512.510E-03
            3282            3730     476.795E-03     483.972E-03
            3282            3736     530.836E-03     544.359E-03
            3282            3737     492.371E-03     513.255E-03
            3283            3730     476.795E-03     483.972E-03
            3283            3731     441.632E-03     440.489E-03
            3283            3737     492.371E-03     513.255E-03
            3283            3738     455.441E-03     462.873E-03
            3284            3731     441.632E-03     440.489E-03
            3284            3732     395.120E-03     391.395E-03
            3284            3738     455.441E-03     462.873E-03
            3284            3739     408.312E-03     408.024E-03
            3285            3732     395.120E-03     391.395E-03
            3285            3733     332.394E-03     330.764E-03
            3285            3739     408.312E-03     408.024E-03
            3285            3740     344.087E-03     345.254E-03
            3286            3733     332.394E-03     330.764E-03
            3286            3734     262.461E-03     261.855E-03
            3286            3740     344.087E-03     345.254E-03
            3286            3741     269.781E-03     272.583E-03
            3287            3734     262.461E-03     261.855E-03
            3287            3735     203.316E-03     202.269E-03
            3287            3741     269.781E-03     272.583E-03
            3287            3742     204.913E-03     206.034E-03
            3288             322     178.048E-03     177.697E-03
            3288             323     178.995E-03     177.756E-03
            3288            3735     203.316E-03     202.269E-03
            3288            3742     204.913E-03     206.034E-03
            3289              80     551.683E-03     551.731E-03
            3289              81     578.261E-03     580.983E-03
            3289            3736     530.836E-03     544.359E-03
            3289            3743     558.007E-03     571.846E-03
            3290            3736     530.836E-03     544.359E-03
            3290            3737     492.371E-03     513.255E-03
            3290            3743     558.007E-03     571.846E-03
            3290            3744     518.725E-03     536.655E-03
            3291            3737     492.371E-03     513.255E-03
            3291            3738     455.441E-03     462.873E-03
            3291            3744     518.725E-03     536.655E-03
            3291            3745     477.611E-03     481.239E-03
            3292            3738     455.441E-03     462.873E-03
            3292            3739     408.312E-03     408.024E-03
            3292            3745     477.611E-03     481.239E-03
            3292            3746     426.297E-03     421.880E-03
            3293            3739     408.312E-03     408.024E-03
            3293            3740     344.087E-03     345.254E-03
            3293            3746     426.297E-03     421.880E-03
            3293            3747     358.261E-03     356.047E-03
            3294            3740     344.087E-03     345.254E-03
            3294            3741     269.781E-03     272.583E-03
            3294            3747     358.261E-03     356.047E-03
            3294            3748     278.232E-03     280.465E-03
            3295            3741     269.781E-03     272.583E-03
            3295            3742     204.913E-03     206.034E-03
            3295            3748     278.232E-03     280.465E-03
            3295            3749     207.113E-03     209.379E-03
            3296             321     177.326E-03     178.155E-03
            3296             322     178.048E-03     177.697E-03
            3296            3742     204.913E-03     206.034E-03
            3296            3749     207.113E-03     209.379E-03
            3297              81     578.261E-03     580.983E-03
            3297              82     611.417E-03     600.985E-03
            3297            3743     558.007E-03     571.846E-03
            3297            3750     591.112E-03     591.110E-03
            3298            3743     558.007E-03     571.846E-03
            3298            3744     518.725E-03     536.655E-03
            3298            3750     591.112E-03     591.110E-03
            3298            3751     547.681E-03     554.436E-03
            3299            3744     518.725E-03     536.655E-03
            3299            3745     477.611E-03     481.239E-03
            3299            3751     547.681E-03     554.436E-03
            3299            3752     500.158E-03     497.146E-03
            3300            3745     477.611E-03     481.239E-03
            3300            3746     426.297E-03     421.880E-03
            3300            3752     500.158E-03     497.146E-03
            3300            3753     443.710E-03     434.016E-03
            3301            3746     426.297E-03     421.880E-03
            3301            3747     358.261E-03     356.047E-03
            3301            3753     443.710E-03     434.016E-03
            3301            3754     370.032E-03     363.933E-03
            3302            3747     358.261E-03     356.047E-03
            3302            3748     278.232E-03     280.465E-03
            3302            3754     370.032E-03     363.933E-03
            3302            3755     284.396E-03     284.510E-03
            3303            3748     278.232E-03     280.465E-03
            3303            3749     207.113E-03     209.379E-03
            3303            3755     284.396E-03     284.510E-03
            3303            3756     208.310E-03     209.548E-03
            3304             320     176.344E-03     176.681E-03
            3304             321     177.326E-03     178.155E-03
            3304            3749     207.113E-03     209.379E-03
            3304            3756     208.310E-03     209.548E-03
            3305              82     611.417E-03     600.985E-03
            3305              83     626.444E-03     650.267E-03
            3305            3750     591.112E-03     591.110E-03
            3305            3757     601.112E-03     646.563E-03
            3306            3750     591.112E-03     591.110E-03
            3306            3751     547.681E-03     554.436E-03
            3306            3757     601.112E-03     646.563E-03
            3306            3758     555.486E-03     614.618E-03
            3307            3751     547.681E-03     554.436E-03
            3307            3752     500.158E-03     497.146E-03
            3307            3758     555.486E-03     614.618E-03
            3307            3759     510.194E-03     549.156E-03
            3308            3752     500.158E-03     497.146E-03
            3308            3753     443.710E-03     434.016E-03
            3308            3759     510.194E-03     549.156E-03
            3308            3760     450.287E-03     473.884E-03
            3309            3753     443.710E-03     434.016E-03
            3309            3754     370.032E-03     363.933E-03
            3309            3760     450.287E-03     473.884E-03
            3309            3761     371.371E-03     390.847E-03
            3310            3754     370.032E-03     363.933E-03
            3310            3755     284.396E-03     284.510E-03
            3310            3761     371.371E-03     390.847E-03
            3310            3762     282.470E-03     298.886E-03
            3311            3755     284.396E-03     284.510E-03
            3311            3756     208.310E-03     209.548E-03
            3311            3762     282.470E-03     298.886E-03
            3311            3763     205.141E-03     215.232E-03
            3312             319     172.820E-03     178.676E-03
            3312             320     176.344E-03     176.681E-03
            3312            3756     208.310E-03     209.548E-03
            3312            3763     205.141E-03     215.232E-03
            3313              83     626.444E-03     650.267E-03
            3313              84     702.854E-03     664.117E-03
            3313            3757     601.112E-03     646.563E-03
            3313            3764     693.786E-03     655.408E-03
            3314            3757     601.112E-03     646.563E-03
            3314            3758     555.486E-03     614.618E-03
            3314            3764     693.786E-03     655.408E-03
            3314            3765     658.572E-03     610.383E-03
            3315            3758     555.486E-03     614.618E-03
            3315            3759     510.194E-03     549.156E-03
            3315            3765     658.572E-03     610.383E-03
            3315            3766     596.597E-03     541.263E-03
            3316            3759     510.194E-03     549.156E-03
            3316            3760     450.287E-03     473.884E-03
            3316            3766     596.597E-03     541.263E-03
            3316            3767     513.490E-03     467.977E-03
            3317            3760     450.287E-03     473.884E-03
            3317            3761     371.371E-03     390.847E-03
            3317            3767     513.490E-03     467.977E-03
            3317            3768     412.481E-03     382.448E-03
            3318            3761     371.371E-03     390.847E-03
            3318            3762     282.470E-03     298.886E-03
            3318            3768     412.481E-03     382.448E-03
            3318            3769     307.304E-03     292.549E-03
            3319            3762     282.470E-03     298.886E-03
            3319            3763     205.141E-03     215.232E-03
            3319            3769     307.304E-03     292.549E-03
            3319            3770     217.201E-03     213.546E-03
            3320             318     178.673E-03     179.509E-03
            3320             319     172.820E-03     178.676E-03
            3320            3763     205.141E-03     215.232E-03
            3320            3770     217.201E-03     213.546E-03
            3321              84     702.854E-03     664.117E-03
            3321              85     743.636E-03     718.527E-03
            3321            3764     693.786E-03     655.408E-03
            3321            3771     712.958E-03     700.274E-03
            3322            3764     693.786E-03     655.408E-03
            3322            3765     658.572E-03     610.383E-03
            3322            3771     712.958E-03     700.274E-03
            3322            3772     650.452E-03     646.737E-03
            3323            3765     658.572E-03     610.383E-03
            3323            3766     596.597E-03     541.263E-03
            3323            3772     650.452E-03     646.737E-03
            3323            3773     581.229E-03     569.884E-03
            3324            3766     596.597E-03     541.263E-03
            3324            3767     513.490E-03     467.977E-03
            3324            3773     581.229E-03     569.884E-03
            3324            3774     494.980E-03     478.762E-03
            3325            3767     513.490E-03     467.977E-03
            3325            3768     412.481E-03     382.448E-03
            3325            3774     494.980E-03     478.762E-03
            3325            3775     396.126E-03     380.784E-03
            3326            3768     412.481E-03     382.448E-03
            3326            3769     307.304E-03     292.549E-03
            3326            3775     396.126E-03     380.784E-03
            3326            3776     297.164E-03     285.209E-03
            3327            3769     307.304E-03     292.549E-03
            3327            3770     217.201E-03     213.546E-03
            3327            3776     297.164E-03     285.209E-03
            3327            3777     212.917E-03     202.982E-03
            3328             317     177.750E-03     168.022E-03
            3328             318     178.673E-03     179.509E-03
            3328            3770     217.201E-03     213.546E-03
            3328            3777     212.917E-03     202.982E-03
            3329              85     743.636E-03     718.527E-03
            3329              86     659.333E-03     740.113E-03
            3329            3771     712.958E-03     700.274E-03
            3329            3778     616.182E-03     742.890E-03
            3330            3771     712.958E-03     700.274E-03
            3330            3772     650.452E-03     646.737E-03
            3330            3778     616.182E-03     742.890E-03
            3330            3779     547.345E-03     719.037E-03
            3331            3772     650.452E-03     646.737E-03
            3331            3773     581.229E-03     569.884E-03
            3331            3779     547.345E-03     719.037E-03
            3331            3780     489.631E-03     632.123E-03
            3332            3773     581.229E-03     569.884E-03
            3332            3774     494.980E-03     478.762E-03
            3332            3780     489.631E-03     632.123E-03
            3332            3781     419.696E-03     513.667E-03
            3333            3774     494.980E-03     478.762E-03
            3333            3775     396.126E-03     380.784E-03
            3333            3781     419.696E-03     513.667E-03
            3333            3782     341.878E-03     401.188E-03
            3334            3775     396.126E-03     380.784E-03
            3334            3776     297.164E-03     285.209E-03
            3334            3782     341.878E-03     401.188E-03
            3334            3783     264.630E-03     298.357E-03
            3335            3776     297.164E-03     285.209E-03
            3335            3777     212.917E-03     202.982E-03
            3335            3783     264.630E-03     298.357E-03
            3335            3784     201.441E-03     214.161E-03
            3336             316     175.672E-03     178.614E-03
            3336             317     177.750E-03     168.022E-03
            3336            3777     212.917E-03     202.982E-03
            3336            3784     201.441E-03     214.161E-03
            3337              86     659.333E-03     740.113E-03
            3337              87     673.913E-03     639.518E-03
            3337            3778     616.182E-03     742.890E-03
            3337            3785     674.186E-03     654.882E-03
            3338            3778     616.182E-03     742.890E-03
            3338            3779     547.345E-03     719.037E-03
            3338            3785     674.186E-03     654.882E-03
            3338            3786     649.218E-03     644.740E-03
            3339            3779     547.345E-03     719.037E-03
            3339            3780     489.631E-03     632.123E-03
            3339            3786     649.218E-03     644.740E-03
            3339            3787     583.921E-03     575.818E-03
            3340            3780     489.631E-03     632.123E-03
            3340            3781     419.696E-03     513.667E-03
            3340            3787     583.921E-03     575.818E-03
            3340            3788     494.960E-03     481.168E-03
            3341            3781     419.696E-03     513.667E-03
            3341            3782     341.878E-03     401.188E-03
            3341            3788     494.960E-03     481.168E-03
            3341            3789     396.435E-03     382.568E-03
            3342            3782     341.878E-03     401.188E-03
            3342            3783     264.630E-03     298.357E-03
            3342            3789     396.435E-03     382.568E-03
            3342            3790     299.656E-03     292.103E-03
            3343            3783     264.630E-03     298.357E-03
            3343            3784     201.441E-03     214.161E-03
            3343            3790     299.656E-03     292.103E-03
            3343            3791     217.279E-03     218.689E-03
            3344             315     182.187E-03     188.482E-03
            3344             316     175.672E-03     178.614E-03
            3344            3784     201.441E-03     214.161E-03
            3344            3791     217.279E-03     218.689E-03
            3345              87     673.913E-03     639.518E-03
            3345              88     695.643E-03     658.238E-03
            3345            3785     674.186E-03     654.882E-03
            3345            3792     694.113E-03     663.749E-03
            3346            3785     674.186E-03     654.882E-03
            3346            3786     649.218E-03     644.740E-03
            3346            3792     694.113E-03     663.749E-03
            3346            3793     676.049E-03     642.684E-03
            3347            3786     649.218E-03     644.740E-03
            3347            3787     583.921E-03     575.818E-03
            3347            3793     676.049E-03     642.684E-03
            3347            3794     622.541E-03     583.445E-03
            3348            3787     583.921E-03     575.818E-03
            3348            3788     494.960E-03     481.168E-03
            3348            3794     622.541E-03     583.445E-03
            3348            3795     534.319E-03     504.217E-03
            3349            3788     494.960E-03     481.168E-03
            3349            3789     396.435E-03     382.568E-03
            3349            3795     534.319E-03     504.217E-03
            3349            3796     428.309E-03     406.613E-03
            3350            3789     396.435E-03     382.568E-03
            3350            3790     299.656E-03     292.103E-03
            3350            3796     428.309E-03     406.613E-03
            3350            3797     319.830E-03     305.679E-03
            3351            3790     299.656E-03     292.103E-03
            3351            3791     217.279E-03     218.689E-03
            3351            3797     319.830E-03     305.679E-03
            3351            3798     225.280E-03     218.425E-03
            3352             314     184.583E-03     181.192E-03
            3352             315     182.187E-03     188.482E-03
            3352            3791     217.279E-03     218.689E-03
            3352            3798     225.280E-03     218.425E-03
            3353              88     695.643E-03     658.238E-03
            3353              89     690.211E-03     706.134E-03
            3353            3792     694.113E-03     663.749E-03
            3353            3799     666.228E-03     704.590E-03
            3354            3792     694.113E-03     663.749E-03
            3354            3793     676.049E-03     642.684E-03
            3354            3799     666.228E-03     704.590E-03
            3354            3800     624.837E-03     676.291E-03
            3355            3793     676.049E-03     642.684E-03
            3355            3794     622.541E-03     583.445E-03
            3355            3800     624.837E-03     676.291E-03
            3355            3801     580.957E-03     614.845E-03
            3356            3794     622.541E-03     583.445E-03
            3356            3795     534.319E-03     504.217E-03
            3356            3801     580.957E-03     614.845E-03
            3356            3802     512.757E-03     536.128E-03
            3357            3795     534.319E-03     504.217E-03
            3357            3796     428.309E-03     406.613E-03
            3357            3802     512.757E-03     536.128E-03
            3357            3803     419.528E-03     437.153E-03
            3358            3796     428.309E-03     406.613E-03
            3358            3797     319.830E-03     305.679E-03
            3358            3803     419.528E-03     437.153E-03
            3358            3804     316.537E-03     326.564E-03
            3359            3797     319.830E-03     305.679E-03
            3359            3798     225.280E-03     218.425E-03
            3359            3804     316.537E-03     326.564E-03
            3359            3805     225.661E-03     227.810E-03
            3360             313     186.396E-03     184.834E-03
            3360             314     184.583E-03     181.192E-03
            3360            3798     225.280E-03     218.425E-03
            3360            3805     225.661E-03     227.810E-03
            3361              89     690.211E-03     706.134E-03
            3361              90     730.210E-03     721.047E-03
            3361            3799     666.228E-03     704.590E-03
            3361            3806     704.555E-03     711.537E-03
            3362            3799     666.228E-03     704.590E-03
            3362            3800     624.837E-03     676.291E-03
            3362            3806     704.555E-03     711.537E-03
            3362            3807     654.529E-03     671.402E-03
            3363            3800     624.837E-03     676.291E-03
            3363            3801     580.957E-03     614.845E-03
            3363            3807     654.529E-03     671.402E-03
            3363            3808     603.445E-03     606.824E-03
            3364            3801     580.957E-03     614.845E-03
            3364            3802     512.757E-03     536.128E-03
            3364            3808     603.445E-03     606.824E-03
            3364            3809     535.154E-03     532.480E-03
            3365            3802     512.757E-03     536.128E-03
            3365            3803     419.528E-03     437.153E-03
            3365            3809     535.154E-03     532.480E-03
            3365            3810     439.879E-03     440.447E-03
            3366            3803     419.528E-03     437.153E-03
            3366            3804     316.537E-03     326.564E-03
            3366            3810     439.879E-03     440.447E-03
            3366            3811     329.144E-03     331.816E-03
            3367            3804     316.537E-03     326.564E-03
            3367            3805     225.661E-03     227.810E-03
            3367            3811     329.144E-03     331.816E-03
            3367            3812     228.019E-03     230.047E-03
            3368             312     184.068E-03     185.401E-03
            3368             313     186.396E-03     184.834E-03
            3368            3805     225.661E-03     227.810E-03
            3368            3812     228.019E-03     230.047E-03
            3369              90     730.210E-03     721.047E-03
            3369              91     754.421E-03     758.644E-03
            3369            3806     704.555E-03     711.537E-03
            3369            3813     729.449E-03     746.604E-03
            3370            3806     704.555E-03     711.537E-03
            3370            3807     654.529E-03     671.402E-03
            3370            3813     729.449E-03     746.604E-03
            3370            3814     681.257E-03     699.269E-03
            3371            3807     654.529E-03     671.402E-03
            3371            3808     603.445E-03     606.824E-03
            3371            3814     681.257E-03     699.269E-03
            3371            3815     628.057E-03     625.491E-03
            3372            3808     603.445E-03     606.824E-03
            3372            3809     535.154E-03     532.480E-03
            3372            3815     628.057E-03     625.491E-03
            3372            3816     556.297E-03     546.135E-03
            3373            3809     535.154E-03     532.480E-03
            3373            3810     439.879E-03     440.447E-03
            3373            3816     556.297E-03     546.135E-03
            3373            3817     457.595E-03     453.277E-03
            3374            3810     439.879E-03     440.447E-03
            3374            3811     329.144E-03     331.816E-03
            3374            3817     457.595E-03     453.277E-03
            3374            3818     339.849E-03     341.990E-03
            3375            3811     329.144E-03     331.816E-03
            3375            3812     228.019E-03     230.047E-03
            3375            3818     339.849E-03     341.990E-03
            3375            3819     231.382E-03     233.480E-03
            3376             311     183.875E-03     184.414E-03
            3376             312     184.068E-03     185.401E-03
            3376            3812     228.019E-03     230.047E-03
            3376            3819     231.382E-03     233.480E-03
            3377              91     754.421E-03     758.644E-03
            3377              92     790.032E-03     776.608E-03
            3377            3813     729.449E-03     746.604E-03
            3377            3820     761.823E-03     764.506E-03
            3378            3813     729.449E-03     746.604E-03
            3378            3814     681.257E-03     699.269E-03
            3378            3820     761.823E-03     764.506E-03
            3378            3821     703.926E-03     717.275E-03
            3379            3814     681.257E-03     699.269E-03
            3379            3815     628.057E-03     625.491E-03
            3379            3821     703.926E-03     717.275E-03
            3379            3822     643.425E-03     642.684E-03
            3380            3815     628.057E-03     625.491E-03
            3380            3816     556.297E-03     546.135E-03
            3380            3822     643.425E-03     642.684E-03
            3380            3823     568.573E-03     559.432E-03
            3381            3816     556.297E-03     546.135E-03
            3381            3817     457.595E-03     453.277E-03
            3381            3823     568.573E-03     559.432E-03
            3381            3824     466.257E-03     462.388E-03
            3382            3817     457.595E-03     453.277E-03
            3382            3818     339.849E-03     341.990E-03
            3382            3824     466.257E-03     462.388E-03
            3382            3825     344.711E-03     347.401E-03
            3383            3818     339.849E-03     341.990E-03
            3383            3819     231.382E-03     233.480E-03
            3383            3825     344.711E-03     347.401E-03
            3383            3826     232.290E-03     233.984E-03
            3384             310     183.280E-03     182.445E-03
            3384             311     183.875E-03     184.414E-03
            3384            3819     231.382E-03     233.480E-03
            3384            3826     232.290E-03     233.984E-03
            3385              92     790.032E-03     776.608E-03
            3385              93     802.195E-03     831.382E-03
            3385            3820     761.823E-03     764.506E-03
            3385            3827     769.749E-03     825.951E-03
            3386            3820     761.823E-03     764.506E-03
            3386            3821     703.926E-03     717.275E-03
            3386            3827     769.749E-03     825.951E-03
            3386            3828     711.345E-03     783.507E-03
            3387            3821     703.926E-03     717.275E-03
            3387            3822     643.425E-03     642.684E-03
            3387            3828     711.345E-03     783.507E-03
            3387            3829     652.914E-03     699.267E-03
            3388            3822     643.425E-03     642.684E-03
            3388            3823     568.573E-03     559.432E-03
            3388            3829     652.914E-03     699.267E-03
            3388            3830     573.452E-03     602.315E-03
            3389            3823     568.573E-03     559.432E-03
            3389            3824     466.257E-03     462.388E-03
            3389            3830     573.452E-03     602.315E-03
            3389            3831     465.591E-03     491.316E-03
            3390            3824     466.257E-03     462.388E-03
            3390            3825     344.711E-03     347.401E-03
            3390            3831     465.591E-03     491.316E-03
            3390            3832     341.182E-03     363.495E-03
            3391            3825     344.711E-03     347.401E-03
            3391            3826     232.290E-03     233.984E-03
            3391            3832     341.182E-03     363.495E-03
            3391            3833     227.960E-03     240.773E-03
            3392             309     178.417E-03     184.753E-03
            3392             310     183.280E-03     182.445E-03
            3392            3826     232.290E-03     233.984E-03
            3392            3833     227.960E-03     240.773E-03
            3393              93     802.195E-03     831.382E-03
            3393              94     891.060E-03     841.095E-03
            3393            3827     769.749E-03     825.951E-03
            3393            3834     879.090E-03     831.413E-03
            3394            3827     769.749E-03     825.951E-03
            3394            3828     711.345E-03     783.507E-03
            3394            3834     879.090E-03     831.413E-03
            3394            3835     834.771E-03     775.364E-03
            3395            3828     711.345E-03     783.507E-03
            3395            3829     652.914E-03     699.267E-03
            3395            3835     834.771E-03     775.364E-03
            3395            3836     756.184E-03     686.382E-03
            3396            3829     652.914E-03     699.267E-03
            3396            3830     573.452E-03     602.315E-03
            3396            3836     756.184E-03     686.382E-03
            3396            3837     647.558E-03     590.570E-03
            3397            3830     573.452E-03     602.315E-03
            3397            3831     465.591E-03     491.316E-03
            3397            3837     647.558E-03     590.570E-03
            3397            3838     513.682E-03     476.877E-03
            3398            3831     465.591E-03     491.316E-03
            3398            3832     341.182E-03     363.495E-03
            3398            3838     513.682E-03     476.877E-03
            3398            3839     371.293E-03     353.190E-03
            3399            3832     341.182E-03     363.495E-03
            3399            3833     227.960E-03     240.773E-03
            3399            3839     371.293E-03     353.190E-03
            3399            3840     243.058E-03     237.556E-03
            3400             308     185.885E-03     185.256E-03
            3400             309     178.417E-03     184.753E-03
            3400            3833     227.960E-03     240.773E-03
            3400            3840     243.058E-03     237.556E-03
            3401              94     891.060E-03     841.095E-03
            3401              95     934.560E-03     901.423E-03
            3401            3834     879.090E-03     831.413E-03
            3401            3841     898.692E-03     882.029E-03
            3402            3834     879.090E-03     831.413E-03
            3402            3835     834.771E-03     775.364E-03
            3402            3841     898.692E-03     882.029E-03
            3402            3842     822.152E-03     817.439E-03
            3403            3835     834.771E-03     775.364E-03
            3403            3836     756.184E-03     686.382E-03
            3403            3842     822.152E-03     817.439E-03
            3403            3843     732.555E-03     717.953E-03
            3404            3836     756.184E-03     686.382E-03
            3404            3837     647.558E-03     590.570E-03
            3404            3843     732.555E-03     717.953E-03
            3404            3844     619.870E-03     599.006E-03
            3405            3837     647.558E-03     590.570E-03
            3405            3838     513.682E-03     476.877E-03
            3405            3844     619.870E-03     599.006E-03
            3405            3845     489.702E-03     470.868E-03
            3406            3838     513.682E-03     476.877E-03
            3406            3839     371.293E-03     353.190E-03
            3406            3845     489.702E-03     470.868E-03
            3406            3846     356.273E-03     342.653E-03
            3407            3839     371.293E-03     353.190E-03
            3407            3840     243.058E-03     237.556E-03
            3407            3846     356.273E-03     342.653E-03
            3407            3847     236.547E-03     224.650E-03
            3408             307     183.988E-03     171.530E-03
            3408             308     185.885E-03     185.256E-03
            3408            3840     243.058E-03     237.556E-03
            3408            3847     236.547E-03     224.650E-03
            3409              95     934.560E-03     901.423E-03
            3409              96     830.393E-03     933.479E-03
            3409            3841     898.692E-03     882.029E-03
            3409            3848     772.857E-03     933.055E-03
            3410            3841     898.692E-03     882.029E-03
            3410            3842     822.152E-03     817.439E-03
            3410            3848     772.857E-03     933.055E-03
            3410            3849     682.568E-03     896.335E-03
            3411            3842     822.152E-03     817.439E-03
            3411            3843     732.555E-03     717.953E-03
            3411            3849     682.568E-03     896.335E-03
            3411            3850     610.416E-03     785.032E-03
            3412            3843     732.555E-03     717.953E-03
            3412            3844     619.870E-03     599.006E-03
            3412            3850     610.416E-03     785.032E-03
            3412            3851     523.247E-03     639.723E-03
            3413            3844     619.870E-03     599.006E-03
            3413            3845     489.702E-03     470.868E-03
            3413            3851     523.247E-03     639.723E-03
            3413            3852     422.651E-03     501.601E-03
            3414            3845     489.702E-03     470.868E-03
            3414            3846     356.273E-03     342.653E-03
            3414            3852     422.651E-03     501.601E-03
            3414            3853     315.385E-03     366.255E-03
            3415            3846     356.273E-03     342.653E-03
            3415            3847     236.547E-03     224.650E-03
            3415            3853     315.385E-03     366.255E-03
            3415            3854     218.235E-03     241.444E-03
            3416             306     175.637E-03     184.319E-03
            3416             307     183.988E-03     171.530E-03
            3416            3847     236.547E-03     224.650E-03
            3416            3854     218.235E-03     241.444E-03
            3417              96     830.393E-03     933.479E-03
            3417              97     850.552E-03     814.894E-03
            3417            3848     772.857E-03     933.055E-03
            3417            3855     845.378E-03     823.311E-03
            3418            3848     772.857E-03     933.055E-03
            3418            3849     682.568E-03     896.335E-03
            3418            3855     845.378E-03     823.311E-03
            3418            3856     809.258E-03     793.516E-03
            3419            3849     682.568E-03     896.335E-03
            3419            3850     610.416E-03     785.032E-03
            3419            3856     809.258E-03     793.516E-03
            3419            3857     729.818E-03     705.187E-03
            3420            3850     610.416E-03     785.032E-03
            3420            3851     523.247E-03     639.723E-03
            3420            3857     729.818E-03     705.187E-03
            3420            3858     622.987E-03     597.216E-03
            3421            3851     523.247E-03     639.723E-03
            3421            3852     422.651E-03     501.601E-03
            3421            3858     622.987E-03     597.216E-03
            3421            3859     500.260E-03     480.415E-03
            3422            3852     422.651E-03     501.601E-03
            3422            3853     315.385E-03     366.255E-03
            3422            3859     500.260E-03     480.415E-03
            3422            3860     367.463E-03     358.949E-03
            3423            3853     315.385E-03     366.255E-03
            3423            3854     218.235E-03     241.444E-03
            3423            3860     367.463E-03     358.949E-03
            3423            3861     239.894E-03     244.818E-03
            3424             305     180.893E-03     193.341E-03
            3424             306     175.637E-03     184.319E-03
            3424            3854     218.235E-03     241.444E-03
            3424            3861     239.894E-03     244.818E-03
            3425              97     850.552E-03     814.894E-03
            3425              98     883.601E-03     823.973E-03
            3425            3855     845.378E-03     823.311E-03
            3425            3862     877.259E-03     823.930E-03
            3426            3855     845.378E-03     823.311E-03
            3426            3856     809.258E-03     793.516E-03
            3426            3862     877.259E-03     823.930E-03
            3426            3863     846.570E-03     787.495E-03
            3427            3856     809.258E-03     793.516E-03
            3427            3857     729.818E-03     705.187E-03
            3427            3863     846.570E-03     787.495E-03
            3427            3864     778.037E-03     715.399E-03
            3428            3857     729.818E-03     705.187E-03
            3428            3858     622.987E-03     597.216E-03
            3428            3864     778.037E-03     715.399E-03
            3428            3865     670.496E-03     625.154E-03
            3429            3858     622.987E-03     597.216E-03
            3429            3859     500.260E-03     480.415E-03
            3429            3865     670.496E-03     625.154E-03
            3429            3866     535.278E-03     505.025E-03
            3430            3859     500.260E-03     480.415E-03
            3430            3860     367.463E-03     358.949E-03
            3430            3866     535.278E-03     505.025E-03
            3430            3867     387.887E-03     368.261E-03
            3431            3860     367.463E-03     358.949E-03
            3431            3861     239.894E-03     244.818E-03
            3431            3867     387.887E-03     368.261E-03
            3431            3868     248.337E-03     238.729E-03
            3432             304     184.492E-03     180.526E-03
            3432             305     180.893E-03     193.341E-03
            3432            3861     239.894E-03     244.818E-03
            3432            3868     248.337E-03     238.729E-03
            3433              98     883.601E-03     823.973E-03
            3433              99     857.659E-03     910.229E-03
            3433            3862     877.259E-03     823.930E-03
            3433            3869     819.162E-03     910.304E-03
            3434            3862     877.259E-03     823.930E-03
            3434            3863     846.570E-03     787.495E-03
            3434            3869     819.162E-03     910.304E-03
            3434            3870     762.650E-03     875.438E-03
            3435            3863     846.570E-03     787.495E-03
            3435            3864     778.037E-03     715.399E-03
            3435            3870     762.650E-03     875.438E-03
            3435            3871     714.100E-03     794.921E-03
            3436            3864     778.037E-03     715.399E-03
            3436            3865     670.496E-03     625.154E-03
            3436            3871     714.100E-03     794.921E-03
            3436            3872     627.800E-03     692.817E-03
            3437            3865     670.496E-03     625.154E-03
            3437            3866     535.278E-03     505.025E-03
            3437            3872     627.800E-03     692.817E-03
            3437            3873     502.770E-03     559.446E-03
            3438            3866     535.278E-03     505.025E-03
            3438            3867     387.887E-03     368.261E-03
            3438            3873     502.770E-03     559.446E-03
            3438            3874     363.844E-03     402.006E-03
            3439            3867     387.887E-03     368.261E-03
            3439            3868     248.337E-03     238.729E-03
            3439            3874     363.844E-03     402.006E-03
            3439            3875     238.497E-03     254.632E-03
            3440             303     182.958E-03     188.028E-03
            3440             304     184.492E-03     180.526E-03
            3440            3868     248.337E-03     238.729E-03
            3440            3875     238.497E-03     254.632E-03
            3441              99     857.659E-03     910.229E-03
            3441             100     969.432E-03     902.652E-03
            3441            3869     819.162E-03     910.304E-03
            3441            3876     954.715E-03     890.104E-03
            3442            3869     819.162E-03     910.304E-03
            3442            3870     762.650E-03     875.438E-03
            3442            3876     954.715E-03     890.104E-03
            3442            3877     907.178E-03     828.079E-03
            3443            3870     762.650E-03     875.438E-03
            3443            3871     714.100E-03     794.921E-03
            3443            3877     907.178E-03     828.079E-03
            3443            3878     827.643E-03     741.462E-03
            3444            3871     714.100E-03     794.921E-03
            3444            3872     627.800E-03     692.817E-03
            3444            3878     827.643E-03     741.462E-03
            3444            3879     711.999E-03     650.657E-03
            3445            3872     627.800E-03     692.817E-03
            3445            3873     502.770E-03     559.446E-03
            3445            3879     711.999E-03     650.657E-03
            3445            3880     563.826E-03     527.656E-03
            3446            3873     502.770E-03     559.446E-03
            3446            3874     363.844E-03     402.006E-03
            3446            3880     563.826E-03     527.656E-03
            3446            3881     404.971E-03     383.532E-03
            3447            3874     363.844E-03     402.006E-03
            3447            3875     238.497E-03     254.632E-03
            3447            3881     404.971E-03     383.532E-03
            3447            3882     258.808E-03     248.719E-03
            3448             302     192.426E-03     188.845E-03
            3448             303     182.958E-03     188.028E-03
            3448            3875     238.497E-03     254.632E-03
            3448            3882     258.808E-03     248.719E-03
            3449             100     969.432E-03     902.652E-03
            3449             101         1.01342     979.160E-03
            3449            3876     954.715E-03     890.104E-03
            3449            3883     972.686E-03     954.889E-03
            3450            3876     954.715E-03     890.104E-03
            3450            3877     907.178E-03     828.079E-03
            3450            3883     972.686E-03     954.889E-03
            3450            3884     889.942E-03     877.258E-03
            3451            3877     907.178E-03     828.079E-03
            3451            3878     827.643E-03     741.462E-03
            3451            3884     889.942E-03     877.258E-03
            3451            3885     796.647E-03     769.180E-03
            3452            3878     827.643E-03     741.462E-03
            3452            3879     711.999E-03     650.657E-03
            3452            3885     796.647E-03     769.180E-03
            3452            3886     678.136E-03     650.947E-03
            3453            3879     711.999E-03     650.657E-03
            3453            3880     563.826E-03     527.656E-03
            3453            3886     678.136E-03     650.947E-03
            3453            3887     538.111E-03     519.897E-03
            3454            3880     563.826E-03     527.656E-03
            3454            3881     404.971E-03     383.532E-03
            3454            3887     538.111E-03     519.897E-03
            3454            3888     390.109E-03     377.576E-03
            3455            3881     404.971E-03     383.532E-03
            3455            3882     258.808E-03     248.719E-03
            3455            3888     390.109E-03     377.576E-03
            3455            3889     253.094E-03     238.368E-03
            3456             301     191.445E-03     174.113E-03
            3456             302     192.426E-03     188.845E-03
            3456            3882     258.808E-03     248.719E-03
            3456            3889     253.094E-03     238.368E-03
            3457               3     914.150E-03         1.03472
            3457             101         1.01342     979.160E-03
            3457             489     848.852E-03         1.02826
            3457            3883     972.686E-03     954.889E-03
            3458             489     848.852E-03         1.02826
            3458             490     750.074E-03     977.529E-03
            3458            3883     972.686E-03     954.889E-03
            3458            3884     889.942E-03     877.258E-03
            3459             490     750.074E-03     977.529E-03
            3459             491     673.861E-03     852.549E-03
            3459            3884     889.942E-03     877.258E-03
            3459            3885     796.647E-03     769.180E-03
            3460             491     673.861E-03     852.549E-03
            3460             492     580.556E-03     701.077E-03
            3460            3885     796.647E-03     769.180E-03
            3460            3886     678.136E-03     650.947E-03
            3461             492     580.556E-03     701.077E-03
            3461             493     469.758E-03     557.481E-03
            3461            3886     678.136E-03     650.947E-03
            3461            3887     538.111E-03     519.897E-03
            3462             493     469.758E-03     557.481E-03
            3462             494     348.100E-03     408.505E-03
            3462            3887     538.111E-03     519.897E-03
            3462            3888     390.109E-03     377.576E-03
            3463             494     348.100E-03     408.505E-03
            3463             495     237.771E-03     264.421E-03
            3463            3888     390.109E-03     377.576E-03
            3463            3889     253.094E-03     238.368E-03
            3464              12     189.831E-03     198.264E-03
            3464             301     191.445E-03     174.113E-03
            3464             495     237.771E-03     264.421E-03
            3464            3889     253.094E-03     238.368E-03
            3755              16         1.02938         1.12095
            3755             507     964.051E-03         1.09135
            3755             528         1.14619         1.10945
            3755            4114         1.09220         1.07413
            3756             506     862.083E-03         1.01725
            3756             507     964.051E-03         1.09135
            3756            4114         1.09220         1.07413
            3756            4115     991.375E-03     978.871E-03
            3757             505     778.659E-03     901.580E-03
            3757             506     862.083E-03         1.01725
            3757            4115     991.375E-03     978.871E-03
            3757            4116     891.873E-03     861.932E-03
            3758             504     672.367E-03     757.142E-03
            3758             505     778.659E-03     901.580E-03
            3758            4116     891.873E-03     861.932E-03
            3758            4117     768.861E-03     739.532E-03
            3759             503     545.156E-03     605.388E-03
            3759             504     672.367E-03     757.142E-03
            3759            4117     768.861E-03     739.532E-03
            3759            4118     624.644E-03     605.589E-03
            3760             502     407.167E-03     443.664E-03
            3760             503     545.156E-03     605.388E-03
            3760            4118     624.644E-03     605.589E-03
            3760            4119     478.429E-03     463.989E-03
            3761             501     278.958E-03     286.886E-03
            3761             502     407.167E-03     443.664E-03
            3761            4119     478.429E-03     463.989E-03
            3761            4120     353.356E-03     335.221E-03
            3762              19     217.942E-03     209.185E-03
            3762             501     278.958E-03     286.886E-03
            3762             576     298.306E-03     276.928E-03
            3762            4120     353.356E-03     335.221E-03
            3763             528         1.14619         1.10945
            3763             529         1.07663         1.00148
            3763            4114         1.09220         1.07413
            3763            4121         1.05915     984.558E-03
            3764            4114         1.09220         1.07413
            3764            4115     991.375E-03     978.871E-03
            3764            4121         1.05915     984.558E-03
            3764            4122         1.00581     912.762E-03
            3765            4115     991.375E-03     978.871E-03
            3765            4116     891.873E-03     861.932E-03
            3765            4122         1.00581     912.762E-03
            3765            4123     921.626E-03     820.836E-03
            3766            4116     891.873E-03     861.932E-03
            3766            4117     768.861E-03     739.532E-03
            3766            4123     921.626E-03     820.836E-03
            3766            4124     801.763E-03     730.627E-03
            3767            4117     768.861E-03     739.532E-03
            3767            4118     624.644E-03     605.589E-03
            3767            4124     801.763E-03     730.627E-03
            3767            4125     649.374E-03     608.248E-03
            3768            4118     624.644E-03     605.589E-03
            3768            4119     478.429E-03     463.989E-03
            3768            4125     649.374E-03     608.248E-03
            3768            4126     492.123E-03     468.373E-03
            3769            4119     478.429E-03     463.989E-03
            3769            4120     353.356E-03     335.221E-03
            3769            4126     492.123E-03     468.373E-03
            3769            4127     358.564E-03     347.446E-03
            3770             575     298.983E-03     295.262E-03
            3770             576     298.306E-03     276.928E-03
            3770            4120     353.356E-03     335.221E-03
            3770            4127     358.564E-03     347.446E-03
            3771             529         1.07663         1.00148
            3771             530     929.825E-03     986.995E-03
            3771            4121         1.05915     984.558E-03
            3771            4128     889.085E-03     987.753E-03
            3772            4121         1.05915     984.558E-03
            3772            4122         1.00581     912.762E-03
            3772            4128     889.085E-03     987.753E-03
            3772            4129     831.412E-03     953.223E-03
            3773            4122         1.00581     912.762E-03
            3773            4123     921.626E-03     820.836E-03
            3773            4129     831.412E-03     953.223E-03
            3773            4130     784.522E-03     871.955E-03
            3774            4123     921.626E-03     820.836E-03
            3774            4124     801.763E-03     730.627E-03
            3774            4130     784.522E-03     871.955E-03
            3774            4131     698.988E-03     768.983E-03
            3775            4124     801.763E-03     730.627E-03
            3775            4125     649.374E-03     608.248E-03
            3775            4131     698.988E-03     768.983E-03
            3775            4132     576.012E-03     635.647E-03
            3776            4125     649.374E-03     608.248E-03
            3776            4126     492.123E-03     468.373E-03
            3776            4132     576.012E-03     635.647E-03
            3776            4133     444.616E-03     483.114E-03
            3777            4126     492.123E-03     468.373E-03
            3777            4127     358.564E-03     347.446E-03
            3777            4133     444.616E-03     483.114E-03
            3777            4134     335.593E-03     351.047E-03
            3778             574     289.048E-03     293.146E-03
            3778             575     298.983E-03     295.262E-03
            3778            4127     358.564E-03     347.446E-03
            3778            4134     335.593E-03     351.047E-03
            3779             530     929.825E-03     986.995E-03
            3779             531     932.301E-03     869.725E-03
            3779            4128     889.085E-03     987.753E-03
            3779            4135     928.945E-03     874.016E-03
            3780            4128     889.085E-03     987.753E-03
            3780            4129     831.412E-03     953.223E-03
            3780            4135     928.945E-03     874.016E-03
            3780            4136     904.058E-03     845.413E-03
            3781            4129     831.412E-03     953.223E-03
            3781            4130     784.522E-03     871.955E-03
            3781            4136     904.058E-03     845.413E-03
            3781            4137     838.553E-03     777.779E-03
            3782            4130     784.522E-03     871.955E-03
            3782            4131     698.988E-03     768.983E-03
            3782            4137     838.553E-03     777.779E-03
            3782            4138     732.508E-03     688.725E-03
            3783            4131     698.988E-03     768.983E-03
            3783            4132     576.012E-03     635.647E-03
            3783            4138     732.508E-03     688.725E-03
            3783            4139     601.863E-03     571.703E-03
            3784            4132     576.012E-03     635.647E-03
            3784            4133     444.616E-03     483.114E-03
            3784            4139     601.863E-03     571.703E-03
            3784            4140     463.992E-03     444.609E-03
            3785            4133     444.616E-03     483.114E-03
            3785            4134     335.593E-03     351.047E-03
            3785            4140     463.992E-03     444.609E-03
            3785            4141     342.722E-03     333.573E-03
            3786             573     289.193E-03     285.505E-03
            3786             574     289.048E-03     293.146E-03
            3786            4134     335.593E-03     351.047E-03
            3786            4141     342.722E-03     333.573E-03
            3787             531     932.301E-03     869.725E-03
            3787             532     872.626E-03     834.111E-03
            3787            4135     928.945E-03     874.016E-03
            3787            4142     878.719E-03     853.655E-03
            3788            4135     928.945E-03     874.016E-03
            3788            4136     904.058E-03     845.413E-03
            3788            4142     878.719E-03     853.655E-03
            3788            4143     856.838E-03     838.515E-03
            3789            4136     904.058E-03     845.413E-03
            3789            4137     838.553E-03     777.779E-03
            3789            4143     856.838E-03     838.515E-03
            3789            4144     781.092E-03     754.704E-03
            3790            4137     838.553E-03     777.779E-03
            3790            4138     732.508E-03     688.725E-03
            3790            4144     781.092E-03     754.704E-03
            3790            4145     677.920E-03     649.987E-03
            3791            4138     732.508E-03     688.725E-03
            3791            4139     601.863E-03     571.703E-03
            3791            4145     677.920E-03     649.987E-03
            3791            4146     562.677E-03     540.461E-03
            3792            4139     601.863E-03     571.703E-03
            3792            4140     463.992E-03     444.609E-03
            3792            4146     562.677E-03     540.461E-03
            3792            4147     441.911E-03     432.994E-03
            3793            4140     463.992E-03     444.609E-03
            3793            4141     342.722E-03     333.573E-03
            3793            4147     441.911E-03     432.994E-03
            3793            4148     333.964E-03     340.031E-03
            3794             572     285.719E-03     299.716E-03
            3794             573     289.193E-03     285.505E-03
            3794            4141     342.722E-03     333.573E-03
            3794            4148     333.964E-03     340.031E-03
            3795              21     833.180E-03     935.841E-03
            3795             532     872.626E-03     834.111E-03
            3795             596     775.140E-03     930.493E-03
            3795            4142     878.719E-03     853.655E-03
            3796             595     689.562E-03     889.088E-03
            3796             596     775.140E-03     930.493E-03
            3796            4142     878.719E-03     853.655E-03
            3796            4143     856.838E-03     838.515E-03
            3797             594     630.722E-03     788.190E-03
            3797             595     689.562E-03     889.088E-03
            3797            4143     856.838E-03     838.515E-03
            3797            4144     781.092E-03     754.704E-03
            3798             593     557.978E-03     664.818E-03
            3798             594     630.722E-03     788.190E-03
            3798            4144     781.092E-03     754.704E-03
            3798            4145     677.920E-03     649.987E-03
            3799             592     472.264E-03     548.205E-03
            3799             593     557.978E-03     664.818E-03
            3799            4145     677.920E-03     649.987E-03
            3799            4146     562.677E-03     540.461E-03
            3800             591     384.006E-03     431.777E-03
            3800             592     472.264E-03     548.205E-03
            3800            4146     562.677E-03     540.461E-03
            3800            4147     441.911E-03     432.994E-03
            3801             590     309.976E-03     330.181E-03
            3801             591     384.006E-03     431.777E-03
            3801            4147     441.911E-03     432.994E-03
            3801            4148     333.964E-03     340.031E-03
            3802              24     279.215E-03     285.712E-03
            3802             572     285.719E-03     299.716E-03
            3802             590     309.976E-03     330.181E-03
            3802            4148     333.964E-03     340.031E-03
            3803              24     279.215E-03     285.712E-03
            3803             571     307.556E-03     326.303E-03
            3803             659     285.526E-03     267.804E-03
            3803            4149     319.437E-03     304.998E-03
            3804             570     380.197E-03     426.048E-03
            3804             571     307.556E-03     326.303E-03
            3804            4149     319.437E-03     304.998E-03
            3804            4150     405.322E-03     399.999E-03
            3805             569     467.892E-03     542.032E-03
            3805             570     380.197E-03     426.048E-03
            3805            4150     405.322E-03     399.999E-03
            3805            4151     509.979E-03     512.893E-03
            3806             568     553.530E-03     658.838E-03
            3806             569     467.892E-03     542.032E-03
            3806            4151     509.979E-03     512.893E-03
            3806            4152     616.471E-03     620.436E-03
            3807             567     626.528E-03     782.816E-03
            3807             568     553.530E-03     658.838E-03
            3807            4152     616.471E-03     620.436E-03
            3807            4153     706.722E-03     709.643E-03
            3808             566     686.237E-03     884.696E-03
            3808             567     626.528E-03     782.816E-03
            3808            4153     706.722E-03     709.643E-03
            3808            4154     772.618E-03     789.826E-03
            3809             565     772.856E-03     927.131E-03
            3809             566     686.237E-03     884.696E-03
            3809            4154     772.618E-03     789.826E-03
            3809            4155     850.047E-03     861.022E-03
            3810              23     831.243E-03     932.905E-03
            3810             565     772.856E-03     927.131E-03
            3810             597     899.151E-03     890.113E-03
            3810            4155     850.047E-03     861.022E-03
            3811             658     283.601E-03     278.948E-03
            3811             659     285.526E-03     267.804E-03
            3811            4149     319.437E-03     304.998E-03
            3811            4156     325.157E-03     311.116E-03
            3812            4149     319.437E-03     304.998E-03
            3812            4150     405.322E-03     399.999E-03
            3812            4156     325.157E-03     311.116E-03
            3812            4157     427.162E-03     394.620E-03
            3813            4150     405.322E-03     399.999E-03
            3813            4151     509.979E-03     512.893E-03
            3813            4157     427.162E-03     394.620E-03
            3813            4158     548.961E-03     497.723E-03
            3814            4151     509.979E-03     512.893E-03
            3814            4152     616.471E-03     620.436E-03
            3814            4158     548.961E-03     497.723E-03
            3814            4159     670.636E-03     595.552E-03
            3815            4152     616.471E-03     620.436E-03
            3815            4153     706.722E-03     709.643E-03
            3815            4159     670.636E-03     595.552E-03
            3815            4160     776.506E-03     665.710E-03
            3816            4153     706.722E-03     709.643E-03
            3816            4154     772.618E-03     789.826E-03
            3816            4160     776.506E-03     665.710E-03
            3816            4161     845.601E-03     727.457E-03
            3817            4154     772.618E-03     789.826E-03
            3817            4155     850.047E-03     861.022E-03
            3817            4161     845.601E-03     727.457E-03
            3817            4162     863.295E-03     762.308E-03
            3818             597     899.151E-03     890.113E-03
            3818             598     858.802E-03     760.522E-03
            3818            4155     850.047E-03     861.022E-03
            3818            4162     863.295E-03     762.308E-03
            3819             657     272.482E-03     287.047E-03
            3819             658     283.601E-03     278.948E-03
            3819            4156     325.157E-03     311.116E-03
            3819            4163     304.292E-03     317.764E-03
            3820            4156     325.157E-03     311.116E-03
            3820            4157     427.162E-03     394.620E-03
            3820            4163     304.292E-03     317.764E-03
            3820            4164     385.240E-03     396.694E-03
            3821            4157     427.162E-03     394.620E-03
            3821            4158     548.961E-03     497.723E-03
            3821            4164     385.240E-03     396.694E-03
            3821            4165     483.385E-03     492.703E-03
            3822            4158     548.961E-03     497.723E-03
            3822            4159     670.636E-03     595.552E-03
            3822            4165     483.385E-03     492.703E-03
            3822            4166     577.180E-03     586.094E-03
            3823            4159     670.636E-03     595.552E-03
            3823            4160     776.506E-03     665.710E-03
            3823            4166     577.180E-03     586.094E-03
            3823            4167     657.728E-03     671.788E-03
            3824            4160     776.506E-03     665.710E-03
            3824            4161     845.601E-03     727.457E-03
            3824            4167     657.728E-03     671.788E-03
            3824            4168     714.095E-03     740.605E-03
            3825            4161     845.601E-03     727.457E-03
            3825            4162     863.295E-03     762.308E-03
            3825            4168     714.095E-03     740.605E-03
            3825            4169     731.470E-03     747.705E-03
            3826             598     858.802E-03     760.522E-03
            3826             599     729.162E-03     726.950E-03
            3826            4162     863.295E-03     762.308E-03
            3826            4169     731.470E-03     747.705E-03
            3827             656     276.828E-03     278.576E-03
            3827             657     272.482E-03     287.047E-03
            3827            4163     304.292E-03     317.764E-03
            3827            4170     297.823E-03     309.675E-03
            3828            4163     304.292E-03     317.764E-03
            3828            4164     385.240E-03     396.694E-03
            3828            4170     297.823E-03     309.675E-03
            3828            4171     355.131E-03     389.668E-03
            3829            4164     385.240E-03     396.694E-03
            3829            4165     483.385E-03     492.703E-03
            3829            4171     355.131E-03     389.668E-03
            3829            4172     428.145E-03     488.136E-03
            3830            4165     483.385E-03     492.703E-03
            3830            4166     577.180E-03     586.094E-03
            3830            4172     428.145E-03     488.136E-03
            3830            4173     500.723E-03     592.790E-03
            3831            4166     577.180E-03     586.094E-03
            3831            4167     657.728E-03     671.788E-03
            3831            4173     500.723E-03     592.790E-03
            3831            4174     564.655E-03     704.351E-03
            3832            4167     657.728E-03     671.788E-03
            3832            4168     714.095E-03     740.605E-03
            3832            4174     564.655E-03     704.351E-03
            3832            4175     621.224E-03     792.296E-03
            3833            4168     714.095E-03     740.605E-03
            3833            4169     731.470E-03     747.705E-03
            3833            4175     621.224E-03     792.296E-03
            3833            4176     697.404E-03     827.224E-03
            3834             599     729.162E-03     726.950E-03
            3834             600     745.607E-03     831.620E-03
            3834            4169     731.470E-03     747.705E-03
            3834            4176     697.404E-03     827.224E-03
            3835             655     286.889E-03     273.768E-03
            3835             656     276.828E-03     278.576E-03
            3835            4170     297.823E-03     309.675E-03
            3835            4177     313.910E-03     301.427E-03
            3836            4170     297.823E-03     309.675E-03
            3836            4171     355.131E-03     389.668E-03
            3836            4177     313.910E-03     301.427E-03
            3836            4178     386.078E-03     372.870E-03
            3837            4171     355.131E-03     389.668E-03
            3837            4172     428.145E-03     488.136E-03
            3837            4178     386.078E-03     372.870E-03
            3837            4179     478.732E-03     461.686E-03
            3838            4172     428.145E-03     488.136E-03
            3838            4173     500.723E-03     592.790E-03
            3838            4179     478.732E-03     461.686E-03
            3838            4180     576.714E-03     557.519E-03
            3839            4173     500.723E-03     592.790E-03
            3839            4174     564.655E-03     704.351E-03
            3839            4180     576.714E-03     557.519E-03
            3839            4181     664.684E-03     651.219E-03
            3840            4174     564.655E-03     704.351E-03
            3840            4175     621.224E-03     792.296E-03
            3840            4181     664.684E-03     651.219E-03
            3840            4182     740.501E-03     737.527E-03
            3841            4175     621.224E-03     792.296E-03
            3841            4176     697.404E-03     827.224E-03
            3841            4182     740.501E-03     737.527E-03
            3841            4183     821.527E-03     809.677E-03
            3842             600     745.607E-03     831.620E-03
            3842             601     865.039E-03     839.266E-03
            3842            4176     697.404E-03     827.224E-03
            3842            4183     821.527E-03     809.677E-03
            3843             654     288.113E-03     287.261E-03
            3843             655     286.889E-03     273.768E-03
            3843            4177     313.910E-03     301.427E-03
            3843            4184     317.421E-03     313.522E-03
            3844            4177     313.910E-03     301.427E-03
            3844            4178     386.078E-03     372.870E-03
            3844            4184     317.421E-03     313.522E-03
            3844            4185     394.099E-03     379.577E-03
            3845            4178     386.078E-03     372.870E-03
            3845            4179     478.732E-03     461.686E-03
            3845            4185     394.099E-03     379.577E-03
            3845            4186     493.464E-03     459.737E-03
            3846            4179     478.732E-03     461.686E-03
            3846            4180     576.714E-03     557.519E-03
            3846            4186     493.464E-03     459.737E-03
            3846            4187     593.667E-03     538.414E-03
            3847            4180     576.714E-03     557.519E-03
            3847            4181     664.684E-03     651.219E-03
            3847            4187     593.667E-03     538.414E-03
            3847            4188     677.853E-03     609.703E-03
            3848            4181     664.684E-03     651.219E-03
            3848            4182     740.501E-03     737.527E-03
            3848            4188     677.853E-03     609.703E-03
            3848            4189     745.321E-03     686.087E-03
            3849            4182     740.501E-03     737.527E-03
            3849            4183     821.527E-03     809.677E-03
            3849            4189     745.321E-03     686.087E-03
            3849            4190     789.220E-03     742.668E-03
            3850             601     865.039E-03     839.266E-03
            3850             602     802.475E-03     756.497E-03
            3850            4183     821.527E-03     809.677E-03
            3850            4190     789.220E-03     742.668E-03
            3851             653     281.473E-03     285.891E-03
            3851             654     288.113E-03     287.261E-03
            3851            4184     317.421E-03     313.522E-03
            3851            4191     303.740E-03     313.468E-03
            3852            4184     317.421E-03     313.522E-03
            3852            4185     394.099E-03     379.577E-03
            3852            4191     303.740E-03     313.468E-03
            3852            4192     364.436E-03     382.713E-03
            3853            4185     394.099E-03     379.577E-03
            3853            4186     493.464E-03     459.737E-03
            3853            4192     364.436E-03     382.713E-03
            3853            4193     442.821E-03     464.430E-03
            3854            4186     493.464E-03     459.737E-03
            3854            4187     593.667E-03     538.414E-03
            3854            4193     442.821E-03     464.430E-03
            3854            4194     515.253E-03     539.937E-03
            3855            4187     593.667E-03     538.414E-03
            3855            4188     677.853E-03     609.703E-03
            3855            4194     515.253E-03     539.937E-03
            3855            4195     570.534E-03     612.587E-03
            3856            4188     677.853E-03     609.703E-03
            3856            4189     745.321E-03     686.087E-03
            3856            4195     570.534E-03     612.587E-03
            3856            4196     615.192E-03     681.591E-03
            3857            4189     745.321E-03     686.087E-03
            3857            4190     789.220E-03     742.668E-03
            3857            4196     615.192E-03     681.591E-03
            3857            4197     665.823E-03     718.622E-03
            3858             602     802.475E-03     756.497E-03
            3858             603     695.118E-03     724.499E-03
            3858            4190     789.220E-03     742.668E-03
            3858            4197     665.823E-03     718.622E-03
            3859             652     285.556E-03     283.795E-03
            3859             653     281.473E-03     285.891E-03
            3859            4191     303.740E-03     313.468E-03
            3859            4198     306.631E-03     306.845E-03
            3860            4191     303.740E-03     313.468E-03
            3860            4192     364.436E-03     382.713E-03
            3860            4198     306.631E-03     306.845E-03
            3860            4199     363.601E-03     364.961E-03
            3861            4192     364.436E-03     382.713E-03
            3861            4193     442.821E-03     464.430E-03
            3861            4199     363.601E-03     364.961E-03
            3861            4200     435.775E-03     431.701E-03
            3862            4193     442.821E-03     464.430E-03
            3862            4194     515.253E-03     539.937E-03
            3862            4200     435.775E-03     431.701E-03
            3862            4201     500.849E-03     491.977E-03
            3863            4194     515.253E-03     539.937E-03
            3863            4195     570.534E-03     612.587E-03
            3863            4201     500.849E-03     491.977E-03
            3863            4202     549.883E-03     547.681E-03
            3864            4195     570.534E-03     612.587E-03
            3864            4196     615.192E-03     681.591E-03
            3864            4202     549.883E-03     547.681E-03
            3864            4203     593.047E-03     602.167E-03
            3865            4196     615.192E-03     681.591E-03
            3865            4197     665.823E-03     718.622E-03
            3865            4203     593.047E-03     602.167E-03
            3865            4204     639.332E-03     639.850E-03
            3866             603     695.118E-03     724.499E-03
            3866             604     663.116E-03     650.589E-03
            3866            4197     665.823E-03     718.622E-03
            3866            4204     639.332E-03     639.850E-03
            3867             651     286.090E-03     285.702E-03
            3867             652     285.556E-03     283.795E-03
            3867            4198     306.631E-03     306.845E-03
            3867            4205     305.110E-03     305.611E-03
            3868            4198     306.631E-03     306.845E-03
            3868            4199     363.601E-03     364.961E-03
            3868            4205     305.110E-03     305.611E-03
            3868            4206     355.600E-03     356.581E-03
            3869            4199     363.601E-03     364.961E-03
            3869            4200     435.775E-03     431.701E-03
            3869            4206     355.600E-03     356.581E-03
            3869            4207     420.095E-03     417.460E-03
            3870            4200     435.775E-03     431.701E-03
            3870            4201     500.849E-03     491.977E-03
            3870            4207     420.095E-03     417.460E-03
            3870            4208     478.802E-03     471.335E-03
            3871            4201     500.849E-03     491.977E-03
            3871            4202     549.883E-03     547.681E-03
            3871            4208     478.802E-03     471.335E-03
            3871            4209     521.936E-03     519.131E-03
            3872            4202     549.883E-03     547.681E-03
            3872            4203     593.047E-03     602.167E-03
            3872            4209     521.936E-03     519.131E-03
            3872            4210     554.375E-03     567.987E-03
            3873            4203     593.047E-03     602.167E-03
            3873            4204     639.332E-03     639.850E-03
            3873            4210     554.375E-03     567.987E-03
            3873            4211     589.076E-03     602.547E-03
            3874             604     663.116E-03     650.589E-03
            3874             605     609.084E-03     612.308E-03
            3874            4204     639.332E-03     639.850E-03
            3874            4211     589.076E-03     602.547E-03
            3875             650     286.198E-03     286.419E-03
            3875             651     286.090E-03     285.702E-03
            3875            4205     305.110E-03     305.611E-03
            3875            4212     302.093E-03     302.321E-03
            3876            4205     305.110E-03     305.611E-03
            3876            4206     355.600E-03     356.581E-03
            3876            4212     302.093E-03     302.321E-03
            3876            4213     344.000E-03     345.234E-03
            3877            4206     355.600E-03     356.581E-03
            3877            4207     420.095E-03     417.460E-03
            3877            4213     344.000E-03     345.234E-03
            3877            4214     398.071E-03     400.431E-03
            3878            4207     420.095E-03     417.460E-03
            3878            4208     478.802E-03     471.335E-03
            3878            4214     398.071E-03     400.431E-03
            3878            4215     449.612E-03     450.747E-03
            3879            4208     478.802E-03     471.335E-03
            3879            4209     521.936E-03     519.131E-03
            3879            4215     449.612E-03     450.747E-03
            3879            4216     486.148E-03     490.386E-03
            3880            4209     521.936E-03     519.131E-03
            3880            4210     554.375E-03     567.987E-03
            3880            4216     486.148E-03     490.386E-03
            3880            4217     512.396E-03     526.949E-03
            3881            4210     554.375E-03     567.987E-03
            3881            4211     589.076E-03     602.547E-03
            3881            4217     512.396E-03     526.949E-03
            3881            4218     544.708E-03     552.086E-03
            3882             605     609.084E-03     612.308E-03
            3882             606     563.985E-03     558.362E-03
            3882            4211     589.076E-03     602.547E-03
            3882            4218     544.708E-03     552.086E-03
            3883             649     288.239E-03     285.956E-03
            3883             650     286.198E-03     286.419E-03
            3883            4212     302.093E-03     302.321E-03
            3883            4219     300.835E-03     299.286E-03
            3884            4212     302.093E-03     302.321E-03
            3884            4213     344.000E-03     345.234E-03
            3884            4219     300.835E-03     299.286E-03
            3884            4220     333.538E-03     335.656E-03
            3885            4213     344.000E-03     345.234E-03
            3885            4214     398.071E-03     400.431E-03
            3885            4220     333.538E-03     335.656E-03
            3885            4221     377.178E-03     386.536E-03
            3886            4214     398.071E-03     400.431E-03
            3886            4215     449.612E-03     450.747E-03
            3886            4221     377.178E-03     386.536E-03
            3886            4222     422.079E-03     438.123E-03
            3887            4215     449.612E-03     450.747E-03
            3887            4216     486.148E-03     490.386E-03
            3887            4222     422.079E-03     438.123E-03
            3887            4223     455.557E-03     477.545E-03
            3888            4216     486.148E-03     490.386E-03
            3888            4217     512.396E-03     526.949E-03
            3888            4223     455.557E-03     477.545E-03
            3888            4224     473.837E-03     505.989E-03
            3889            4217     512.396E-03     526.949E-03
            3889            4218     544.708E-03     552.086E-03
            3889            4224     473.837E-03     505.989E-03
            3889            4225     494.664E-03     517.628E-03
            3890             606     563.985E-03     558.362E-03
            3890             607     509.353E-03     516.571E-03
            3890            4218     544.708E-03     552.086E-03
            3890            4225     494.664E-03     517.628E-03
            3891             648     286.676E-03     283.817E-03
            3891             649     288.239E-03     285.956E-03
            3891            4219     300.835E-03     299.286E-03
            3891            4226     298.185E-03     293.527E-03
            3892            4219     300.835E-03     299.286E-03
            3892            4220     333.538E-03     335.656E-03
            3892            4226     298.185E-03     293.527E-03
            3892            4227     328.505E-03     320.478E-03
            3893            4220     333.538E-03     335.656E-03
            3893            4221     377.178E-03     386.536E-03
            3893            4227     328.505E-03     320.478E-03
            3893            4228     369.953E-03     360.253E-03
            3894            4221     377.178E-03     386.536E-03
            3894            4222     422.079E-03     438.123E-03
            3894            4228     369.953E-03     360.253E-03
            3894            4229     417.888E-03     406.722E-03
            3895            4222     422.079E-03     438.123E-03
            3895            4223     455.557E-03     477.545E-03
            3895            4229     417.888E-03     406.722E-03
            3895            4230     462.712E-03     446.148E-03
            3896            4223     455.557E-03     477.545E-03
            3896            4224     473.837E-03     505.989E-03
            3896            4230     462.712E-03     446.148E-03
            3896            4231     485.375E-03     469.956E-03
            3897            4224     473.837E-03     505.989E-03
            3897            4225     494.664E-03     517.628E-03
            3897            4231     485.375E-03     469.956E-03
            3897            4232     483.420E-03     465.909E-03
            3898             607     509.353E-03     516.571E-03
            3898             608     478.270E-03     453.512E-03
            3898            4225     494.664E-03     517.628E-03
            3898            4232     483.420E-03     465.909E-03
            3899             647     285.035E-03     288.673E-03
            3899             648     286.676E-03     283.817E-03
            3899            4226     298.185E-03     293.527E-03
            3899            4233     293.512E-03     294.472E-03
            3900            4226     298.185E-03     293.527E-03
            3900            4227     328.505E-03     320.478E-03
            3900            4233     293.512E-03     294.472E-03
            3900            4234     315.321E-03     310.656E-03
            3901            4227     328.505E-03     320.478E-03
            3901            4228     369.953E-03     360.253E-03
            3901            4234     315.321E-03     310.656E-03
            3901            4235     346.305E-03     337.430E-03
            3902            4228     369.953E-03     360.253E-03
            3902            4229     417.888E-03     406.722E-03
            3902            4235     346.305E-03     337.430E-03
            3902            4236     384.981E-03     377.644E-03
            3903            4229     417.888E-03     406.722E-03
            3903            4230     462.712E-03     446.148E-03
            3903            4236     384.981E-03     377.644E-03
            3903            4237     426.947E-03     424.687E-03
            3904            4230     462.712E-03     446.148E-03
            3904            4231     485.375E-03     469.956E-03
            3904            4237     426.947E-03     424.687E-03
            3904            4238     458.700E-03     456.155E-03
            3905            4231     485.375E-03     469.956E-03
            3905            4232     483.420E-03     465.909E-03
            3905            4238     458.700E-03     456.155E-03
            3905            4239     451.831E-03     434.940E-03
            3906             608     478.270E-03     453.512E-03
            3906             609     434.014E-03     405.311E-03
            3906            4232     483.420E-03     465.909E-03
            3906            4239     451.831E-03     434.940E-03
            3907             646     281.395E-03     280.798E-03
            3907             647     285.035E-03     288.673E-03
            3907            4233     293.512E-03     294.472E-03
            3907            4240     285.578E-03     288.803E-03
            3908            4233     293.512E-03     294.472E-03
            3908            4234     315.321E-03     310.656E-03
            3908            4240     285.578E-03     288.803E-03
            3908            4241     297.563E-03     311.244E-03
            3909            4234     315.321E-03     310.656E-03
            3909            4235     346.305E-03     337.430E-03
            3909            4241     297.563E-03     311.244E-03
            3909            4242     314.832E-03     346.225E-03
            3910            4235     346.305E-03     337.430E-03
            3910            4236     384.981E-03     377.644E-03
            3910            4242     314.832E-03     346.225E-03
            3910            4243     336.982E-03     394.859E-03
            3911            4236     384.981E-03     377.644E-03
            3911            4237     426.947E-03     424.687E-03
            3911            4243     336.982E-03     394.859E-03
            3911            4244     361.804E-03     456.784E-03
            3912            4237     426.947E-03     424.687E-03
            3912            4238     458.700E-03     456.155E-03
            3912            4244     361.804E-03     456.784E-03
            3912            4245     387.852E-03     505.613E-03
            3913            4238     458.700E-03     456.155E-03
            3913            4239     451.831E-03     434.940E-03
            3913            4245     387.852E-03     505.613E-03
            3913            4246     429.299E-03     516.539E-03
            3914             609     434.014E-03     405.311E-03
            3914             610     456.651E-03     512.380E-03
            3914            4239     451.831E-03     434.940E-03
            3914            4246     429.299E-03     516.539E-03
            3915             645     282.840E-03     274.314E-03
            3915             646     281.395E-03     280.798E-03
            3915            4240     285.578E-03     288.803E-03
            3915            4247     290.908E-03     282.323E-03
            3916            4240     285.578E-03     288.803E-03
            3916            4241     297.563E-03     311.244E-03
            3916            4247     290.908E-03     282.323E-03
            3916            4248     313.392E-03     304.203E-03
            3917            4241     297.563E-03     311.244E-03
            3917            4242     314.832E-03     346.225E-03
            3917            4248     313.392E-03     304.203E-03
            3917            4249     345.003E-03     334.487E-03
            3918            4242     314.832E-03     346.225E-03
            3918            4243     336.982E-03     394.859E-03
            3918            4249     345.003E-03     334.487E-03
            3918            4250     382.501E-03     371.531E-03
            3919            4243     336.982E-03     394.859E-03
            3919            4244     361.804E-03     456.784E-03
            3919            4250     382.501E-03     371.531E-03
            3919            4251     418.715E-03     411.494E-03
            3920            4244     361.804E-03     456.784E-03
            3920            4245     387.852E-03     505.613E-03
            3920            4251     418.715E-03     411.494E-03
            3920            4252     456.534E-03     455.640E-03
            3921            4245     387.852E-03     505.613E-03
            3921            4246     429.299E-03     516.539E-03
            3921            4252     456.534E-03     455.640E-03
            3921            4253     512.543E-03     507.550E-03
            3922             610     456.651E-03     512.380E-03
            3922             611     546.549E-03     534.570E-03
            3922            4246     429.299E-03     516.539E-03
            3922            4253     512.543E-03     507.550E-03
            3923             644     283.417E-03     283.209E-03
            3923             645     282.840E-03     274.314E-03
            3923            4247     290.908E-03     282.323E-03
            3923            4254     292.152E-03     289.954E-03
            3924            4247     290.908E-03     282.323E-03
            3924            4248     313.392E-03     304.203E-03
            3924            4254     292.152E-03     289.954E-03
            3924            4255     315.387E-03     306.426E-03
            3925            4248     313.392E-03     304.203E-03
            3925            4249     345.003E-03     334.487E-03
            3925            4255     315.387E-03     306.426E-03
            3925            4256     349.070E-03     327.946E-03
            3926            4249     345.003E-03     334.487E-03
            3926            4250     382.501E-03     371.531E-03
            3926            4256     349.070E-03     327.946E-03
            3926            4257     385.893E-03     351.182E-03
            3927            4250     382.501E-03     371.531E-03
            3927            4251     418.715E-03     411.494E-03
            3927            4257     385.893E-03     351.182E-03
            3927            4258     419.702E-03     376.639E-03
            3928            4251     418.715E-03     411.494E-03
            3928            4252     456.534E-03     455.640E-03
            3928            4258     419.702E-03     376.639E-03
            3928            4259     453.907E-03     414.462E-03
            3929            4252     456.534E-03     455.640E-03
            3929            4253     512.543E-03     507.550E-03
            3929            4259     453.907E-03     414.462E-03
            3929            4260     480.476E-03     449.848E-03
            3930             611     546.549E-03     534.570E-03
            3930             612     488.892E-03     461.247E-03
            3930            4253     512.543E-03     507.550E-03
            3930            4260     480.476E-03     449.848E-03
            3931             643     279.153E-03     282.074E-03
            3931             644     283.417E-03     283.209E-03
            3931            4254     292.152E-03     289.954E-03
            3931            4261     283.765E-03     288.797E-03
            3932            4254     292.152E-03     289.954E-03
            3932            4255     315.387E-03     306.426E-03
            3932            4261     283.765E-03     288.797E-03
            3932            4262     296.619E-03     305.215E-03
            3933            4255     315.387E-03     306.426E-03
            3933            4256     349.070E-03     327.946E-03
            3933            4262     296.619E-03     305.215E-03
            3933            4263     314.407E-03     325.062E-03
            3934            4256     349.070E-03     327.946E-03
            3934            4257     385.893E-03     351.182E-03
            3934            4263     314.407E-03     325.062E-03
            3934            4264     330.508E-03     345.073E-03
            3935            4257     385.893E-03     351.182E-03
            3935            4258     419.702E-03     376.639E-03
            3935            4264     330.508E-03     345.073E-03
            3935            4265     343.921E-03     371.215E-03
            3936            4258     419.702E-03     376.639E-03
            3936            4259     453.907E-03     414.462E-03
            3936            4265     343.921E-03     371.215E-03
            3936            4266     359.989E-03     401.547E-03
            3937            4259     453.907E-03     414.462E-03
            3937            4260     480.476E-03     449.848E-03
            3937            4266     359.989E-03     401.547E-03
            3937            4267     385.576E-03     419.330E-03
            3938             612     488.892E-03     461.247E-03
            3938             613     401.721E-03     422.852E-03
            3938            4260     480.476E-03     449.848E-03
            3938            4267     385.576E-03     419.330E-03
            3939             642     281.415E-03     280.450E-03
            3939             643     279.153E-03     282.074E-03
            3939            4261     283.765E-03     288.797E-03
            3939            4268     284.942E-03     284.693E-03
            3940            4261     283.765E-03     288.797E-03
            3940            4262     296.619E-03     305.215E-03
            3940            4268     284.942E-03     284.693E-03
            3940            4269     294.140E-03     293.711E-03
            3941            4262     296.619E-03     305.215E-03
            3941            4263     314.407E-03     325.062E-03
            3941            4269     294.140E-03     293.711E-03
            3941            4270     305.926E-03     302.235E-03
            3942            4263     314.407E-03     325.062E-03
            3942            4264     330.508E-03     345.073E-03
            3942            4270     305.926E-03     302.235E-03
            3942            4271     315.508E-03     309.645E-03
            3943            4264     330.508E-03     345.073E-03
            3943            4265     343.921E-03     371.215E-03
            3943            4271     315.508E-03     309.645E-03
            3943            4272     322.894E-03     320.447E-03
            3944            4265     343.921E-03     371.215E-03
            3944            4266     359.989E-03     401.547E-03
            3944            4272     322.894E-03     320.447E-03
            3944            4273     334.358E-03     336.896E-03
            3945            4266     359.989E-03     401.547E-03
            3945            4267     385.576E-03     419.330E-03
            3945            4273     334.358E-03     336.896E-03
            3945            4274     354.101E-03     352.177E-03
            3946             613     401.721E-03     422.852E-03
            3946             614     366.015E-03     357.863E-03
            3946            4267     385.576E-03     419.330E-03
            3946            4274     354.101E-03     352.177E-03
            3947             641     281.886E-03     281.475E-03
            3947             642     281.415E-03     280.450E-03
            3947            4268     284.942E-03     284.693E-03
            3947            4275     283.778E-03     283.862E-03
            3948            4268     284.942E-03     284.693E-03
            3948            4269     294.140E-03     293.711E-03
            3948            4275     283.778E-03     283.862E-03
            3948            4276     287.811E-03     288.246E-03
            3949            4269     294.140E-03     293.711E-03
            3949            4270     305.926E-03     302.235E-03
            3949            4276     287.811E-03     288.246E-03
            3949            4277     292.644E-03     291.570E-03
            3950            4270     305.926E-03     302.235E-03
            3950            4271     315.508E-03     309.645E-03
            3950            4277     292.644E-03     291.570E-03
            3950            4278     295.067E-03     291.738E-03
            3951            4271     315.508E-03     309.645E-03
            3951            4272     322.894E-03     320.447E-03
            3951            4278     295.067E-03     291.738E-03
            3951            4279     294.288E-03     292.842E-03
            3952            4272     322.894E-03     320.447E-03
            3952            4273     334.358E-03     336.896E-03
            3952            4279     294.288E-03     292.842E-03
            3952            4280     295.089E-03     301.222E-03
            3953            4273     334.358E-03     336.896E-03
            3953            4274     354.101E-03     352.177E-03
            3953            4280     295.089E-03     301.222E-03
            3953            4281     306.010E-03     312.902E-03
            3954             614     366.015E-03     357.863E-03
            3954             615     315.281E-03     318.124E-03
            3954            4274     354.101E-03     352.177E-03
            3954            4281     306.010E-03     312.902E-03
            3955             640     282.257E-03     281.257E-03
            3955             641     281.886E-03     281.475E-03
            3955            4275     283.778E-03     283.862E-03
            3955            4282     282.233E-03     281.614E-03
            3956            4275     283.778E-03     283.862E-03
            3956            4276     287.811E-03     288.246E-03
            3956            4282     282.233E-03     281.614E-03
            3956            4283     280.595E-03     281.692E-03
            3957            4276     287.811E-03     288.246E-03
            3957            4277     292.644E-03     291.570E-03
            3957            4283     280.595E-03     281.692E-03
            3957            4284     277.556E-03     280.384E-03
            3958            4277     292.644E-03     291.570E-03
            3958            4278     295.067E-03     291.738E-03
            3958            4284     277.556E-03     280.384E-03
            3958            4285     272.339E-03     274.510E-03
            3959            4278     295.067E-03     291.738E-03
            3959            4279     294.288E-03     292.842E-03
            3959            4285     272.339E-03     274.510E-03
            3959            4286     262.374E-03     266.441E-03
            3960            4279     294.288E-03     292.842E-03
            3960            4280     295.089E-03     301.222E-03
            3960            4286     262.374E-03     266.441E-03
            3960            4287     253.552E-03     264.269E-03
            3961            4280     295.089E-03     301.222E-03
            3961            4281     306.010E-03     312.902E-03
            3961            4287     253.552E-03     264.269E-03
            3961            4288     261.362E-03     267.813E-03
            3962             615     315.281E-03     318.124E-03
            3962             616     271.435E-03     269.925E-03
            3962            4281     306.010E-03     312.902E-03
            3962            4288     261.362E-03     267.813E-03
            3963             639     282.833E-03     281.083E-03
            3963             640     282.257E-03     281.257E-03
            3963            4282     282.233E-03     281.614E-03
            3963            4289     281.476E-03     279.692E-03
            3964            4282     282.233E-03     281.614E-03
            3964            4283     280.595E-03     281.692E-03
            3964            4289     281.476E-03     279.692E-03
            3964            4290     275.591E-03     274.679E-03
            3965            4283     280.595E-03     281.692E-03
            3965            4284     277.556E-03     280.384E-03
            3965            4290     275.591E-03     274.679E-03
            3965            4291     266.300E-03     267.700E-03
            3966            4284     277.556E-03     280.384E-03
            3966            4285     272.339E-03     274.510E-03
            3966            4291     266.300E-03     267.700E-03
            3966            4292     254.527E-03     256.457E-03
            3967            4285     272.339E-03     274.510E-03
            3967            4286     262.374E-03     266.441E-03
            3967            4292     254.527E-03     256.457E-03
            3967            4293     239.195E-03     239.091E-03
            3968            4286     262.374E-03     266.441E-03
            3968            4287     253.552E-03     264.269E-03
            3968            4293     239.195E-03     239.091E-03
            3968            4294     223.152E-03     225.651E-03
            3969            4287     253.552E-03     264.269E-03
            3969            4288     261.362E-03     267.813E-03
            3969            4294     223.152E-03     225.651E-03
            3969            4295     219.954E-03     223.088E-03
            3970             616     271.435E-03     269.925E-03
            3970             617     224.058E-03     224.076E-03
            3970            4288     261.362E-03     267.813E-03
            3970            4295     219.954E-03     223.088E-03
            3971             638     283.189E-03     281.349E-03
            3971             639     282.833E-03     281.083E-03
            3971            4289     281.476E-03     279.692E-03
            3971            4296     280.481E-03     278.480E-03
            3972            4289     281.476E-03     279.692E-03
            3972            4290     275.591E-03     274.679E-03
            3972            4296     280.481E-03     278.480E-03
            3972            4297     270.876E-03     269.449E-03
            3973            4290     275.591E-03     274.679E-03
            3973            4291     266.300E-03     267.700E-03
            3973            4297     270.876E-03     269.449E-03
            3973            4298     255.016E-03     256.883E-03
            3974            4291     266.300E-03     267.700E-03
            3974            4292     254.527E-03     256.457E-03
            3974            4298     255.016E-03     256.883E-03
            3974            4299     236.207E-03     242.199E-03
            3975            4292     254.527E-03     256.457E-03
            3975            4293     239.195E-03     239.091E-03
            3975            4299     236.207E-03     242.199E-03
            3975            4300     215.032E-03     221.504E-03
            3976            4293     239.195E-03     239.091E-03
            3976            4294     223.152E-03     225.651E-03
            3976            4300     215.032E-03     221.504E-03
            3976            4301     190.925E-03     197.056E-03
            3977            4294     223.152E-03     225.651E-03
            3977            4295     219.954E-03     223.088E-03
            3977            4301     190.925E-03     197.056E-03
            3977            4302     177.891E-03     179.689E-03
            3978             617     224.058E-03     224.076E-03
            3978             618     177.200E-03     173.917E-03
            3978            4295     219.954E-03     223.088E-03
            3978            4302     177.891E-03     179.689E-03
            3979             637     283.229E-03     280.624E-03
            3979             638     283.189E-03     281.349E-03
            3979            4296     280.481E-03     278.480E-03
            3979            4303     279.687E-03     276.812E-03
            3980            4296     280.481E-03     278.480E-03
            3980            4297     270.876E-03     269.449E-03
            3980            4303     279.687E-03     276.812E-03
            3980            4304     266.915E-03     264.390E-03
            3981            4297     270.876E-03     269.449E-03
            3981            4298     255.016E-03     256.883E-03
            3981            4304     266.915E-03     264.390E-03
            3981            4305     246.106E-03     246.518E-03
            3982            4298     255.016E-03     256.883E-03
            3982            4299     236.207E-03     242.199E-03
            3982            4305     246.106E-03     246.518E-03
            3982            4306     220.765E-03     226.989E-03
            3983            4299     236.207E-03     242.199E-03
            3983            4300     215.032E-03     221.504E-03
            3983            4306     220.765E-03     226.989E-03
            3983            4307     196.865E-03     205.477E-03
            3984            4300     215.032E-03     221.504E-03
            3984            4301     190.925E-03     197.056E-03
            3984            4307     196.865E-03     205.477E-03
            3984            4308     171.163E-03     175.976E-03
            3985            4301     190.925E-03     197.056E-03
            3985            4302     177.891E-03     179.689E-03
            3985            4308     171.163E-03     175.976E-03
            3985            4309     140.545E-03     139.916E-03
            3986             618     177.200E-03     173.917E-03
            3986             619     125.029E-03     121.674E-03
            3986            4302     177.891E-03     179.689E-03
            3986            4309     140.545E-03     139.916E-03
            3987             636     282.242E-03     280.788E-03
            3987             637     283.229E-03     280.624E-03
            3987            4303     279.687E-03     276.812E-03
            3987            4310     277.928E-03     275.956E-03
            3988            4303     279.687E-03     276.812E-03
            3988            4304     266.915E-03     264.390E-03
            3988            4310     277.928E-03     275.956E-03
            3988            4311     263.306E-03     260.542E-03
            3989            4304     266.915E-03     264.390E-03
            3989            4305     246.106E-03     246.518E-03
            3989            4311     263.306E-03     260.542E-03
            3989            4312     239.268E-03     237.139E-03
            3990            4305     246.106E-03     246.518E-03
            3990            4306     220.765E-03     226.989E-03
            3990            4312     239.268E-03     237.139E-03
            3990            4313     209.823E-03     211.113E-03
            3991            4306     220.765E-03     226.989E-03
            3991            4307     196.865E-03     205.477E-03
            3991            4313     209.823E-03     211.113E-03
            3991            4314     181.798E-03     187.128E-03
            3992            4307     196.865E-03     205.477E-03
            3992            4308     171.163E-03     175.976E-03
            3992            4314     181.798E-03     187.128E-03
            3992            4315     158.435E-03     160.269E-03
            3993            4308     171.163E-03     175.976E-03
            3993            4309     140.545E-03     139.916E-03
            3993            4315     158.435E-03     160.269E-03
            3993            4316     115.711E-03     108.081E-03
            3994             619     125.029E-03     121.674E-03
            3994             620     83.5917E-03     71.5518E-03
            3994            4309     140.545E-03     139.916E-03
            3994            4316     115.711E-03     108.081E-03
            3995             635     274.140E-03     272.441E-03
            3995             636     282.242E-03     280.788E-03
            3995            4310     277.928E-03     275.956E-03
            3995            4317     269.539E-03     268.129E-03
            3996            4310     277.928E-03     275.956E-03
            3996            4311     263.306E-03     260.542E-03
            3996            4317     269.539E-03     268.129E-03
            3996            4318     255.313E-03     254.593E-03
            3997            4311     263.306E-03     260.542E-03
            3997            4312     239.268E-03     237.139E-03
            3997            4318     255.313E-03     254.593E-03
            3997            4319     231.108E-03     232.624E-03
            3998            4312     239.268E-03     237.139E-03
            3998            4313     209.823E-03     211.113E-03
            3998            4319     231.108E-03     232.624E-03
            3998            4320     201.241E-03     207.007E-03
            3999            4313     209.823E-03     211.113E-03
            3999            4314     181.798E-03     187.128E-03
            3999            4320     201.241E-03     207.007E-03
            3999            4321     166.496E-03     180.815E-03
            4000            4314     181.798E-03     187.128E-03
            4000            4315     158.435E-03     160.269E-03
            4000            4321     166.496E-03     180.815E-03
            4000            4322     133.649E-03     158.038E-03
            4001            4315     158.435E-03     160.269E-03
            4001            4316     115.711E-03     108.081E-03
            4001            4322     133.649E-03     158.038E-03
            4001            4323     117.313E-03     139.518E-03
            4002             620     83.5917E-03     71.5518E-03
            4002             621     113.955E-03     130.035E-03
            4002            4316     115.711E-03     108.081E-03
            4002            4323     117.313E-03     139.518E-03
            4003             634     269.461E-03     266.060E-03
            4003             635     274.140E-03     272.441E-03
            4003            4317     269.539E-03     268.129E-03
            4003            4324     265.515E-03     262.313E-03
            4004            4317     269.539E-03     268.129E-03
            4004            4318     255.313E-03     254.593E-03
            4004            4324     265.515E-03     262.313E-03
            4004            4325     252.672E-03     250.142E-03
            4005            4318     255.313E-03     254.593E-03
            4005            4319     231.108E-03     232.624E-03
            4005            4325     252.672E-03     250.142E-03
            4005            4326     231.008E-03     229.833E-03
            4006            4319     231.108E-03     232.624E-03
            4006            4320     201.241E-03     207.007E-03
            4006            4326     231.008E-03     229.833E-03
            4006            4327     203.602E-03     203.064E-03
            4007            4320     201.241E-03     207.007E-03
            4007            4321     166.496E-03     180.815E-03
            4007            4327     203.602E-03     203.064E-03
            4007            4328     169.649E-03     170.339E-03
            4008            4321     166.496E-03     180.815E-03
            4008            4322     133.649E-03     158.038E-03
            4008            4328     169.649E-03     170.339E-03
            4008            4329     134.628E-03     136.371E-03
            4009            4322     133.649E-03     158.038E-03
            4009            4323     117.313E-03     139.518E-03
            4009            4329     134.628E-03     136.371E-03
            4009            4330     134.319E-03     135.710E-03
            4010             621     113.955E-03     130.035E-03
            4010             622     149.297E-03     150.758E-03
            4010            4323     117.313E-03     139.518E-03
            4010            4330     134.319E-03     135.710E-03
            4011             633     270.758E-03     268.886E-03
            4011             634     269.461E-03     266.060E-03
            4011            4324     265.515E-03     262.313E-03
            4011            4331     266.973E-03     264.829E-03
            4012            4324     265.515E-03     262.313E-03
            4012            4325     252.672E-03     250.142E-03
            4012            4331     266.973E-03     264.829E-03
            4012            4332     253.342E-03     250.919E-03
            4013            4325     252.672E-03     250.142E-03
            4013            4326     231.008E-03     229.833E-03
            4013            4332     253.342E-03     250.919E-03
            4013            4333     231.511E-03     228.435E-03
            4014            4326     231.008E-03     229.833E-03
            4014            4327     203.602E-03     203.064E-03
            4014            4333     231.511E-03     228.435E-03
            4014            4334     201.875E-03     197.449E-03
            4015            4327     203.602E-03     203.064E-03
            4015            4328     169.649E-03     170.339E-03
            4015            4334     201.875E-03     197.449E-03
            4015            4335     166.072E-03     161.928E-03
            4016            4328     169.649E-03     170.339E-03
            4016            4329     134.628E-03     136.371E-03
            4016            4335     166.072E-03     161.928E-03
            4016            4336     127.104E-03     117.565E-03
            4017            4329     134.628E-03     136.371E-03
            4017            4330     134.319E-03     135.710E-03
            4017            4336     127.104E-03     117.565E-03
            4017            4337     96.2209E-03     83.1750E-03
            4018             622     149.297E-03     150.758E-03
            4018             623     85.7346E-03     75.5742E-03
            4018            4330     134.319E-03     135.710E-03
            4018            4337     96.2209E-03     83.1750E-03
            4019             632     268.446E-03     267.561E-03
            4019             633     270.758E-03     268.886E-03
            4019            4331     266.973E-03     264.829E-03
            4019            4338     264.005E-03     263.251E-03
            4020            4331     266.973E-03     264.829E-03
            4020            4332     253.342E-03     250.919E-03
            4020            4338     264.005E-03     263.251E-03
            4020            4339     249.902E-03     249.312E-03
            4021            4332     253.342E-03     250.919E-03
            4021            4333     231.511E-03     228.435E-03
            4021            4339     249.902E-03     249.312E-03
            4021            4340     226.018E-03     225.834E-03
            4022            4333     231.511E-03     228.435E-03
            4022            4334     201.875E-03     197.449E-03
            4022            4340     226.018E-03     225.834E-03
            4022            4341     193.472E-03     194.408E-03
            4023            4334     201.875E-03     197.449E-03
            4023            4335     166.072E-03     161.928E-03
            4023            4341     193.472E-03     194.408E-03
            4023            4342     152.535E-03     156.928E-03
            4024            4335     166.072E-03     161.928E-03
            4024            4336     127.104E-03     117.565E-03
            4024            4342     152.535E-03     156.928E-03
            4024            4343     103.661E-03     111.329E-03
            4025            4336     127.104E-03     117.565E-03
            4025            4337     96.2209E-03     83.1750E-03
            4025            4343     103.661E-03     111.329E-03
            4025            4344     56.0235E-03     79.2865E-03
            4026             623     85.7346E-03     75.5742E-03
            4026             624     34.2559E-03     72.5586E-03
            4026            4337     96.2209E-03     83.1750E-03
            4026            4344     56.0235E-03     79.2865E-03
            4027              27     133.830E-03     133.222E-03
            4027             631     131.471E-03     130.879E-03
            4027             632     268.446E-03     267.561E-03
            4027            4338     264.005E-03     263.251E-03
            4028             630     124.648E-03     123.795E-03
            4028             631     131.471E-03     130.879E-03
            4028            4338     264.005E-03     263.251E-03
            4028            4339     249.902E-03     249.312E-03
            4029             629     112.404E-03     111.315E-03
            4029             630     124.648E-03     123.795E-03
            4029            4339     249.902E-03     249.312E-03
            4029            4340     226.018E-03     225.834E-03
            4030             628     96.4486E-03     95.1941E-03
            4030             629     112.404E-03     111.315E-03
            4030            4340     226.018E-03     225.834E-03
            4030            4341     193.472E-03     194.408E-03
            4031             627     75.7516E-03     73.8622E-03
            4031             628     96.4486E-03     95.1941E-03
            4031            4341     193.472E-03     194.408E-03
            4031            4342     152.535E-03     156.928E-03
            4032             626     52.3066E-03     49.3711E-03
            4032             627     75.7516E-03     73.8622E-03
            4032            4342     152.535E-03     156.928E-03
            4032            4343     103.661E-03     111.329E-03
            4033             625     30.6262E-03     39.6212E-03
            4033             626     52.3066E-03     49.3711E-03
            4033            4343     103.661E-03     111.329E-03
            4033            4344     56.0235E-03     79.2865E-03
            4034              26     19.6792E-03     41.2394E-03
            4034             624     34.2559E-03     72.5586E-03
            4034             625     30.6262E-03     39.6212E-03
            4034            4344     56.0235E-03     79.2865E-03
            4994              12     189.831E-03     198.264E-03
            4994             300     240.555E-03     269.505E-03
            4994             496     202.217E-03     213.194E-03
            4994            5152     270.203E-03     274.617E-03
            4995             299     351.852E-03     415.188E-03
            4995             300     240.555E-03     269.505E-03
            4995            5152     270.203E-03     274.617E-03
            4995            5153     414.746E-03     405.839E-03
            4996             298     473.372E-03     563.886E-03
            4996             299     351.852E-03     415.188E-03
            4996            5153     414.746E-03     405.839E-03
            4996            5154     564.739E-03     544.105E-03
            4997             297     583.267E-03     706.488E-03
            4997             298     473.372E-03     563.886E-03
            4997            5154     564.739E-03     544.105E-03
            4997            5155     700.030E-03     671.834E-03
            4998             296     675.790E-03     857.134E-03
            4998             297     583.267E-03     706.488E-03
            4998            5155     700.030E-03     671.834E-03
            4998            5156     815.193E-03     786.930E-03
            4999             295     753.055E-03     981.459E-03
            4999             296     675.790E-03     857.134E-03
            4999            5156     815.193E-03     786.930E-03
            4999            5157     905.872E-03     878.523E-03
            5000             294     853.936E-03         1.03152
            5000             295     753.055E-03     981.459E-03
            5000            5157     905.872E-03     878.523E-03
            5000            5158     956.602E-03     914.378E-03
            5001              11     920.172E-03         1.03777
            5001             294     853.936E-03         1.03152
            5001             527     968.214E-03     912.317E-03
            5001            5158     956.602E-03     914.378E-03
            5002             496     202.217E-03     213.194E-03
            5002             497     201.086E-03     204.059E-03
            5002            5152     270.203E-03     274.617E-03
            5002            5159     273.115E-03     273.773E-03
            5003            5152     270.203E-03     274.617E-03
            5003            5153     414.746E-03     405.839E-03
            5003            5159     273.115E-03     273.773E-03
            5003            5160     427.147E-03     426.583E-03
            5004            5153     414.746E-03     405.839E-03
            5004            5154     564.739E-03     544.105E-03
            5004            5160     427.147E-03     426.583E-03
            5004            5161     590.700E-03     589.365E-03
            5005            5154     564.739E-03     544.105E-03
            5005            5155     700.030E-03     671.834E-03
            5005            5161     590.700E-03     589.365E-03
            5005            5162     742.275E-03     731.975E-03
            5006            5155     700.030E-03     671.834E-03
            5006            5156     815.193E-03     786.930E-03
            5006            5162     742.275E-03     731.975E-03
            5006            5163     861.437E-03     839.247E-03
            5007            5156     815.193E-03     786.930E-03
            5007            5157     905.872E-03     878.523E-03
            5007            5163     861.437E-03     839.247E-03
            5007            5164     929.859E-03     923.286E-03
            5008            5157     905.872E-03     878.523E-03
            5008            5158     956.602E-03     914.378E-03
            5008            5164     929.859E-03     923.286E-03
            5008            5165     961.947E-03     959.389E-03
            5009             526     973.732E-03     955.667E-03
            5009             527     968.214E-03     912.317E-03
            5009            5158     956.602E-03     914.378E-03
            5009            5165     961.947E-03     959.389E-03
            5010             497     201.086E-03     204.059E-03
            5010             498     215.822E-03     210.558E-03
            5010            5159     273.115E-03     273.773E-03
            5010            5166     284.655E-03     278.919E-03
            5011            5159     273.115E-03     273.773E-03
            5011            5160     427.147E-03     426.583E-03
            5011            5166     284.655E-03     278.919E-03
            5011            5167     438.350E-03     430.980E-03
            5012            5160     427.147E-03     426.583E-03
            5012            5161     590.700E-03     589.365E-03
            5012            5167     438.350E-03     430.980E-03
            5012            5168     606.089E-03     595.825E-03
            5013            5161     590.700E-03     589.365E-03
            5013            5162     742.275E-03     731.975E-03
            5013            5168     606.089E-03     595.825E-03
            5013            5169     766.017E-03     739.343E-03
            5014            5162     742.275E-03     731.975E-03
            5014            5163     861.437E-03     839.247E-03
            5014            5169     766.017E-03     739.343E-03
            5014            5170     890.889E-03     841.896E-03
            5015            5163     861.437E-03     839.247E-03
            5015            5164     929.859E-03     923.286E-03
            5015            5170     890.889E-03     841.896E-03
            5015            5171     965.070E-03     929.737E-03
            5016            5164     929.859E-03     923.286E-03
            5016            5165     961.947E-03     959.389E-03
            5016            5171     965.070E-03     929.737E-03
            5016            5172         1.00697     981.402E-03
            5017             525         1.02385     985.799E-03
            5017             526     973.732E-03     955.667E-03
            5017            5165     961.947E-03     959.389E-03
            5017            5172         1.00697     981.402E-03
            5018             498     215.822E-03     210.558E-03
            5018             499     211.607E-03     194.476E-03
            5018            5166     284.655E-03     278.919E-03
            5018            5173     276.139E-03     259.312E-03
            5019            5166     284.655E-03     278.919E-03
            5019            5167     438.350E-03     430.980E-03
            5019            5173     276.139E-03     259.312E-03
            5019            5174     424.558E-03     408.084E-03
            5020            5167     438.350E-03     430.980E-03
            5020            5168     606.089E-03     595.825E-03
            5020            5174     424.558E-03     408.084E-03
            5020            5175     584.446E-03     563.978E-03
            5021            5168     606.089E-03     595.825E-03
            5021            5169     766.017E-03     739.343E-03
            5021            5175     584.446E-03     563.978E-03
            5021            5176     735.002E-03     704.551E-03
            5022            5169     766.017E-03     739.343E-03
            5022            5170     890.889E-03     841.896E-03
            5022            5176     735.002E-03     704.551E-03
            5022            5177     860.264E-03     824.126E-03
            5023            5170     890.889E-03     841.896E-03
            5023            5171     965.070E-03     929.737E-03
            5023            5177     860.264E-03     824.126E-03
            5023            5178     955.520E-03     929.104E-03
            5024            5171     965.070E-03     929.737E-03
            5024            5172         1.00697     981.402E-03
            5024            5178     955.520E-03     929.104E-03
            5024            5179         1.03868         1.00848
            5025             524         1.07914         1.03650
            5025             525         1.02385     985.799E-03
            5025            5172         1.00697     981.402E-03
            5025            5179         1.03868         1.00848
            5026             499     211.607E-03     194.476E-03
            5026             500     173.161E-03     168.029E-03
            5026            5173     276.139E-03     259.312E-03
            5026            5180     234.707E-03     241.669E-03
            5027            5173     276.139E-03     259.312E-03
            5027            5174     424.558E-03     408.084E-03
            5027            5180     234.707E-03     241.669E-03
            5027            5181     374.378E-03     407.448E-03
            5028            5174     424.558E-03     408.084E-03
            5028            5175     584.446E-03     563.978E-03
            5028            5181     374.378E-03     407.448E-03
            5028            5182     521.141E-03     574.682E-03
            5029            5175     584.446E-03     563.978E-03
            5029            5176     735.002E-03     704.551E-03
            5029            5182     521.141E-03     574.682E-03
            5029            5183     653.836E-03     726.560E-03
            5030            5176     735.002E-03     704.551E-03
            5030            5177     860.264E-03     824.126E-03
            5030            5183     653.836E-03     726.560E-03
            5030            5184     763.257E-03     867.427E-03
            5031            5177     860.264E-03     824.126E-03
            5031            5178     955.520E-03     929.104E-03
            5031            5184     763.257E-03     867.427E-03
            5031            5185     845.121E-03     981.099E-03
            5032            5178     955.520E-03     929.104E-03
            5032            5179         1.03868         1.00848
            5032            5185     845.121E-03     981.099E-03
            5032            5186     933.147E-03         1.05015
            5033             523     987.345E-03         1.07459
            5033             524         1.07914         1.03650
            5033            5179         1.03868         1.00848
            5033            5186     933.147E-03         1.05015
            5034              19     217.942E-03     209.185E-03
            5034             500     173.161E-03     168.029E-03
            5034             553     270.733E-03     275.940E-03
            5034            5180     234.707E-03     241.669E-03
            5035             553     270.733E-03     275.940E-03
            5035             554     396.611E-03     429.873E-03
            5035            5180     234.707E-03     241.669E-03
            5035            5181     374.378E-03     407.448E-03
            5036             554     396.611E-03     429.873E-03
            5036             555     534.526E-03     591.752E-03
            5036            5181     374.378E-03     407.448E-03
            5036            5182     521.141E-03     574.682E-03
            5037             555     534.526E-03     591.752E-03
            5037             556     662.479E-03     744.472E-03
            5037            5182     521.141E-03     574.682E-03
            5037            5183     653.836E-03     726.560E-03
            5038             556     662.479E-03     744.472E-03
            5038             557     769.653E-03     890.155E-03
            5038            5183     653.836E-03     726.560E-03
            5038            5184     763.257E-03     867.427E-03
            5039             557     769.653E-03     890.155E-03
            5039             558     853.545E-03         1.00737
            5039            5184     763.257E-03     867.427E-03
            5039            5185     845.121E-03     981.099E-03
            5040             558     853.545E-03         1.00737
            5040             559     955.868E-03         1.08310
            5040            5185     845.121E-03     981.099E-03
            5040            5186     933.147E-03         1.05015
            5041              20         1.02144         1.11344
            5041             523     987.345E-03         1.07459
            5041             559     955.868E-03         1.08310
            5041            5186     933.147E-03         1.05015
            5077              21     833.180E-03     935.841E-03
            5077             596     775.140E-03     930.493E-03
            5077             664     903.652E-03     894.003E-03
            5077            5211     854.547E-03     865.163E-03
            5078             595     689.562E-03     889.088E-03
            5078             596     775.140E-03     930.493E-03
            5078            5211     854.547E-03     865.163E-03
            5078            5212     777.210E-03     794.651E-03
            5079             594     630.722E-03     788.190E-03
            5079             595     689.562E-03     889.088E-03
            5079            5212     777.210E-03     794.651E-03
            5079            5213     711.763E-03     715.220E-03
            5080             593     557.978E-03     664.818E-03
            5080             594     630.722E-03     788.190E-03
            5080            5213     711.763E-03     715.220E-03
            5080            5214     622.219E-03     626.635E-03
            5081             592     472.264E-03     548.205E-03
            5081             593     557.978E-03     664.818E-03
            5081            5214     622.219E-03     626.635E-03
            5081            5215     516.095E-03     519.480E-03
            5082             591     384.006E-03     431.777E-03
            5082             592     472.264E-03     548.205E-03
            5082            5215     516.095E-03     519.480E-03
            5082            5216     410.965E-03     406.231E-03
            5083             590     309.976E-03     330.181E-03
            5083             591     384.006E-03     431.777E-03
            5083            5216     410.965E-03     406.231E-03
            5083            5217     323.142E-03     309.221E-03
            5084              24     279.215E-03     285.712E-03
            5084             590     309.976E-03     330.181E-03
            5084             659     285.526E-03     267.804E-03
            5084            5217     323.142E-03     309.221E-03
            5085             664     903.652E-03     894.003E-03
            5085             665     862.182E-03     763.812E-03
            5085            5211     854.547E-03     865.163E-03
            5085            5218     867.142E-03     765.829E-03
            5086            5211     854.547E-03     865.163E-03
            5086            5212     777.210E-03     794.651E-03
            5086            5218     867.142E-03     765.829E-03
            5086            5219     850.418E-03     731.500E-03
            5087            5212     777.210E-03     794.651E-03
            5087            5213     711.763E-03     715.220E-03
            5087            5219     850.418E-03     731.500E-03
            5087            5220     782.298E-03     670.431E-03
            5088            5213     711.763E-03     715.220E-03
            5088            5214     622.219E-03     626.635E-03
            5088            5220     782.298E-03     670.431E-03
            5088            5221     677.193E-03     600.882E-03
            5089            5214     622.219E-03     626.635E-03
            5089            5215     516.095E-03     519.480E-03
            5089            5221     677.193E-03     600.882E-03
            5089            5222     555.866E-03     503.279E-03
            5090            5215     516.095E-03     519.480E-03
            5090            5216     410.965E-03     406.231E-03
            5090            5222     555.866E-03     503.279E-03
            5090            5223     433.663E-03     399.713E-03
            5091            5216     410.965E-03     406.231E-03
            5091            5217     323.142E-03     309.221E-03
            5091            5223     433.663E-03     399.713E-03
            5091            5224     329.540E-03     314.444E-03
            5092             658     283.601E-03     278.948E-03
            5092             659     285.526E-03     267.804E-03
            5092            5217     323.142E-03     309.221E-03
            5092            5224     329.540E-03     314.444E-03
            5093             665     862.182E-03     763.812E-03
            5093             666     730.626E-03     729.198E-03
            5093            5218     867.142E-03     765.829E-03
            5093            5225     733.569E-03     750.341E-03
            5094            5218     867.142E-03     765.829E-03
            5094            5219     850.418E-03     731.500E-03
            5094            5225     733.569E-03     750.341E-03
            5094            5226     717.577E-03     744.049E-03
            5095            5219     850.418E-03     731.500E-03
            5095            5220     782.298E-03     670.431E-03
            5095            5226     717.577E-03     744.049E-03
            5095            5227     662.254E-03     676.046E-03
            5096            5220     782.298E-03     670.431E-03
            5096            5221     677.193E-03     600.882E-03
            5096            5227     662.254E-03     676.046E-03
            5096            5228     582.112E-03     590.929E-03
            5097            5221     677.193E-03     600.882E-03
            5097            5222     555.866E-03     503.279E-03
            5097            5228     582.112E-03     590.929E-03
            5097            5229     488.391E-03     497.668E-03
            5098            5222     555.866E-03     503.279E-03
            5098            5223     433.663E-03     399.713E-03
            5098            5229     488.391E-03     497.668E-03
            5098            5230     389.842E-03     401.177E-03
            5099            5223     433.663E-03     399.713E-03
            5099            5224     329.540E-03     314.444E-03
            5099            5230     389.842E-03     401.177E-03
            5099            5231     307.333E-03     320.657E-03
            5100             657     272.482E-03     287.047E-03
            5100             658     283.601E-03     278.948E-03
            5100            5224     329.540E-03     314.444E-03
            5100            5231     307.333E-03     320.657E-03
            5101             666     730.626E-03     729.198E-03
            5101             667     747.489E-03     833.645E-03
            5101            5225     733.569E-03     750.341E-03
            5101            5232     699.507E-03     829.625E-03
            5102            5225     733.569E-03     750.341E-03
            5102            5226     717.577E-03     744.049E-03
            5102            5232     699.507E-03     829.625E-03
            5102            5233     623.927E-03     795.654E-03
            5103            5226     717.577E-03     744.049E-03
            5103            5227     662.254E-03     676.046E-03
            5103            5233     623.927E-03     795.654E-03
            5103            5234     567.816E-03     708.667E-03
            5104            5227     662.254E-03     676.046E-03
            5104            5228     582.112E-03     590.929E-03
            5104            5234     567.816E-03     708.667E-03
            5104            5235     504.058E-03     597.727E-03
            5105            5228     582.112E-03     590.929E-03
            5105            5229     488.391E-03     497.668E-03
            5105            5235     504.058E-03     597.727E-03
            5105            5236     431.502E-03     493.291E-03
            5106            5229     488.391E-03     497.668E-03
            5106            5230     389.842E-03     401.177E-03
            5106            5236     431.502E-03     493.291E-03
            5106            5237     358.101E-03     394.389E-03
            5107            5230     389.842E-03     401.177E-03
            5107            5231     307.333E-03     320.657E-03
            5107            5237     358.101E-03     394.389E-03
            5107            5238     299.687E-03     312.762E-03
            5108             656     276.828E-03     278.576E-03
            5108             657     272.482E-03     287.047E-03
            5108            5231     307.333E-03     320.657E-03
            5108            5238     299.687E-03     312.762E-03
            5109             667     747.489E-03     833.645E-03
            5109             668     868.001E-03     841.743E-03
            5109            5232     699.507E-03     829.625E-03
            5109            5239     824.625E-03     812.328E-03
            5110            5232     699.507E-03     829.625E-03
            5110            5233     623.927E-03     795.654E-03
            5110            5239     824.625E-03     812.328E-03
            5110            5240     743.853E-03     740.774E-03
            5111            5233     623.927E-03     795.654E-03
            5111            5234     567.816E-03     708.667E-03
            5111            5240     743.853E-03     740.774E-03
            5111            5241     668.333E-03     655.177E-03
            5112            5234     567.816E-03     708.667E-03
            5112            5235     504.058E-03     597.727E-03
            5112            5241     668.333E-03     655.177E-03
            5112            5242     580.789E-03     561.946E-03
            5113            5235     504.058E-03     597.727E-03
            5113            5236     431.502E-03     493.291E-03
            5113            5242     580.789E-03     561.946E-03
            5113            5243     483.120E-03     466.290E-03
            5114            5236     431.502E-03     493.291E-03
            5114            5237     358.101E-03     394.389E-03
            5114            5243     483.120E-03     466.290E-03
            5114            5244     390.178E-03     377.103E-03
            5115            5237     358.101E-03     394.389E-03
            5115            5238     299.687E-03     312.762E-03
            5115            5244     390.178E-03     377.103E-03
            5115            5245     316.590E-03     304.208E-03
            5116             655     286.889E-03     273.768E-03
            5116             656     276.828E-03     278.576E-03
            5116            5238     299.687E-03     312.762E-03
            5116            5245     316.590E-03     304.208E-03
            5117             668     868.001E-03     841.743E-03
            5117             669     804.962E-03     758.948E-03
            5117            5239     824.625E-03     812.328E-03
            5117            5246     792.003E-03     745.256E-03
            5118            5239     824.625E-03     812.328E-03
            5118            5240     743.853E-03     740.774E-03
            5118            5246     792.003E-03     745.256E-03
            5118            5247     748.640E-03     689.048E-03
            5119            5240     743.853E-03     740.774E-03
            5119            5241     668.333E-03     655.177E-03
            5119            5247     748.640E-03     689.048E-03
            5119            5248     681.630E-03     613.131E-03
            5120            5241     668.333E-03     655.177E-03
            5120            5242     580.789E-03     561.946E-03
            5120            5248     681.630E-03     613.131E-03
            5120            5249     597.889E-03     542.130E-03
            5121            5242     580.789E-03     561.946E-03
            5121            5243     483.120E-03     466.290E-03
            5121            5249     597.889E-03     542.130E-03
            5121            5250     498.016E-03     463.474E-03
            5122            5243     483.120E-03     466.290E-03
            5122            5244     390.178E-03     377.103E-03
            5122            5250     498.016E-03     463.474E-03
            5122            5251     398.402E-03     382.955E-03
            5123            5244     390.178E-03     377.103E-03
            5123            5245     316.590E-03     304.208E-03
            5123            5251     398.402E-03     382.955E-03
            5123            5252     320.241E-03     315.703E-03
            5124             654     288.113E-03     287.261E-03
            5124             655     286.889E-03     273.768E-03
            5124            5245     316.590E-03     304.208E-03
            5124            5252     320.241E-03     315.703E-03
            5125             669     804.962E-03     758.948E-03
            5125             670     697.155E-03     726.602E-03
            5125            5246     792.003E-03     745.256E-03
            5125            5253     668.089E-03     720.984E-03
            5126            5246     792.003E-03     745.256E-03
            5126            5247     748.640E-03     689.048E-03
            5126            5253     668.089E-03     720.984E-03
            5126            5254     617.817E-03     684.482E-03
            5127            5247     748.640E-03     689.048E-03
            5127            5248     681.630E-03     613.131E-03
            5127            5254     617.817E-03     684.482E-03
            5127            5255     573.323E-03     615.944E-03
            5128            5248     681.630E-03     613.131E-03
            5128            5249     597.889E-03     542.130E-03
            5128            5255     573.323E-03     615.944E-03
            5128            5256     518.174E-03     543.587E-03
            5129            5249     597.889E-03     542.130E-03
            5129            5250     498.016E-03     463.474E-03
            5129            5256     518.174E-03     543.587E-03
            5129            5257     445.864E-03     468.137E-03
            5130            5250     498.016E-03     463.474E-03
            5130            5251     398.402E-03     382.955E-03
            5130            5257     445.864E-03     468.137E-03
            5130            5258     367.244E-03     386.082E-03
            5131            5251     398.402E-03     382.955E-03
            5131            5252     320.241E-03     315.703E-03
            5131            5258     367.244E-03     386.082E-03
            5131            5259     305.533E-03     315.660E-03
            5132             653     281.473E-03     285.891E-03
            5132             654     288.113E-03     287.261E-03
            5132            5252     320.241E-03     315.703E-03
            5132            5259     305.533E-03     315.660E-03
            5133             670     697.155E-03     726.602E-03
            5133             671     665.035E-03     652.429E-03
            5133            5253     668.089E-03     720.984E-03
            5133            5260     641.422E-03     641.834E-03
            5134            5253     668.089E-03     720.984E-03
            5134            5254     617.817E-03     684.482E-03
            5134            5260     641.422E-03     641.834E-03
            5134            5261     595.361E-03     604.480E-03
            5135            5254     617.817E-03     684.482E-03
            5135            5255     573.323E-03     615.944E-03
            5135            5261     595.361E-03     604.480E-03
            5135            5262     552.288E-03     550.236E-03
            5136            5255     573.323E-03     615.944E-03
            5136            5256     518.174E-03     543.587E-03
            5136            5262     552.288E-03     550.236E-03
            5136            5263     503.347E-03     494.602E-03
            5137            5256     518.174E-03     543.587E-03
            5137            5257     445.864E-03     468.137E-03
            5137            5263     503.347E-03     494.602E-03
            5137            5264     438.350E-03     434.307E-03
            5138            5257     445.864E-03     468.137E-03
            5138            5258     367.244E-03     386.082E-03
            5138            5264     438.350E-03     434.307E-03
            5138            5265     365.947E-03     367.304E-03
            5139            5258     367.244E-03     386.082E-03
            5139            5259     305.533E-03     315.660E-03
            5139            5265     365.947E-03     367.304E-03
            5139            5266     308.104E-03     308.342E-03
            5140             652     285.556E-03     283.795E-03
            5140             653     281.473E-03     285.891E-03
            5140            5259     305.533E-03     315.660E-03
            5140            5266     308.104E-03     308.342E-03
            5141             671     665.035E-03     652.429E-03
            5141             672     610.679E-03     613.964E-03
            5141            5260     641.422E-03     641.834E-03
            5141            5267     590.785E-03     604.260E-03
            5142            5260     641.422E-03     641.834E-03
            5142            5261     595.361E-03     604.480E-03
            5142            5267     590.785E-03     604.260E-03
            5142            5268     556.224E-03     569.858E-03
            5143            5261     595.361E-03     604.480E-03
            5143            5262     552.288E-03     550.236E-03
            5143            5268     556.224E-03     569.858E-03
            5143            5269     523.817E-03     521.111E-03
            5144            5262     552.288E-03     550.236E-03
            5144            5263     503.347E-03     494.602E-03
            5144            5269     523.817E-03     521.111E-03
            5144            5270     480.735E-03     473.310E-03
            5145            5263     503.347E-03     494.602E-03
            5145            5264     438.350E-03     434.307E-03
            5145            5270     480.735E-03     473.310E-03
            5145            5271     422.055E-03     419.411E-03
            5146            5264     438.350E-03     434.307E-03
            5146            5265     365.947E-03     367.304E-03
            5146            5271     422.055E-03     419.411E-03
            5146            5272     357.328E-03     358.338E-03
            5147            5265     365.947E-03     367.304E-03
            5147            5266     308.104E-03     308.342E-03
            5147            5272     357.328E-03     358.338E-03
            5147            5273     306.162E-03     306.714E-03
            5148             651     286.090E-03     285.702E-03
            5148             652     285.556E-03     283.795E-03
            5148            5266     308.104E-03     308.342E-03
            5148            5273     306.162E-03     306.714E-03
            5149             672     610.679E-03     613.964E-03
            5149             673     565.178E-03     559.737E-03
            5149            5267     590.785E-03     604.260E-03
            5149            5274     545.895E-03     553.415E-03
            5150            5267     590.785E-03     604.260E-03
            5150            5268     556.224E-03     569.858E-03
            5150            5274     545.895E-03     553.415E-03
            5150            5275     513.599E-03     528.262E-03
            5151            5268     556.224E-03     569.858E-03
            5151            5269     523.817E-03     521.111E-03
            5151            5275     513.599E-03     528.262E-03
            5151            5276     487.393E-03     491.687E-03
            5152            5269     523.817E-03     521.111E-03
            5152            5270     480.735E-03     473.310E-03
            5152            5276     487.393E-03     491.687E-03
            5152            5277     450.892E-03     452.015E-03
            5153            5270     480.735E-03     473.310E-03
            5153            5271     422.055E-03     419.411E-03
            5153            5277     450.892E-03     452.015E-03
            5153            5278     399.300E-03     401.705E-03
            5154            5271     422.055E-03     419.411E-03
            5154            5272     357.328E-03     358.338E-03
            5154            5278     399.300E-03     401.705E-03
            5154            5279     345.001E-03     346.364E-03
            5155            5272     357.328E-03     358.338E-03
            5155            5273     306.162E-03     306.714E-03
            5155            5279     345.001E-03     346.364E-03
            5155            5280     302.670E-03     303.009E-03
            5156             650     286.198E-03     286.419E-03
            5156             651     286.090E-03     285.702E-03
            5156            5273     306.162E-03     306.714E-03
            5156            5280     302.670E-03     303.009E-03
            5157             673     565.178E-03     559.737E-03
            5157             674     510.087E-03     517.499E-03
            5157            5274     545.895E-03     553.415E-03
            5157            5281     495.256E-03     518.387E-03
            5158            5274     545.895E-03     553.415E-03
            5158            5275     513.599E-03     528.262E-03
            5158            5281     495.256E-03     518.387E-03
            5158            5282     474.311E-03     506.570E-03
            5159            5275     513.599E-03     528.262E-03
            5159            5276     487.393E-03     491.687E-03
            5159            5282     474.311E-03     506.570E-03
            5159            5283     456.125E-03     478.126E-03
            5160            5276     487.393E-03     491.687E-03
            5160            5277     450.892E-03     452.015E-03
            5160            5283     456.125E-03     478.126E-03
            5160            5284     422.688E-03     438.753E-03
            5161            5277     450.892E-03     452.015E-03
            5161            5278     399.300E-03     401.705E-03
            5161            5284     422.688E-03     438.753E-03
            5161            5285     377.659E-03     387.184E-03
            5162            5278     399.300E-03     401.705E-03
            5162            5279     345.001E-03     346.364E-03
            5162            5285     377.659E-03     387.184E-03
            5162            5286     333.832E-03     336.183E-03
            5163            5279     345.001E-03     346.364E-03
            5163            5280     302.670E-03     303.009E-03
            5163            5286     333.832E-03     336.183E-03
            5163            5287     300.970E-03     299.573E-03
            5164             649     288.239E-03     285.956E-03
            5164             650     286.198E-03     286.419E-03
            5164            5280     302.670E-03     303.009E-03
            5164            5287     300.970E-03     299.573E-03
            5165             674     510.087E-03     517.499E-03
            5165             675     477.790E-03     453.558E-03
            5165            5281     495.256E-03     518.387E-03
            5165            5288     482.885E-03     465.702E-03
            5166            5281     495.256E-03     518.387E-03
            5166            5282     474.311E-03     506.570E-03
            5166            5288     482.885E-03     465.702E-03
            5166            5289     485.065E-03     469.576E-03
            5167            5282     474.311E-03     506.570E-03
            5167            5283     456.125E-03     478.126E-03
            5167            5289     485.065E-03     469.576E-03
            5167            5290     462.812E-03     445.959E-03
            5168            5283     456.125E-03     478.126E-03
            5168            5284     422.688E-03     438.753E-03
            5168            5290     462.812E-03     445.959E-03
            5168            5291     418.043E-03     406.684E-03
            5169            5284     422.688E-03     438.753E-03
            5169            5285     377.659E-03     387.184E-03
            5169            5291     418.043E-03     406.684E-03
            5169            5292     369.907E-03     360.218E-03
            5170            5285     377.659E-03     387.184E-03
            5170            5286     333.832E-03     336.183E-03
            5170            5292     369.907E-03     360.218E-03
            5170            5293     328.295E-03     320.374E-03
            5171            5286     333.832E-03     336.183E-03
            5171            5287     300.970E-03     299.573E-03
            5171            5293     328.295E-03     320.374E-03
            5171            5294     298.004E-03     293.426E-03
            5172             648     286.676E-03     283.817E-03
            5172             649     288.239E-03     285.956E-03
            5172            5287     300.970E-03     299.573E-03
            5172            5294     298.004E-03     293.426E-03
            5173             675     477.790E-03     453.558E-03
            5173             676     431.631E-03     403.941E-03
            5173            5288     482.885E-03     465.702E-03
            5173            5295     449.731E-03     433.407E-03
            5174            5288     482.885E-03     465.702E-03
            5174            5289     485.065E-03     469.576E-03
            5174            5295     449.731E-03     433.407E-03
            5174            5296     457.486E-03     454.613E-03
            5175            5289     485.065E-03     469.576E-03
            5175            5290     462.812E-03     445.959E-03
            5175            5296     457.486E-03     454.613E-03
            5175            5297     426.455E-03     423.476E-03
            5176            5290     462.812E-03     445.959E-03
            5176            5291     418.043E-03     406.684E-03
            5176            5297     426.455E-03     423.476E-03
            5176            5298     384.497E-03     376.628E-03
            5177            5291     418.043E-03     406.684E-03
            5177            5292     369.907E-03     360.218E-03
            5177            5298     384.497E-03     376.628E-03
            5177            5299     345.615E-03     336.414E-03
            5178            5292     369.907E-03     360.218E-03
            5178            5293     328.295E-03     320.374E-03
            5178            5299     345.615E-03     336.414E-03
            5178            5300     314.589E-03     309.721E-03
            5179            5293     328.295E-03     320.374E-03
            5179            5294     298.004E-03     293.426E-03
            5179            5300     314.589E-03     309.721E-03
            5179            5301     293.036E-03     293.890E-03
            5180             647     285.035E-03     288.673E-03
            5180             648     286.676E-03     283.817E-03
            5180            5294     298.004E-03     293.426E-03
            5180            5301     293.036E-03     293.890E-03
            5181             676     431.631E-03     403.941E-03
            5181             677     455.132E-03     510.957E-03
            5181            5295     449.731E-03     433.407E-03
            5181            5302     427.823E-03     515.110E-03
            5182            5295     449.731E-03     433.407E-03
            5182            5296     457.486E-03     454.613E-03
            5182            5302     427.823E-03     515.110E-03
            5182            5303     386.557E-03     504.373E-03
            5183            5296     457.486E-03     454.613E-03
            5183            5297     426.455E-03     423.476E-03
            5183            5303     386.557E-03     504.373E-03
            5183            5304     360.512E-03     455.871E-03
            5184            5297     426.455E-03     423.476E-03
            5184            5298     384.497E-03     376.628E-03
            5184            5304     360.512E-03     455.871E-03
            5184            5305     335.535E-03     394.148E-03
            5185            5298     384.497E-03     376.628E-03
            5185            5299     345.615E-03     336.414E-03
            5185            5305     335.535E-03     394.148E-03
            5185            5306     313.391E-03     345.591E-03
            5186            5299     345.615E-03     336.414E-03
            5186            5300     314.589E-03     309.721E-03
            5186            5306     313.391E-03     345.591E-03
            5186            5307     296.358E-03     310.699E-03
            5187            5300     314.589E-03     309.721E-03
            5187            5301     293.036E-03     293.890E-03
            5187            5307     296.358E-03     310.699E-03
            5187            5308     284.894E-03     288.481E-03
            5188             646     281.395E-03     280.798E-03
            5188             647     285.035E-03     288.673E-03
            5188            5301     293.036E-03     293.890E-03
            5188            5308     284.894E-03     288.481E-03
            5189             677     455.132E-03     510.957E-03
            5189             678     546.639E-03     534.318E-03
            5189            5302     427.823E-03     515.110E-03
            5189            5309     512.285E-03     507.010E-03
            5190            5302     427.823E-03     515.110E-03
            5190            5303     386.557E-03     504.373E-03
            5190            5309     512.285E-03     507.010E-03
            5190            5310     455.674E-03     454.807E-03
            5191            5303     386.557E-03     504.373E-03
            5191            5304     360.512E-03     455.871E-03
            5191            5310     455.674E-03     454.807E-03
            5191            5311     417.469E-03     410.614E-03
            5192            5304     360.512E-03     455.871E-03
            5192            5305     335.535E-03     394.148E-03
            5192            5311     417.469E-03     410.614E-03
            5192            5312     381.197E-03     370.636E-03
            5193            5305     335.535E-03     394.148E-03
            5193            5306     313.391E-03     345.591E-03
            5193            5312     381.197E-03     370.636E-03
            5193            5313     343.915E-03     333.702E-03
            5194            5306     313.391E-03     345.591E-03
            5194            5307     296.358E-03     310.699E-03
            5194            5313     343.915E-03     333.702E-03
            5194            5314     312.622E-03     303.628E-03
            5195            5307     296.358E-03     310.699E-03
            5195            5308     284.894E-03     288.481E-03
            5195            5314     312.622E-03     303.628E-03
            5195            5315     290.515E-03     282.024E-03
            5196             645     282.840E-03     274.314E-03
            5196             646     281.395E-03     280.798E-03
            5196            5308     284.894E-03     288.481E-03
            5196            5315     290.515E-03     282.024E-03
            5197             678     546.639E-03     534.318E-03
            5197             679     488.599E-03     461.090E-03
            5197            5309     512.285E-03     507.010E-03
            5197            5316     479.856E-03     449.230E-03
            5198            5309     512.285E-03     507.010E-03
            5198            5310     455.674E-03     454.807E-03
            5198            5316     479.856E-03     449.230E-03
            5198            5317     452.767E-03     413.149E-03
            5199            5310     455.674E-03     454.807E-03
            5199            5311     417.469E-03     410.614E-03
            5199            5317     452.767E-03     413.149E-03
            5199            5318     418.274E-03     375.010E-03
            5200            5311     417.469E-03     410.614E-03
            5200            5312     381.197E-03     370.636E-03
            5200            5318     418.274E-03     375.010E-03
            5200            5319     384.425E-03     349.438E-03
            5201            5312     381.197E-03     370.636E-03
            5201            5313     343.915E-03     333.702E-03
            5201            5319     384.425E-03     349.438E-03
            5201            5320     347.823E-03     326.296E-03
            5202            5313     343.915E-03     333.702E-03
            5202            5314     312.622E-03     303.628E-03
            5202            5320     347.823E-03     326.296E-03
            5202            5321     314.513E-03     305.149E-03
            5203            5314     312.622E-03     303.628E-03
            5203            5315     290.515E-03     282.024E-03
            5203            5321     314.513E-03     305.149E-03
            5203            5322     291.704E-03     289.259E-03
            5204             644     283.417E-03     283.209E-03
            5204             645     282.840E-03     274.314E-03
            5204            5315     290.515E-03     282.024E-03
            5204            5322     291.704E-03     289.259E-03
            5205             679     488.599E-03     461.090E-03
            5205             680     401.193E-03     422.315E-03
            5205            5316     479.856E-03     449.230E-03
            5205            5323     384.659E-03     418.415E-03
            5206            5316     479.856E-03     449.230E-03
            5206            5317     452.767E-03     413.149E-03
            5206            5323     384.659E-03     418.415E-03
            5206            5324     358.326E-03     399.988E-03
            5207            5317     452.767E-03     413.149E-03
            5207            5318     418.274E-03     375.010E-03
            5207            5324     358.326E-03     399.988E-03
            5207            5325     341.662E-03     369.266E-03
            5208            5318     418.274E-03     375.010E-03
            5208            5319     384.425E-03     349.438E-03
            5208            5325     341.662E-03     369.266E-03
            5208            5326     328.025E-03     343.000E-03
            5209            5319     384.425E-03     349.438E-03
            5209            5320     347.823E-03     326.296E-03
            5209            5326     328.025E-03     343.000E-03
            5209            5327     312.149E-03     323.130E-03
            5210            5320     347.823E-03     326.296E-03
            5210            5321     314.513E-03     305.149E-03
            5210            5327     312.149E-03     323.130E-03
            5210            5328     294.928E-03     303.720E-03
            5211            5321     314.513E-03     305.149E-03
            5211            5322     291.704E-03     289.259E-03
            5211            5328     294.928E-03     303.720E-03
            5211            5329     282.864E-03     287.986E-03
            5212             643     279.153E-03     282.074E-03
            5212             644     283.417E-03     283.209E-03
            5212            5322     291.704E-03     289.259E-03
            5212            5329     282.864E-03     287.986E-03
            5213             680     401.193E-03     422.315E-03
            5213             681     365.423E-03     357.207E-03
            5213            5323     384.659E-03     418.415E-03
            5213            5330     352.991E-03     351.003E-03
            5214            5323     384.659E-03     418.415E-03
            5214            5324     358.326E-03     399.988E-03
            5214            5330     352.991E-03     351.003E-03
            5214            5331     332.252E-03     334.835E-03
            5215            5324     358.326E-03     399.988E-03
            5215            5325     341.662E-03     369.266E-03
            5215            5331     332.252E-03     334.835E-03
            5215            5332     320.066E-03     317.771E-03
            5216            5325     341.662E-03     369.266E-03
            5216            5326     328.025E-03     343.000E-03
            5216            5332     320.066E-03     317.771E-03
            5216            5333     312.460E-03     306.713E-03
            5217            5326     328.025E-03     343.000E-03
            5217            5327     312.149E-03     323.130E-03
            5217            5333     312.460E-03     306.713E-03
            5217            5334     303.167E-03     299.520E-03
            5218            5327     312.149E-03     323.130E-03
            5218            5328     294.928E-03     303.720E-03
            5218            5334     303.167E-03     299.520E-03
            5218            5335     292.073E-03     291.636E-03
            5219            5328     294.928E-03     303.720E-03
            5219            5329     282.864E-03     287.986E-03
            5219            5335     292.073E-03     291.636E-03
            5219            5336     283.837E-03     283.574E-03
            5220             642     281.415E-03     280.450E-03
            5220             643     279.153E-03     282.074E-03
            5220            5329     282.864E-03     287.986E-03
            5220            5336     283.837E-03     283.574E-03
            5221             681     365.423E-03     357.207E-03
            5221             682     314.497E-03     317.348E-03
            5221            5330     352.991E-03     351.003E-03
            5221            5337     304.601E-03     311.474E-03
            5222            5330     352.991E-03     351.003E-03
            5222            5331     332.252E-03     334.835E-03
            5222            5337     304.601E-03     311.474E-03
            5222            5338     292.486E-03     298.645E-03
            5223            5331     332.252E-03     334.835E-03
            5223            5332     320.066E-03     317.771E-03
            5223            5338     292.486E-03     298.645E-03
            5223            5339     290.845E-03     289.494E-03
            5224            5332     320.066E-03     317.771E-03
            5224            5333     312.460E-03     306.713E-03
            5224            5339     290.845E-03     289.494E-03
            5224            5340     291.422E-03     288.135E-03
            5225            5333     312.460E-03     306.713E-03
            5225            5334     303.167E-03     299.520E-03
            5225            5340     291.422E-03     288.135E-03
            5225            5341     289.384E-03     288.288E-03
            5226            5334     303.167E-03     299.520E-03
            5226            5335     292.073E-03     291.636E-03
            5226            5341     289.384E-03     288.288E-03
            5226            5342     285.376E-03     285.773E-03
            5227            5335     292.073E-03     291.636E-03
            5227            5336     283.837E-03     283.574E-03
            5227            5342     285.376E-03     285.773E-03
            5227            5343     282.478E-03     282.538E-03
            5228             641     281.886E-03     281.475E-03
            5228             642     281.415E-03     280.450E-03
            5228            5336     283.837E-03     283.574E-03
            5228            5343     282.478E-03     282.538E-03
            5229             682     314.497E-03     317.348E-03
            5229             683     270.468E-03     269.029E-03
            5229            5337     304.601E-03     311.474E-03
            5229            5344     259.538E-03     266.061E-03
            5230            5337     304.601E-03     311.474E-03
            5230            5338     292.486E-03     298.645E-03
            5230            5344     259.538E-03     266.061E-03
            5230            5345     250.225E-03     261.092E-03
            5231            5338     292.486E-03     298.645E-03
            5231            5339     290.845E-03     289.494E-03
            5231            5345     250.225E-03     261.092E-03
            5231            5346     258.173E-03     262.427E-03
            5232            5339     290.845E-03     289.494E-03
            5232            5340     291.422E-03     288.135E-03
            5232            5346     258.173E-03     262.427E-03
            5232            5347     268.031E-03     270.314E-03
            5233            5340     291.422E-03     288.135E-03
            5233            5341     289.384E-03     288.288E-03
            5233            5347     268.031E-03     270.314E-03
            5233            5348     273.756E-03     276.645E-03
            5234            5341     289.384E-03     288.288E-03
            5234            5342     285.376E-03     285.773E-03
            5234            5348     273.756E-03     276.645E-03
            5234            5349     277.777E-03     278.912E-03
            5235            5342     285.376E-03     285.773E-03
            5235            5343     282.478E-03     282.538E-03
            5235            5349     277.777E-03     278.912E-03
            5235            5350     280.734E-03     280.138E-03
            5236             640     282.257E-03     281.257E-03
            5236             641     281.886E-03     281.475E-03
            5236            5343     282.478E-03     282.538E-03
            5236            5350     280.734E-03     280.138E-03
            5237             683     270.468E-03     269.029E-03
            5237             684     222.848E-03     223.068E-03
            5237            5344     259.538E-03     266.061E-03
            5237            5351     217.616E-03     220.950E-03
            5238            5344     259.538E-03     266.061E-03
            5238            5345     250.225E-03     261.092E-03
            5238            5351     217.616E-03     220.950E-03
            5238            5352     219.056E-03     221.718E-03
            5239            5345     250.225E-03     261.092E-03
            5239            5346     258.173E-03     262.427E-03
            5239            5352     219.056E-03     221.718E-03
            5239            5353     234.337E-03     234.301E-03
            5240            5346     258.173E-03     262.427E-03
            5240            5347     268.031E-03     270.314E-03
            5240            5353     234.337E-03     234.301E-03
            5240            5354     249.717E-03     251.659E-03
            5241            5347     268.031E-03     270.314E-03
            5241            5348     273.756E-03     276.645E-03
            5241            5354     249.717E-03     251.659E-03
            5241            5355     262.115E-03     263.546E-03
            5242            5348     273.756E-03     276.645E-03
            5242            5349     277.777E-03     278.912E-03
            5242            5355     262.115E-03     263.546E-03
            5242            5356     272.510E-03     271.644E-03
            5243            5349     277.777E-03     278.912E-03
            5243            5350     280.734E-03     280.138E-03
            5243            5356     272.510E-03     271.644E-03
            5243            5357     279.845E-03     278.095E-03
            5244             639     282.833E-03     281.083E-03
            5244             640     282.257E-03     281.257E-03
            5244            5350     280.734E-03     280.138E-03
            5244            5357     279.845E-03     278.095E-03
            5245             684     222.848E-03     223.068E-03
            5245             685     175.569E-03     172.649E-03
            5245            5351     217.616E-03     220.950E-03
            5245            5358     174.842E-03     176.859E-03
            5246            5351     217.616E-03     220.950E-03
            5246            5352     219.056E-03     221.718E-03
            5246            5358     174.842E-03     176.859E-03
            5246            5359     185.962E-03     192.033E-03
            5247            5352     219.056E-03     221.718E-03
            5247            5353     234.337E-03     234.301E-03
            5247            5359     185.962E-03     192.033E-03
            5247            5360     209.564E-03     215.821E-03
            5248            5353     234.337E-03     234.301E-03
            5248            5354     249.717E-03     251.659E-03
            5248            5360     209.564E-03     215.821E-03
            5248            5361     230.991E-03     236.785E-03
            5249            5354     249.717E-03     251.659E-03
            5249            5355     262.115E-03     263.546E-03
            5249            5361     230.991E-03     236.785E-03
            5249            5362     250.571E-03     252.318E-03
            5250            5355     262.115E-03     263.546E-03
            5250            5356     272.510E-03     271.644E-03
            5250            5362     250.571E-03     252.318E-03
            5250            5363     267.649E-03     266.164E-03
            5251            5356     272.510E-03     271.644E-03
            5251            5357     279.845E-03     278.095E-03
            5251            5363     267.649E-03     266.164E-03
            5251            5364     278.787E-03     276.763E-03
            5252             638     283.189E-03     281.349E-03
            5252             639     282.833E-03     281.083E-03
            5252            5357     279.845E-03     278.095E-03
            5252            5364     278.787E-03     276.763E-03
            5253             685     175.569E-03     172.649E-03
            5253             686     121.592E-03     119.708E-03
            5253            5358     174.842E-03     176.859E-03
            5253            5365     135.713E-03     136.030E-03
            5254            5358     174.842E-03     176.859E-03
            5254            5359     185.962E-03     192.033E-03
            5254            5365     135.713E-03     136.030E-03
            5254            5366     164.814E-03     169.920E-03
            5255            5359     185.962E-03     192.033E-03
            5255            5360     209.564E-03     215.821E-03
            5255            5366     164.814E-03     169.920E-03
            5255            5367     190.536E-03     199.303E-03
            5256            5360     209.564E-03     215.821E-03
            5256            5361     230.991E-03     236.785E-03
            5256            5367     190.536E-03     199.303E-03
            5256            5368     214.950E-03     221.341E-03
            5257            5361     230.991E-03     236.785E-03
            5257            5362     250.571E-03     252.318E-03
            5257            5368     214.950E-03     221.341E-03
            5257            5369     241.269E-03     241.863E-03
            5258            5362     250.571E-03     252.318E-03
            5258            5363     267.649E-03     266.164E-03
            5258            5369     241.269E-03     241.863E-03
            5258            5370     263.460E-03     261.078E-03
            5259            5363     267.649E-03     266.164E-03
            5259            5364     278.787E-03     276.763E-03
            5259            5370     263.460E-03     261.078E-03
            5259            5371     277.887E-03     275.090E-03
            5260             637     283.229E-03     280.624E-03
            5260             638     283.189E-03     281.349E-03
            5260            5364     278.787E-03     276.763E-03
            5260            5371     277.887E-03     275.090E-03
            5261             686     121.592E-03     119.708E-03
            5261             687     76.8217E-03     66.0022E-03
            5261            5365     135.713E-03     136.030E-03
            5261            5372     108.604E-03     101.719E-03
            5262            5365     135.713E-03     136.030E-03
            5262            5366     164.814E-03     169.920E-03
            5262            5372     108.604E-03     101.719E-03
            5262            5373     151.326E-03     153.144E-03
            5263            5366     164.814E-03     169.920E-03
            5263            5367     190.536E-03     199.303E-03
            5263            5373     151.326E-03     153.144E-03
            5263            5374     175.250E-03     180.410E-03
            5264            5367     190.536E-03     199.303E-03
            5264            5368     214.950E-03     221.341E-03
            5264            5374     175.250E-03     180.410E-03
            5264            5375     203.943E-03     205.303E-03
            5265            5368     214.950E-03     221.341E-03
            5265            5369     241.269E-03     241.863E-03
            5265            5375     203.943E-03     205.303E-03
            5265            5376     234.466E-03     232.535E-03
            5266            5369     241.269E-03     241.863E-03
            5266            5370     263.460E-03     261.078E-03
            5266            5376     234.466E-03     232.535E-03
            5266            5377     259.911E-03     257.334E-03
            5267            5370     263.460E-03     261.078E-03
            5267            5371     277.887E-03     275.090E-03
            5267            5377     259.911E-03     257.334E-03
            5267            5378     276.168E-03     274.302E-03
            5268             636     282.242E-03     280.788E-03
            5268             637     283.229E-03     280.624E-03
            5268            5371     277.887E-03     275.090E-03
            5268            5378     276.168E-03     274.302E-03
            5269             687     76.8217E-03     66.0022E-03
            5269             688     108.909E-03     124.288E-03
            5269            5372     108.604E-03     101.719E-03
            5269            5379     111.247E-03     133.176E-03
            5270            5372     108.604E-03     101.719E-03
            5270            5373     151.326E-03     153.144E-03
            5270            5379     111.247E-03     133.176E-03
            5270            5380     126.655E-03     150.921E-03
            5271            5373     151.326E-03     153.144E-03
            5271            5374     175.250E-03     180.410E-03
            5271            5380     126.655E-03     150.921E-03
            5271            5381     159.936E-03     173.871E-03
            5272            5374     175.250E-03     180.410E-03
            5272            5375     203.943E-03     205.303E-03
            5272            5381     159.936E-03     173.871E-03
            5272            5382     195.537E-03     201.000E-03
            5273            5375     203.943E-03     205.303E-03
            5273            5376     234.466E-03     232.535E-03
            5273            5382     195.537E-03     201.000E-03
            5273            5383     226.572E-03     227.905E-03
            5274            5376     234.466E-03     232.535E-03
            5274            5377     259.911E-03     257.334E-03
            5274            5383     226.572E-03     227.905E-03
            5274            5384     252.163E-03     251.341E-03
            5275            5377     259.911E-03     257.334E-03
            5275            5378     276.168E-03     274.302E-03
            5275            5384     252.163E-03     251.341E-03
            5275            5385     267.921E-03     266.464E-03
            5276             635     274.140E-03     272.441E-03
            5276             636     282.242E-03     280.788E-03
            5276            5378     276.168E-03     274.302E-03
            5276            5385     267.921E-03     266.464E-03
            5277             688     108.909E-03     124.288E-03
            5277             689     147.999E-03     150.050E-03
            5277            5379     111.247E-03     133.176E-03
            5277            5386     130.255E-03     131.873E-03
            5278            5379     111.247E-03     133.176E-03
            5278            5380     126.655E-03     150.921E-03
            5278            5386     130.255E-03     131.873E-03
            5278            5387     127.445E-03     129.378E-03
            5279            5380     126.655E-03     150.921E-03
            5279            5381     159.936E-03     173.871E-03
            5279            5387     127.445E-03     129.378E-03
            5279            5388     162.512E-03     163.565E-03
            5280            5381     159.936E-03     173.871E-03
            5280            5382     195.537E-03     201.000E-03
            5280            5388     162.512E-03     163.565E-03
            5280            5389     197.490E-03     197.115E-03
            5281            5382     195.537E-03     201.000E-03
            5281            5383     226.572E-03     227.905E-03
            5281            5389     197.490E-03     197.115E-03
            5281            5390     226.234E-03     225.145E-03
            5282            5383     226.572E-03     227.905E-03
            5282            5384     252.163E-03     251.341E-03
            5282            5390     226.234E-03     225.145E-03
            5282            5391     249.390E-03     246.912E-03
            5283            5384     252.163E-03     251.341E-03
            5283            5385     267.921E-03     266.464E-03
            5283            5391     249.390E-03     246.912E-03
            5283            5392     263.842E-03     260.668E-03
            5284             634     269.461E-03     266.060E-03
            5284             635     274.140E-03     272.441E-03
            5284            5385     267.921E-03     266.464E-03
            5284            5392     263.842E-03     260.668E-03
            5285             689     147.999E-03     150.050E-03
            5285             690     89.4744E-03     77.7944E-03
            5285            5386     130.255E-03     131.873E-03
            5285            5393     94.5136E-03     80.3389E-03
            5286            5386     130.255E-03     131.873E-03
            5286            5387     127.445E-03     129.378E-03
            5286            5393     94.5136E-03     80.3389E-03
            5286            5394     119.700E-03     109.915E-03
            5287            5387     127.445E-03     129.378E-03
            5287            5388     162.512E-03     163.565E-03
            5287            5394     119.700E-03     109.915E-03
            5287            5395     158.897E-03     154.924E-03
            5288            5388     162.512E-03     163.565E-03
            5288            5389     197.490E-03     197.115E-03
            5288            5395     158.897E-03     154.924E-03
            5288            5396     195.779E-03     191.465E-03
            5289            5389     197.490E-03     197.115E-03
            5289            5390     226.234E-03     225.145E-03
            5289            5396     195.779E-03     191.465E-03
            5289            5397     226.736E-03     223.767E-03
            5290            5390     226.234E-03     225.145E-03
            5290            5391     249.390E-03     246.912E-03
            5290            5397     226.736E-03     223.767E-03
            5290            5398     250.065E-03     247.718E-03
            5291            5391     249.390E-03     246.912E-03
            5291            5392     263.842E-03     260.668E-03
            5291            5398     250.065E-03     247.718E-03
            5291            5399     265.305E-03     263.203E-03
            5292             633     270.758E-03     268.886E-03
            5292             634     269.461E-03     266.060E-03
            5292            5392     263.842E-03     260.668E-03
            5292            5399     265.305E-03     263.203E-03
            5293             690     89.4744E-03     77.7944E-03
            5293             691     41.8172E-03     76.8411E-03
            5293            5393     94.5136E-03     80.3389E-03
            5293            5400     55.9223E-03     78.0458E-03
            5294            5393     94.5136E-03     80.3389E-03
            5294            5394     119.700E-03     109.915E-03
            5294            5400     55.9223E-03     78.0458E-03
            5294            5401     96.1264E-03     104.516E-03
            5295            5394     119.700E-03     109.915E-03
            5295            5395     158.897E-03     154.924E-03
            5295            5401     96.1264E-03     104.516E-03
            5295            5402     145.750E-03     150.474E-03
            5296            5395     158.897E-03     154.924E-03
            5296            5396     195.779E-03     191.465E-03
            5296            5402     145.750E-03     150.474E-03
            5296            5403     187.755E-03     188.911E-03
            5297            5396     195.779E-03     191.465E-03
            5297            5397     226.736E-03     223.767E-03
            5297            5403     187.755E-03     188.911E-03
            5297            5404     221.531E-03     221.522E-03
            5298            5397     226.736E-03     223.767E-03
            5298            5398     250.065E-03     247.718E-03
            5298            5404     221.531E-03     221.522E-03
            5298            5405     246.831E-03     246.342E-03
            5299            5398     250.065E-03     247.718E-03
            5299            5399     265.305E-03     263.203E-03
            5299            5405     246.831E-03     246.342E-03
            5299            5406     262.444E-03     261.739E-03
            5300             632     268.446E-03     267.561E-03
            5300             633     270.758E-03     268.886E-03
            5300            5399     265.305E-03     263.203E-03
            5300            5406     262.444E-03     261.739E-03
            5301              28     22.9864E-03     44.0222E-03
            5301             691     41.8172E-03     76.8411E-03
            5301             865     30.2483E-03     39.5817E-03
            5301            5400     55.9223E-03     78.0458E-03
            5302             864     48.4971E-03     46.4093E-03
            5302             865     30.2483E-03     39.5817E-03
            5302            5400     55.9223E-03     78.0458E-03
            5302            5401     96.1264E-03     104.516E-03
            5303             863     72.4338E-03     70.9640E-03
            5303             864     48.4971E-03     46.4093E-03
            5303            5401     96.1264E-03     104.516E-03
            5303            5402     145.750E-03     150.474E-03
            5304             862     93.6430E-03     92.7139E-03
            5304             863     72.4338E-03     70.9640E-03
            5304            5402     145.750E-03     150.474E-03
            5304            5403     187.755E-03     188.911E-03
            5305             861     110.204E-03     109.365E-03
            5305             862     93.6430E-03     92.7139E-03
            5305            5403     187.755E-03     188.911E-03
            5305            5404     221.531E-03     221.522E-03
            5306             860     123.137E-03     122.442E-03
            5306             861     110.204E-03     109.365E-03
            5306            5404     221.531E-03     221.522E-03
            5306            5405     246.831E-03     246.342E-03
            5307             859     130.704E-03     130.190E-03
            5307             860     123.137E-03     122.442E-03
            5307            5405     246.831E-03     246.342E-03
            5307            5406     262.444E-03     261.739E-03
            5308              27     133.830E-03     133.222E-03
            5308             632     268.446E-03     267.561E-03
            5308             859     130.704E-03     130.190E-03
            5308            5406     262.444E-03     261.739E-03
            5374              28     22.9864E-03     44.0222E-03
            5374             812     249.170E-06     247.985E-06
            5374             865     30.2483E-03     39.5817E-03
            5374            5451     222.955E-06     224.404E-06
            5375             864     48.4971E-03     46.4093E-03
            5375             865     30.2483E-03     39.5817E-03
            5375            5451     222.955E-06     224.404E-06
            5375            5452     192.652E-06     194.776E-06
            5376             863     72.4338E-03     70.9640E-03
            5376             864     48.4971E-03     46.4093E-03
            5376            5452     192.652E-06     194.776E-06
            5376            5453     197.878E-06     195.534E-06
            5377             862     93.6430E-03     92.7139E-03
            5377             863     72.4338E-03     70.9640E-03
            5377            5453     197.878E-06     195.534E-06
            5377            5454     213.881E-06     209.792E-06
            5378             861     110.204E-03     109.365E-03
            5378             862     93.6430E-03     92.7139E-03
            5378            5454     213.881E-06     209.792E-06
            5378            5455     227.209E-06     224.355E-06
            5379             860     123.137E-03     122.442E-03
            5379             861     110.204E-03     109.365E-03
            5379            5455     227.209E-06     224.355E-06
            5379            5456     239.024E-06     235.767E-06
            5380             859     130.704E-03     130.190E-03
            5380             860     123.137E-03     122.442E-03
            5380            5456     239.024E-06     235.767E-06
            5380            5457     247.300E-06     242.585E-06
            5381              27     133.830E-03     133.222E-03
            5381             859     130.704E-03     130.190E-03
            5381             870     250.399E-06     245.101E-06
            5381            5457     247.300E-06     242.585E-06
            5382             812     249.170E-06     247.985E-06
            5382             813     195.976E-06     182.025E-06
            5382            5451     222.955E-06     224.404E-06
            5382            5458     188.152E-06     171.780E-06
            5383            5451     222.955E-06     224.404E-06
            5383            5452     192.652E-06     194.776E-06
            5383            5458     188.152E-06     171.780E-06
            5383            5459     181.695E-06     161.428E-06
            5384            5452     192.652E-06     194.776E-06
            5384            5453     197.878E-06     195.534E-06
            5384            5459     181.695E-06     161.428E-06
            5384            5460     192.453E-06     172.984E-06
            5385            5453     197.878E-06     195.534E-06
            5385            5454     213.881E-06     209.792E-06
            5385            5460     192.453E-06     172.984E-06
            5385            5461     210.786E-06     198.062E-06
            5386            5454     213.881E-06     209.792E-06
            5386            5455     227.209E-06     224.355E-06
            5386            5461     210.786E-06     198.062E-06
            5386            5462     226.377E-06     220.574E-06
            5387            5455     227.209E-06     224.355E-06
            5387            5456     239.024E-06     235.767E-06
            5387            5462     226.377E-06     220.574E-06
            5387            5463     238.982E-06     236.107E-06
            5388            5456     239.024E-06     235.767E-06
            5388            5457     247.300E-06     242.585E-06
            5388            5463     238.982E-06     236.107E-06
            5388            5464     248.017E-06     245.973E-06
            5389             870     250.399E-06     245.101E-06
            5389             871     251.096E-06     249.404E-06
            5389            5457     247.300E-06     242.585E-06
            5389            5464     248.017E-06     245.973E-06
            5390             813     195.976E-06     182.025E-06
            5390             814     124.707E-06     137.891E-06
            5390            5458     188.152E-06     171.780E-06
            5390            5465     118.637E-06     134.239E-06
            5391            5458     188.152E-06     171.780E-06
            5391            5459     181.695E-06     161.428E-06
            5391            5465     118.637E-06     134.239E-06
            5391            5466     127.072E-06     141.144E-06
            5392            5459     181.695E-06     161.428E-06
            5392            5460     192.453E-06     172.984E-06
            5392            5466     127.072E-06     141.144E-06
            5392            5467     157.507E-06     166.221E-06
            5393            5460     192.453E-06     172.984E-06
            5393            5461     210.786E-06     198.062E-06
            5393            5467     157.507E-06     166.221E-06
            5393            5468     187.740E-06     193.776E-06
            5394            5461     210.786E-06     198.062E-06
            5394            5462     226.377E-06     220.574E-06
            5394            5468     187.740E-06     193.776E-06
            5394            5469     213.553E-06     216.966E-06
            5395            5462     226.377E-06     220.574E-06
            5395            5463     238.982E-06     236.107E-06
            5395            5469     213.553E-06     216.966E-06
            5395            5470     232.808E-06     234.287E-06
            5396            5463     238.982E-06     236.107E-06
            5396            5464     248.017E-06     245.973E-06
            5396            5470     232.808E-06     234.287E-06
            5396            5471     244.701E-06     245.192E-06
            5397             871     251.096E-06     249.404E-06
            5397             872     248.849E-06     248.930E-06
            5397            5464     248.017E-06     245.973E-06
            5397            5471     244.701E-06     245.192E-06
            5398             814     124.707E-06     137.891E-06
            5398             815     85.5831E-06     79.5244E-06
            5398            5465     118.637E-06     134.239E-06
            5398            5472     84.8666E-06     77.8539E-06
            5399            5465     118.637E-06     134.239E-06
            5399            5466     127.072E-06     141.144E-06
            5399            5472     84.8666E-06     77.8539E-06
            5399            5473     105.409E-06     100.070E-06
            5400            5466     127.072E-06     141.144E-06
            5400            5467     157.507E-06     166.221E-06
            5400            5473     105.409E-06     100.070E-06
            5400            5474     145.215E-06     145.277E-06
            5401            5467     157.507E-06     166.221E-06
            5401            5468     187.740E-06     193.776E-06
            5401            5474     145.215E-06     145.277E-06
            5401            5475     180.076E-06     181.538E-06
            5402            5468     187.740E-06     193.776E-06
            5402            5469     213.553E-06     216.966E-06
            5402            5475     180.076E-06     181.538E-06
            5402            5476     209.960E-06     209.185E-06
            5403            5469     213.553E-06     216.966E-06
            5403            5470     232.808E-06     234.287E-06
            5403            5476     209.960E-06     209.185E-06
            5403            5477     232.117E-06     230.777E-06
            5404            5470     232.808E-06     234.287E-06
            5404            5471     244.701E-06     245.192E-06
            5404            5477     232.117E-06     230.777E-06
            5404            5478     245.073E-06     244.116E-06
            5405             872     248.849E-06     248.930E-06
            5405             873     249.443E-06     248.567E-06
            5405            5471     244.701E-06     245.192E-06
            5405            5478     245.073E-06     244.116E-06
            5406             815     85.5831E-06     79.5244E-06
            5406             816     50.7952E-06     48.2245E-06
            5406            5472     84.8666E-06     77.8539E-06
            5406            5479     57.1211E-06     52.9642E-06
            5407            5472     84.8666E-06     77.8539E-06
            5407            5473     105.409E-06     100.070E-06
            5407            5479     57.1211E-06     52.9642E-06
            5407            5480     87.7494E-06     87.2977E-06
            5408            5473     105.409E-06     100.070E-06
            5408            5474     145.215E-06     145.277E-06
            5408            5480     87.7494E-06     87.2977E-06
            5408            5481     133.461E-06     137.383E-06
            5409            5474     145.215E-06     145.277E-06
            5409            5475     180.076E-06     181.538E-06
            5409            5481     133.461E-06     137.383E-06
            5409            5482     174.110E-06     175.457E-06
            5410            5475     180.076E-06     181.538E-06
            5410            5476     209.960E-06     209.185E-06
            5410            5482     174.110E-06     175.457E-06
            5410            5483     207.518E-06     206.516E-06
            5411            5476     209.960E-06     209.185E-06
            5411            5477     232.117E-06     230.777E-06
            5411            5483     207.518E-06     206.516E-06
            5411            5484     231.299E-06     229.632E-06
            5412            5477     232.117E-06     230.777E-06
            5412            5478     245.073E-06     244.116E-06
            5412            5484     231.299E-06     229.632E-06
            5412            5485     245.409E-06     244.084E-06
            5413             873     249.443E-06     248.567E-06
            5413             874     249.907E-06     248.899E-06
            5413            5478     245.073E-06     244.116E-06
            5413            5485     245.409E-06     244.084E-06
            5414             816     50.7952E-06     48.2245E-06
            5414             817     48.7349E-06     65.6842E-06
            5414            5479     57.1211E-06     52.9642E-06
            5414            5486     53.9706E-06     64.6713E-06
            5415            5479     57.1211E-06     52.9642E-06
            5415            5480     87.7494E-06     87.2977E-06
            5415            5486     53.9706E-06     64.6713E-06
            5415            5487     80.2741E-06     86.4552E-06
            5416            5480     87.7494E-06     87.2977E-06
            5416            5481     133.461E-06     137.383E-06
            5416            5487     80.2741E-06     86.4552E-06
            5416            5488     126.241E-06     130.836E-06
            5417            5481     133.461E-06     137.383E-06
            5417            5482     174.110E-06     175.457E-06
            5417            5488     126.241E-06     130.836E-06
            5417            5489     170.740E-06     170.661E-06
            5418            5482     174.110E-06     175.457E-06
            5418            5483     207.518E-06     206.516E-06
            5418            5489     170.740E-06     170.661E-06
            5418            5490     205.147E-06     203.518E-06
            5419            5483     207.518E-06     206.516E-06
            5419            5484     231.299E-06     229.632E-06
            5419            5490     205.147E-06     203.518E-06
            5419            5491     229.740E-06     227.848E-06
            5420            5484     231.299E-06     229.632E-06
            5420            5485     245.409E-06     244.084E-06
            5420            5491     229.740E-06     227.848E-06
            5420            5492     244.303E-06     242.624E-06
            5421             874     249.907E-06     248.899E-06
            5421             875     249.081E-06     247.685E-06
            5421            5485     245.409E-06     244.084E-06
            5421            5492     244.303E-06     242.624E-06
            5422              31     57.6266E-06     93.3794E-06
            5422             817     48.7349E-06     65.6842E-06
            5422             882     58.3386E-06     80.5517E-06
            5422            5486     53.9706E-06     64.6713E-06
            5423             881     79.8518E-06     85.7055E-06
            5423             882     58.3386E-06     80.5517E-06
            5423            5486     53.9706E-06     64.6713E-06
            5423            5487     80.2741E-06     86.4552E-06
            5424             880     125.600E-06     126.342E-06
            5424             881     79.8518E-06     85.7055E-06
            5424            5487     80.2741E-06     86.4552E-06
            5424            5488     126.241E-06     130.836E-06
            5425             879     169.796E-06     167.921E-06
            5425             880     125.600E-06     126.342E-06
            5425            5488     126.241E-06     130.836E-06
            5425            5489     170.740E-06     170.661E-06
            5426             878     203.969E-06     201.745E-06
            5426             879     169.796E-06     167.921E-06
            5426            5489     170.740E-06     170.661E-06
            5426            5490     205.147E-06     203.518E-06
            5427             877     228.469E-06     226.737E-06
            5427             878     203.969E-06     201.745E-06
            5427            5490     205.147E-06     203.518E-06
            5427            5491     229.740E-06     227.848E-06
            5428             876     242.995E-06     241.868E-06
            5428             877     228.469E-06     226.737E-06
            5428            5491     229.740E-06     227.848E-06
            5428            5492     244.303E-06     242.624E-06
            5429              35     247.946E-06     246.905E-06
            5429             875     249.081E-06     247.685E-06
            5429             876     242.995E-06     241.868E-06
            5429            5492     244.303E-06     242.624E-06
            6151              27     133.830E-03     133.222E-03
            6151             631     131.471E-03     130.879E-03
            6151             870     250.399E-06     245.101E-06
            6151            6115     247.300E-06     242.585E-06
            6152             630     124.648E-03     123.795E-03
            6152             631     131.471E-03     130.879E-03
            6152            6115     247.300E-06     242.585E-06
            6152            6116     239.024E-06     235.767E-06
            6153             629     112.404E-03     111.315E-03
            6153             630     124.648E-03     123.795E-03
            6153            6116     239.024E-06     235.767E-06
            6153            6117     227.209E-06     224.355E-06
            6154             628     96.4486E-03     95.1941E-03
            6154             629     112.404E-03     111.315E-03
            6154            6117     227.209E-06     224.355E-06
            6154            6118     213.881E-06     209.792E-06
            6155             627     75.7516E-03     73.8622E-03
            6155             628     96.4486E-03     95.1941E-03
            6155            6118     213.881E-06     209.792E-06
            6155            6119     197.878E-06     195.534E-06
            6156             626     52.3066E-03     49.3711E-03
            6156             627     75.7516E-03     73.8622E-03
            6156            6119     197.878E-06     195.534E-06
            6156            6120     192.652E-06     194.776E-06
            6157             625     30.6262E-03     39.6212E-03
            6157             626     52.3066E-03     49.3711E-03
            6157            6120     192.652E-06     194.776E-06
            6157            6121     222.955E-06     224.404E-06
            6158              26     19.6792E-03     41.2394E-03
            6158             625     30.6262E-03     39.6212E-03
            6158             858     249.170E-06     247.985E-06
            6158            6121     222.955E-06     224.404E-06
            6159             870     250.399E-06     245.101E-06
            6159             871     251.096E-06     249.404E-06
            6159            6115     247.300E-06     242.585E-06
            6159            6122     248.017E-06     245.973E-06
            6160            6115     247.300E-06     242.585E-06
            6160            6116     239.024E-06     235.767E-06
            6160            6122     248.017E-06     245.973E-06
            6160            6123     238.982E-06     236.107E-06
            6161            6116     239.024E-06     235.767E-06
            6161            6117     227.209E-06     224.355E-06
            6161            6123     238.982E-06     236.107E-06
            6161            6124     226.377E-06     220.574E-06
            6162            6117     227.209E-06     224.355E-06
            6162            6118     213.881E-06     209.792E-06
            6162            6124     226.377E-06     220.574E-06
            6162            6125     210.786E-06     198.062E-06
            6163            6118     213.881E-06     209.792E-06
            6163            6119     197.878E-06     195.534E-06
            6163            6125     210.786E-06     198.062E-06
            6163            6126     192.453E-06     172.984E-06
            6164            6119     197.878E-06     195.534E-06
            6164            6120     192.652E-06     194.776E-06
            6164            6126     192.453E-06     172.984E-06
            6164            6127     181.695E-06     161.428E-06
            6165            6120     192.652E-06     194.776E-06
            6165            6121     222.955E-06     224.404E-06
            6165            6127     181.695E-06     161.428E-06
            6165            6128     188.152E-06     171.780E-06
            6166             857     195.976E-06     182.025E-06
            6166             858     249.170E-06     247.985E-06
            6166            6121     222.955E-06     224.404E-06
            6166            6128     188.152E-06     171.780E-06
            6167             871     251.096E-06     249.404E-06
            6167             872     248.849E-06     248.930E-06
            6167            6122     248.017E-06     245.973E-06
            6167            6129     244.701E-06     245.192E-06
            6168            6122     248.017E-06     245.973E-06
            6168            6123     238.982E-06     236.107E-06
            6168            6129     244.701E-06     245.192E-06
            6168            6130     232.808E-06     234.287E-06
            6169            6123     238.982E-06     236.107E-06
            6169            6124     226.377E-06     220.574E-06
            6169            6130     232.808E-06     234.287E-06
            6169            6131     213.553E-06     216.966E-06
            6170            6124     226.377E-06     220.574E-06
            6170            6125     210.786E-06     198.062E-06
            6170            6131     213.553E-06     216.966E-06
            6170            6132     187.740E-06     193.776E-06
            6171            6125     210.786E-06     198.062E-06
            6171            6126     192.453E-06     172.984E-06
            6171            6132     187.740E-06     193.776E-06
            6171            6133     157.507E-06     166.221E-06
            6172            6126     192.453E-06     172.984E-06
            6172            6127     181.695E-06     161.428E-06
            6172            6133     157.507E-06     166.221E-06
            6172            6134     127.072E-06     141.144E-06
            6173            6127     181.695E-06     161.428E-06
            6173            6128     188.152E-06     171.780E-06
            6173            6134     127.072E-06     141.144E-06
            6173            6135     118.637E-06     134.239E-06
            6174             856     124.707E-06     137.891E-06
            6174             857     195.976E-06     182.025E-06
            6174            6128     188.152E-06     171.780E-06
            6174            6135     118.637E-06     134.239E-06
            6175             872     248.849E-06     248.930E-06
            6175             873     249.443E-06     248.567E-06
            6175            6129     244.701E-06     245.192E-06
            6175            6136     245.073E-06     244.116E-06
            6176            6129     244.701E-06     245.192E-06
            6176            6130     232.808E-06     234.287E-06
            6176            6136     245.073E-06     244.116E-06
            6176            6137     232.117E-06     230.777E-06
            6177            6130     232.808E-06     234.287E-06
            6177            6131     213.553E-06     216.966E-06
            6177            6137     232.117E-06     230.777E-06
            6177            6138     209.960E-06     209.185E-06
            6178            6131     213.553E-06     216.966E-06
            6178            6132     187.740E-06     193.776E-06
            6178            6138     209.960E-06     209.185E-06
            6178            6139     180.076E-06     181.538E-06
            6179            6132     187.740E-06     193.776E-06
            6179            6133     157.507E-06     166.221E-06
            6179            6139     180.076E-06     181.538E-06
            6179            6140     145.215E-06     145.277E-06
            6180            6133     157.507E-06     166.221E-06
            6180            6134     127.072E-06     141.144E-06
            6180            6140     145.215E-06     145.277E-06
            6180            6141     105.409E-06     100.070E-06
            6181            6134     127.072E-06     141.144E-06
            6181            6135     118.637E-06     134.239E-06
            6181            6141     105.409E-06     100.070E-06
            6181            6142     84.8666E-06     77.8539E-06
            6182             855     85.5831E-06     79.5244E-06
            6182             856     124.707E-06     137.891E-06
            6182            6135     118.637E-06     134.239E-06
            6182            6142     84.8666E-06     77.8539E-06
            6183             873     249.443E-06     248.567E-06
            6183             874     249.907E-06     248.899E-06
            6183            6136     245.073E-06     244.116E-06
            6183            6143     245.409E-06     244.084E-06
            6184            6136     245.073E-06     244.116E-06
            6184            6137     232.117E-06     230.777E-06
            6184            6143     245.409E-06     244.084E-06
            6184            6144     231.299E-06     229.632E-06
            6185            6137     232.117E-06     230.777E-06
            6185            6138     209.960E-06     209.185E-06
            6185            6144     231.299E-06     229.632E-06
            6185            6145     207.518E-06     206.516E-06
            6186            6138     209.960E-06     209.185E-06
            6186            6139     180.076E-06     181.538E-06
            6186            6145     207.518E-06     206.516E-06
            6186            6146     174.110E-06     175.457E-06
            6187            6139     180.076E-06     181.538E-06
            6187            6140     145.215E-06     145.277E-06
            6187            6146     174.110E-06     175.457E-06
            6187            6147     133.461E-06     137.383E-06
            6188            6140     145.215E-06     145.277E-06
            6188            6141     105.409E-06     100.070E-06
            6188            6147     133.461E-06     137.383E-06
            6188            6148     87.7494E-06     87.2977E-06
            6189            6141     105.409E-06     100.070E-06
            6189            6142     84.8666E-06     77.8539E-06
            6189            6148     87.7494E-06     87.2977E-06
            6189            6149     57.1211E-06     52.9642E-06
            6190             854     50.7952E-06     48.2245E-06
            6190             855     85.5831E-06     79.5244E-06
            6190            6142     84.8666E-06     77.8539E-06
            6190            6149     57.1211E-06     52.9642E-06
            6191             874     249.907E-06     248.899E-06
            6191             875     249.081E-06     247.685E-06
            6191            6143     245.409E-06     244.084E-06
            6191            6150     244.303E-06     242.624E-06
            6192            6143     245.409E-06     244.084E-06
            6192            6144     231.299E-06     229.632E-06
            6192            6150     244.303E-06     242.624E-06
            6192            6151     229.740E-06     227.848E-06
            6193            6144     231.299E-06     229.632E-06
            6193            6145     207.518E-06     206.516E-06
            6193            6151     229.740E-06     227.848E-06
            6193            6152     205.147E-06     203.518E-06
            6194            6145     207.518E-06     206.516E-06
            6194            6146     174.110E-06     175.457E-06
            6194            6152     205.147E-06     203.518E-06
            6194            6153     170.740E-06     170.661E-06
            6195            6146     174.110E-06     175.457E-06
            6195            6147     133.461E-06     137.383E-06
            6195            6153     170.740E-06     170.661E-06
            6195            6154     126.241E-06     130.836E-06
            6196            6147     133.461E-06     137.383E-06
            6196            6148     87.7494E-06     87.2977E-06
            6196            6154     126.241E-06     130.836E-06
            6196            6155     80.2741E-06     86.4552E-06
            6197            6148     87.7494E-06     87.2977E-06
            6197            6149     57.1211E-06     52.9642E-06
            6197            6155     80.2741E-06     86.4552E-06
            6197            6156     53.9706E-06     64.6713E-06
            6198             853     48.7349E-06     65.6842E-06
            6198             854     50.7952E-06     48.2245E-06
            6198            6149     57.1211E-06     52.9642E-06
            6198            6156     53.9706E-06     64.6713E-06
            6199              35     247.946E-06     246.905E-06
            6199             875     249.081E-06     247.685E-06
            6199             904     242.995E-06     241.868E-06
            6199            6150     244.303E-06     242.624E-06
            6200             903     228.469E-06     226.737E-06
            6200             904     242.995E-06     241.868E-06
            6200            6150     244.303E-06     242.624E-06
            6200            6151     229.740E-06     227.848E-06
            6201             902     203.969E-06     201.745E-06
            6201             903     228.469E-06     226.737E-06
            6201            6151     229.740E-06     227.848E-06
            6201            6152     205.147E-06     203.518E-06
            6202             901     169.796E-06     167.921E-06
            6202             902     203.969E-06     201.745E-06
            6202            6152     205.147E-06     203.518E-06
            6202            6153     170.740E-06     170.661E-06
            6203             900     125.600E-06     126.342E-06
            6203             901     169.796E-06     167.921E-06
            6203            6153     170.740E-06     170.661E-06
            6203            6154     126.241E-06     130.836E-06
            6204             899     79.8518E-06     85.7055E-06
            6204             900     125.600E-06     126.342E-06
            6204            6154     126.241E-06     130.836E-06
            6204            6155     80.2741E-06     86.4552E-06
            6205             898     58.3386E-06     80.5517E-06
            6205             899     79.8518E-06     85.7055E-06
            6205            6155     80.2741E-06     86.4552E-06
            6205            6156     53.9706E-06     64.6713E-06
            6206              34     57.6266E-06     93.3794E-06
            6206             853     48.7349E-06     65.6842E-06
            6206             898     58.3386E-06     80.5517E-06
            6206            6156     53.9706E-06     64.6713E-06


  Minimum                            48.2514E-06     48.2245E-06
      At Element                            2753            6198
            Node                             188             854

  Maximum                                1.14619         1.12095
      At Element                            3763            3755
            Node                             528              16

           Total                     2.36986E+03     2.39965E+03


Field Output reported at element nodes for region: DO228-1.Region_2
   Computation algorithm: EXTRAPOLATE_COMPUTE_AVERAGE
   Averaged at nodes
   Averaging regions: ODB_REGIONS

   Element Label      Node Label         S.Mises         S.Mises
                                          @Loc 1          @Loc 2
-----------------------------------------------------------------
            1417               2     60.3515E-03     60.1906E-03
            1417             217     291.212E-06     284.449E-06
            1417             352     68.6211E-03     68.5879E-03
            1417            2159     281.567E-06     278.681E-06
            1418             352     68.6211E-03     68.5879E-03
            1418             353     78.7025E-03     78.5241E-03
            1418            2159     281.567E-06     278.681E-06
            1418            2160     263.299E-06     264.695E-06
            1419             353     78.7025E-03     78.5241E-03
            1419             354     82.9207E-03     82.6849E-03
            1419            2160     263.299E-06     264.695E-06
            1419            2161     255.166E-06     257.099E-06
            1420             354     82.9207E-03     82.6849E-03
            1420             355     85.1339E-03     85.1405E-03
            1420            2161     255.166E-06     257.099E-06
            1420            2162     255.195E-06     257.255E-06
            1421              13     84.9398E-03     84.9734E-03
            1421             355     85.1339E-03     85.1405E-03
            1421             356     254.733E-06     256.787E-06
            1421            2162     255.195E-06     257.255E-06
            1422             217     291.212E-06     284.449E-06
            1422             218     229.572E-06     228.083E-06
            1422            2159     281.567E-06     278.681E-06
            1422            2163     243.601E-06     242.994E-06
            1423            2159     281.567E-06     278.681E-06
            1423            2160     263.299E-06     264.695E-06
            1423            2163     243.601E-06     242.994E-06
            1423            2164     261.865E-06     263.608E-06
            1424            2160     263.299E-06     264.695E-06
            1424            2161     255.166E-06     257.099E-06
            1424            2164     261.865E-06     263.608E-06
            1424            2165     266.826E-06     269.781E-06
            1425            2161     255.166E-06     257.099E-06
            1425            2162     255.195E-06     257.255E-06
            1425            2165     266.826E-06     269.781E-06
            1425            2166     268.892E-06     271.503E-06
            1426             356     254.733E-06     256.787E-06
            1426             357     270.232E-06     272.756E-06
            1426            2162     255.195E-06     257.255E-06
            1426            2166     268.892E-06     271.503E-06
            1427             218     229.572E-06     228.083E-06
            1427             219     191.922E-06     191.775E-06
            1427            2163     243.601E-06     242.994E-06
            1427            2167     213.105E-06     213.004E-06
            1428            2163     243.601E-06     242.994E-06
            1428            2164     261.865E-06     263.608E-06
            1428            2167     213.105E-06     213.004E-06
            1428            2168     249.354E-06     249.825E-06
            1429            2164     261.865E-06     263.608E-06
            1429            2165     266.826E-06     269.781E-06
            1429            2168     249.354E-06     249.825E-06
            1429            2169     270.272E-06     271.540E-06
            1430            2165     266.826E-06     269.781E-06
            1430            2166     268.892E-06     271.503E-06
            1430            2169     270.272E-06     271.540E-06
            1430            2170     277.508E-06     278.898E-06
            1431             357     270.232E-06     272.756E-06
            1431             358     278.891E-06     280.133E-06
            1431            2166     268.892E-06     271.503E-06
            1431            2170     277.508E-06     278.898E-06
            1432             219     191.922E-06     191.775E-06
            1432             220     168.580E-06     170.196E-06
            1432            2167     213.105E-06     213.004E-06
            1432            2171     196.562E-06     198.091E-06
            1433            2167     213.105E-06     213.004E-06
            1433            2168     249.354E-06     249.825E-06
            1433            2171     196.562E-06     198.091E-06
            1433            2172     242.577E-06     242.960E-06
            1434            2168     249.354E-06     249.825E-06
            1434            2169     270.272E-06     271.540E-06
            1434            2172     242.577E-06     242.960E-06
            1434            2173     268.403E-06     267.736E-06
            1435            2169     270.272E-06     271.540E-06
            1435            2170     277.508E-06     278.898E-06
            1435            2173     268.403E-06     267.736E-06
            1435            2174     277.938E-06     277.318E-06
            1436             358     278.891E-06     280.133E-06
            1436             359     279.679E-06     279.098E-06
            1436            2170     277.508E-06     278.898E-06
            1436            2174     277.938E-06     277.318E-06
            1437             220     168.580E-06     170.196E-06
            1437             221     157.331E-06     161.982E-06
            1437            2171     196.562E-06     198.091E-06
            1437            2175     192.064E-06     194.457E-06
            1438            2171     196.562E-06     198.091E-06
            1438            2172     242.577E-06     242.960E-06
            1438            2175     192.064E-06     194.457E-06
            1438            2176     242.629E-06     241.962E-06
            1439            2172     242.577E-06     242.960E-06
            1439            2173     268.403E-06     267.736E-06
            1439            2176     242.629E-06     241.962E-06
            1439            2177     263.521E-06     261.781E-06
            1440            2173     268.403E-06     267.736E-06
            1440            2174     277.938E-06     277.318E-06
            1440            2177     263.521E-06     261.781E-06
            1440            2178     271.366E-06     269.413E-06
            1441             359     279.679E-06     279.098E-06
            1441             360     274.155E-06     272.257E-06
            1441            2174     277.938E-06     277.318E-06
            1441            2178     271.366E-06     269.413E-06
            1442             221     157.331E-06     161.982E-06
            1442             222     170.799E-06     174.712E-06
            1442            2175     192.064E-06     194.457E-06
            1442            2179     199.874E-06     201.466E-06
            1443            2175     192.064E-06     194.457E-06
            1443            2176     242.629E-06     241.962E-06
            1443            2179     199.874E-06     201.466E-06
            1443            2180     238.165E-06     236.898E-06
            1444            2176     242.629E-06     241.962E-06
            1444            2177     263.521E-06     261.781E-06
            1444            2180     238.165E-06     236.898E-06
            1444            2181     254.454E-06     252.676E-06
            1445            2177     263.521E-06     261.781E-06
            1445            2178     271.366E-06     269.413E-06
            1445            2181     254.454E-06     252.676E-06
            1445            2182     263.966E-06     262.242E-06
            1446             360     274.155E-06     272.257E-06
            1446             361     266.406E-06     264.707E-06
            1446            2178     271.366E-06     269.413E-06
            1446            2182     263.966E-06     262.242E-06
            1447               9     181.776E-06     184.191E-06
            1447             222     170.799E-06     174.712E-06
            1447             365     204.260E-06     205.128E-06
            1447            2179     199.874E-06     201.466E-06
            1448             364     233.383E-06     232.316E-06
            1448             365     204.260E-06     205.128E-06
            1448            2179     199.874E-06     201.466E-06
            1448            2180     238.165E-06     236.898E-06
            1449             363     249.115E-06     247.726E-06
            1449             364     233.383E-06     232.316E-06
            1449            2180     238.165E-06     236.898E-06
            1449            2181     254.454E-06     252.676E-06
            1450             362     260.661E-06     259.459E-06
            1450             363     249.115E-06     247.726E-06
            1450            2181     254.454E-06     252.676E-06
            1450            2182     263.966E-06     262.242E-06
            1451              14     263.114E-06     262.034E-06
            1451             361     266.406E-06     264.707E-06
            1451             362     260.661E-06     259.459E-06
            1451            2182     263.966E-06     262.242E-06
            1452               5     60.2149E-03     60.0585E-03
            1452             243     114.010E-03     115.082E-03
            1452             366     68.5339E-03     68.4995E-03
            1452            2183     135.476E-03     135.552E-03
            1453             366     68.5339E-03     68.4995E-03
            1453             367     78.6781E-03     78.4943E-03
            1453            2183     135.476E-03     135.552E-03
            1453            2184     161.725E-03     161.046E-03
            1454             367     78.6781E-03     78.4943E-03
            1454             368     82.9146E-03     82.6765E-03
            1454            2184     161.725E-03     161.046E-03
            1454            2185     167.994E-03     167.753E-03
            1455             368     82.9146E-03     82.6765E-03
            1455             369     85.1325E-03     85.1388E-03
            1455            2185     167.994E-03     167.753E-03
            1455            2186     169.267E-03     169.279E-03
            1456              13     84.9398E-03     84.9734E-03
            1456             369     85.1325E-03     85.1388E-03
            1456             370     169.052E-03     169.120E-03
            1456            2186     169.267E-03     169.279E-03
            1457             243     114.010E-03     115.082E-03
            1457             244     116.145E-03     117.462E-03
            1457            2183     135.476E-03     135.552E-03
            1457            2187     139.686E-03     139.993E-03
            1458            2183     135.476E-03     135.552E-03
            1458            2184     161.725E-03     161.046E-03
            1458            2187     139.686E-03     139.993E-03
            1458            2188     167.376E-03     167.233E-03
            1459            2184     161.725E-03     161.046E-03
            1459            2185     167.994E-03     167.753E-03
            1459            2188     167.376E-03     167.233E-03
            1459            2189     169.747E-03     169.993E-03
            1460            2185     167.994E-03     167.753E-03
            1460            2186     169.267E-03     169.279E-03
            1460            2189     169.747E-03     169.993E-03
            1460            2190     167.715E-03     167.773E-03
            1461             370     169.052E-03     169.120E-03
            1461             371     167.456E-03     167.497E-03
            1461            2186     169.267E-03     169.279E-03
            1461            2190     167.715E-03     167.773E-03
            1462             244     116.145E-03     117.462E-03
            1462             245     143.287E-03     141.856E-03
            1462            2187     139.686E-03     139.993E-03
            1462            2191     153.437E-03     153.283E-03
            1463            2187     139.686E-03     139.993E-03
            1463            2188     167.376E-03     167.233E-03
            1463            2191     153.437E-03     153.283E-03
            1463            2192     164.317E-03     165.114E-03
            1464            2188     167.376E-03     167.233E-03
            1464            2189     169.747E-03     169.993E-03
            1464            2192     164.317E-03     165.114E-03
            1464            2193     165.509E-03     165.835E-03
            1465            2189     169.747E-03     169.993E-03
            1465            2190     167.715E-03     167.773E-03
            1465            2193     165.509E-03     165.835E-03
            1465            2194     165.205E-03     165.301E-03
            1466             371     167.456E-03     167.497E-03
            1466             372     164.432E-03     164.440E-03
            1466            2190     167.715E-03     167.773E-03
            1466            2194     165.205E-03     165.301E-03
            1467             245     143.287E-03     141.856E-03
            1467             246     131.094E-03     129.797E-03
            1467            2191     153.437E-03     153.283E-03
            1467            2195     143.371E-03     141.670E-03
            1468            2191     153.437E-03     153.283E-03
            1468            2192     164.317E-03     165.114E-03
            1468            2195     143.371E-03     141.670E-03
            1468            2196     158.296E-03     156.187E-03
            1469            2192     164.317E-03     165.114E-03
            1469            2193     165.509E-03     165.835E-03
            1469            2196     158.296E-03     156.187E-03
            1469            2197     164.727E-03     162.872E-03
            1470            2193     165.509E-03     165.835E-03
            1470            2194     165.205E-03     165.301E-03
            1470            2197     164.727E-03     162.872E-03
            1470            2198     168.767E-03     167.337E-03
            1471             372     164.432E-03     164.440E-03
            1471             373     169.016E-03     167.756E-03
            1471            2194     165.205E-03     165.301E-03
            1471            2198     168.767E-03     167.337E-03
            1472             246     131.094E-03     129.797E-03
            1472             247     106.937E-03     112.033E-03
            1472            2195     143.371E-03     141.670E-03
            1472            2199     130.450E-03     131.250E-03
            1473            2195     143.371E-03     141.670E-03
            1473            2196     158.296E-03     156.187E-03
            1473            2199     130.450E-03     131.250E-03
            1473            2200     160.357E-03     156.344E-03
            1474            2196     158.296E-03     156.187E-03
            1474            2197     164.727E-03     162.872E-03
            1474            2200     160.357E-03     156.344E-03
            1474            2201     170.358E-03     165.915E-03
            1475            2197     164.727E-03     162.872E-03
            1475            2198     168.767E-03     167.337E-03
            1475            2201     170.358E-03     165.915E-03
            1475            2202     175.171E-03     170.958E-03
            1476             373     169.016E-03     167.756E-03
            1476             374     176.370E-03     172.301E-03
            1476            2198     168.767E-03     167.337E-03
            1476            2202     175.171E-03     170.958E-03
            1477             247     106.937E-03     112.033E-03
            1477             248     123.236E-03     129.487E-03
            1477            2199     130.450E-03     131.250E-03
            1477            2203     140.387E-03     144.353E-03
            1478            2199     130.450E-03     131.250E-03
            1478            2200     160.357E-03     156.344E-03
            1478            2203     140.387E-03     144.353E-03
            1478            2204     165.719E-03     164.877E-03
            1479            2200     160.357E-03     156.344E-03
            1479            2201     170.358E-03     165.915E-03
            1479            2204     165.719E-03     164.877E-03
            1479            2205     175.938E-03     171.805E-03
            1480            2201     170.358E-03     165.915E-03
            1480            2202     175.171E-03     170.958E-03
            1480            2205     175.938E-03     171.805E-03
            1480            2206     178.847E-03     173.574E-03
            1481             374     176.370E-03     172.301E-03
            1481             375     179.709E-03     174.063E-03
            1481            2202     175.171E-03     170.958E-03
            1481            2206     178.847E-03     173.574E-03
            1482             248     123.236E-03     129.487E-03
            1482             249     143.111E-03     144.966E-03
            1482            2203     140.387E-03     144.353E-03
            1482            2207     152.378E-03     154.870E-03
            1483            2203     140.387E-03     144.353E-03
            1483            2204     165.719E-03     164.877E-03
            1483            2207     152.378E-03     154.870E-03
            1483            2208     169.364E-03     170.665E-03
            1484            2204     165.719E-03     164.877E-03
            1484            2205     175.938E-03     171.805E-03
            1484            2208     169.364E-03     170.665E-03
            1484            2209     180.061E-03     178.024E-03
            1485            2205     175.938E-03     171.805E-03
            1485            2206     178.847E-03     173.574E-03
            1485            2209     180.061E-03     178.024E-03
            1485            2210     183.811E-03     179.657E-03
            1486             375     179.709E-03     174.063E-03
            1486             376     184.566E-03     179.806E-03
            1486            2206     178.847E-03     173.574E-03
            1486            2210     183.811E-03     179.657E-03
            1487             249     143.111E-03     144.966E-03
            1487             250     163.672E-03     163.443E-03
            1487            2207     152.378E-03     154.870E-03
            1487            2211     167.247E-03     167.927E-03
            1488            2207     152.378E-03     154.870E-03
            1488            2208     169.364E-03     170.665E-03
            1488            2211     167.247E-03     167.927E-03
            1488            2212     175.499E-03     176.650E-03
            1489            2208     169.364E-03     170.665E-03
            1489            2209     180.061E-03     178.024E-03
            1489            2212     175.499E-03     176.650E-03
            1489            2213     183.424E-03     183.109E-03
            1490            2209     180.061E-03     178.024E-03
            1490            2210     183.811E-03     179.657E-03
            1490            2213     183.424E-03     183.109E-03
            1490            2214     187.542E-03     185.526E-03
            1491             376     184.566E-03     179.806E-03
            1491             377     188.393E-03     185.702E-03
            1491            2210     183.811E-03     179.657E-03
            1491            2214     187.542E-03     185.526E-03
            1492             250     163.672E-03     163.443E-03
            1492             251     184.543E-03     182.645E-03
            1492            2211     167.247E-03     167.927E-03
            1492            2215     183.696E-03     182.983E-03
            1493            2211     167.247E-03     167.927E-03
            1493            2212     175.499E-03     176.650E-03
            1493            2215     183.696E-03     182.983E-03
            1493            2216     184.534E-03     185.242E-03
            1494            2212     175.499E-03     176.650E-03
            1494            2213     183.424E-03     183.109E-03
            1494            2216     184.534E-03     185.242E-03
            1494            2217     187.385E-03     188.058E-03
            1495            2213     183.424E-03     183.109E-03
            1495            2214     187.542E-03     185.526E-03
            1495            2217     187.385E-03     188.058E-03
            1495            2218     189.562E-03     189.762E-03
            1496             377     188.393E-03     185.702E-03
            1496             378     190.549E-03     190.546E-03
            1496            2214     187.542E-03     185.526E-03
            1496            2218     189.562E-03     189.762E-03
            1497             251     184.543E-03     182.645E-03
            1497             252     207.464E-03     204.475E-03
            1497            2215     183.696E-03     182.983E-03
            1497            2219     202.304E-03     200.536E-03
            1498            2215     183.696E-03     182.983E-03
            1498            2216     184.534E-03     185.242E-03
            1498            2219     202.304E-03     200.536E-03
            1498            2220     194.675E-03     194.901E-03
            1499            2216     184.534E-03     185.242E-03
            1499            2217     187.385E-03     188.058E-03
            1499            2220     194.675E-03     194.901E-03
            1499            2221     191.770E-03     193.447E-03
            1500            2217     187.385E-03     188.058E-03
            1500            2218     189.562E-03     189.762E-03
            1500            2221     191.770E-03     193.447E-03
            1500            2222     190.469E-03     193.028E-03
            1501             378     190.549E-03     190.546E-03
            1501             379     189.576E-03     192.338E-03
            1501            2218     189.562E-03     189.762E-03
            1501            2222     190.469E-03     193.028E-03
            1502             252     207.464E-03     204.475E-03
            1502             253     230.032E-03     226.867E-03
            1502            2219     202.304E-03     200.536E-03
            1502            2223     221.420E-03     219.189E-03
            1503            2219     202.304E-03     200.536E-03
            1503            2220     194.675E-03     194.901E-03
            1503            2223     221.420E-03     219.189E-03
            1503            2224     207.077E-03     207.687E-03
            1504            2220     194.675E-03     194.901E-03
            1504            2221     191.770E-03     193.447E-03
            1504            2224     207.077E-03     207.687E-03
            1504            2225     195.818E-03     199.367E-03
            1505            2221     191.770E-03     193.447E-03
            1505            2222     190.469E-03     193.028E-03
            1505            2225     195.818E-03     199.367E-03
            1505            2226     187.707E-03     192.476E-03
            1506             379     189.576E-03     192.338E-03
            1506             380     185.094E-03     190.049E-03
            1506            2222     190.469E-03     193.028E-03
            1506            2226     187.707E-03     192.476E-03
            1507             253     230.032E-03     226.867E-03
            1507             254     260.997E-03     257.923E-03
            1507            2223     221.420E-03     219.189E-03
            1507            2227     247.974E-03     246.805E-03
            1508            2223     221.420E-03     219.189E-03
            1508            2224     207.077E-03     207.687E-03
            1508            2227     247.974E-03     246.805E-03
            1508            2228     219.563E-03     222.002E-03
            1509            2224     207.077E-03     207.687E-03
            1509            2225     195.818E-03     199.367E-03
            1509            2228     219.563E-03     222.002E-03
            1509            2229     193.955E-03     198.495E-03
            1510            2225     195.818E-03     199.367E-03
            1510            2226     187.707E-03     192.476E-03
            1510            2229     193.955E-03     198.495E-03
            1510            2230     179.623E-03     185.027E-03
            1511             380     185.094E-03     190.049E-03
            1511             381     175.475E-03     181.346E-03
            1511            2226     187.707E-03     192.476E-03
            1511            2230     179.623E-03     185.027E-03
            1512             254     260.997E-03     257.923E-03
            1512             255     306.134E-03     296.715E-03
            1512            2227     247.974E-03     246.805E-03
            1512            2231     274.991E-03     269.444E-03
            1513            2227     247.974E-03     246.805E-03
            1513            2228     219.563E-03     222.002E-03
            1513            2231     274.991E-03     269.444E-03
            1513            2232     219.414E-03     218.561E-03
            1514            2228     219.563E-03     222.002E-03
            1514            2229     193.955E-03     198.495E-03
            1514            2232     219.414E-03     218.561E-03
            1514            2233     183.626E-03     184.873E-03
            1515            2229     193.955E-03     198.495E-03
            1515            2230     179.623E-03     185.027E-03
            1515            2233     183.626E-03     184.873E-03
            1515            2234     165.802E-03     169.081E-03
            1516             381     175.475E-03     181.346E-03
            1516             382     159.296E-03     163.330E-03
            1516            2230     179.623E-03     185.027E-03
            1516            2234     165.802E-03     169.081E-03
            1517             255     306.134E-03     296.715E-03
            1517             256     265.593E-03     246.406E-03
            1517            2231     274.991E-03     269.444E-03
            1517            2235     246.512E-03     228.710E-03
            1518            2231     274.991E-03     269.444E-03
            1518            2232     219.414E-03     218.561E-03
            1518            2235     246.512E-03     228.710E-03
            1518            2236     212.513E-03     199.406E-03
            1519            2232     219.414E-03     218.561E-03
            1519            2233     183.626E-03     184.873E-03
            1519            2236     212.513E-03     199.406E-03
            1519            2237     189.147E-03     181.837E-03
            1520            2233     183.626E-03     184.873E-03
            1520            2234     165.802E-03     169.081E-03
            1520            2237     189.147E-03     181.837E-03
            1520            2238     175.482E-03     172.181E-03
            1521             382     159.296E-03     163.330E-03
            1521             383     170.232E-03     168.458E-03
            1521            2234     165.802E-03     169.081E-03
            1521            2238     175.482E-03     172.181E-03
            1522             256     265.593E-03     246.406E-03
            1522             257     222.985E-03     217.325E-03
            1522            2235     246.512E-03     228.710E-03
            1522            2239     224.288E-03     215.324E-03
            1523            2235     246.512E-03     228.710E-03
            1523            2236     212.513E-03     199.406E-03
            1523            2239     224.288E-03     215.324E-03
            1523            2240     218.251E-03     205.575E-03
            1524            2236     212.513E-03     199.406E-03
            1524            2237     189.147E-03     181.837E-03
            1524            2240     218.251E-03     205.575E-03
            1524            2241     203.427E-03     191.580E-03
            1525            2237     189.147E-03     181.837E-03
            1525            2238     175.482E-03     172.181E-03
            1525            2241     203.427E-03     191.580E-03
            1525            2242     191.422E-03     181.515E-03
            1526             383     170.232E-03     168.458E-03
            1526             384     186.875E-03     177.671E-03
            1526            2238     175.482E-03     172.181E-03
            1526            2242     191.422E-03     181.515E-03
            1527             257     222.985E-03     217.325E-03
            1527             258     262.011E-03     267.077E-03
            1527            2239     224.288E-03     215.324E-03
            1527            2243     251.972E-03     257.259E-03
            1528            2239     224.288E-03     215.324E-03
            1528            2240     218.251E-03     205.575E-03
            1528            2243     251.972E-03     257.259E-03
            1528            2244     231.040E-03     231.219E-03
            1529            2240     218.251E-03     205.575E-03
            1529            2241     203.427E-03     191.580E-03
            1529            2244     231.040E-03     231.219E-03
            1529            2245     208.762E-03     201.174E-03
            1530            2241     203.427E-03     191.580E-03
            1530            2242     191.422E-03     181.515E-03
            1530            2245     208.762E-03     201.174E-03
            1530            2246     190.374E-03     179.115E-03
            1531             384     186.875E-03     177.671E-03
            1531             385     183.338E-03     170.842E-03
            1531            2242     191.422E-03     181.515E-03
            1531            2246     190.374E-03     179.115E-03
            1532             258     262.011E-03     267.077E-03
            1532             259     291.259E-03     290.227E-03
            1532            2243     251.972E-03     257.259E-03
            1532            2247     273.560E-03     276.042E-03
            1533            2243     251.972E-03     257.259E-03
            1533            2244     231.040E-03     231.219E-03
            1533            2247     273.560E-03     276.042E-03
            1533            2248     241.998E-03     245.756E-03
            1534            2244     231.040E-03     231.219E-03
            1534            2245     208.762E-03     201.174E-03
            1534            2248     241.998E-03     245.756E-03
            1534            2249     215.047E-03     212.611E-03
            1535            2245     208.762E-03     201.174E-03
            1535            2246     190.374E-03     179.115E-03
            1535            2249     215.047E-03     212.611E-03
            1535            2250     193.780E-03     185.170E-03
            1536             385     183.338E-03     170.842E-03
            1536             386     185.560E-03     174.727E-03
            1536            2246     190.374E-03     179.115E-03
            1536            2250     193.780E-03     185.170E-03
            1537             259     291.259E-03     290.227E-03
            1537             260     317.259E-03     314.295E-03
            1537            2247     273.560E-03     276.042E-03
            1537            2251     294.576E-03     294.000E-03
            1538            2247     273.560E-03     276.042E-03
            1538            2248     241.998E-03     245.756E-03
            1538            2251     294.576E-03     294.000E-03
            1538            2252     253.666E-03     255.704E-03
            1539            2248     241.998E-03     245.756E-03
            1539            2249     215.047E-03     212.611E-03
            1539            2252     253.666E-03     255.704E-03
            1539            2253     221.079E-03     220.981E-03
            1540            2249     215.047E-03     212.611E-03
            1540            2250     193.780E-03     185.170E-03
            1540            2253     221.079E-03     220.981E-03
            1540            2254     197.964E-03     193.309E-03
            1541             386     185.560E-03     174.727E-03
            1541             387     189.166E-03     182.310E-03
            1541            2250     193.780E-03     185.170E-03
            1541            2254     197.964E-03     193.309E-03
            1542             260     317.259E-03     314.295E-03
            1542             261     341.379E-03     336.573E-03
            1542            2251     294.576E-03     294.000E-03
            1542            2255     314.839E-03     312.443E-03
            1543            2251     294.576E-03     294.000E-03
            1543            2252     253.666E-03     255.704E-03
            1543            2255     314.839E-03     312.443E-03
            1543            2256     266.512E-03     267.229E-03
            1544            2252     253.666E-03     255.704E-03
            1544            2253     221.079E-03     220.981E-03
            1544            2256     266.512E-03     267.229E-03
            1544            2257     228.198E-03     229.034E-03
            1545            2253     221.079E-03     220.981E-03
            1545            2254     197.964E-03     193.309E-03
            1545            2257     228.198E-03     229.034E-03
            1545            2258     201.845E-03     200.846E-03
            1546             387     189.166E-03     182.310E-03
            1546             388     191.971E-03     189.717E-03
            1546            2254     197.964E-03     193.309E-03
            1546            2258     201.845E-03     200.846E-03
            1547             261     341.379E-03     336.573E-03
            1547             262     364.665E-03     359.175E-03
            1547            2255     314.839E-03     312.443E-03
            1547            2259     335.212E-03     331.783E-03
            1548            2255     314.839E-03     312.443E-03
            1548            2256     266.512E-03     267.229E-03
            1548            2259     335.212E-03     331.783E-03
            1548            2260     280.697E-03     280.874E-03
            1549            2256     266.512E-03     267.229E-03
            1549            2257     228.198E-03     229.034E-03
            1549            2260     280.697E-03     280.874E-03
            1549            2261     235.662E-03     237.738E-03
            1550            2257     228.198E-03     229.034E-03
            1550            2258     201.845E-03     200.846E-03
            1550            2261     235.662E-03     237.738E-03
            1550            2262     204.946E-03     207.440E-03
            1551             388     191.971E-03     189.717E-03
            1551             389     194.151E-03     196.706E-03
            1551            2258     201.845E-03     200.846E-03
            1551            2262     204.946E-03     207.440E-03
            1552             262     364.665E-03     359.175E-03
            1552             263     389.366E-03     382.919E-03
            1552            2259     335.212E-03     331.783E-03
            1552            2263     356.502E-03     352.467E-03
            1553            2259     335.212E-03     331.783E-03
            1553            2260     280.697E-03     280.874E-03
            1553            2263     356.502E-03     352.467E-03
            1553            2264     294.439E-03     294.863E-03
            1554            2260     280.697E-03     280.874E-03
            1554            2261     235.662E-03     237.738E-03
            1554            2264     294.439E-03     294.863E-03
            1554            2265     243.198E-03     247.456E-03
            1555            2261     235.662E-03     237.738E-03
            1555            2262     204.946E-03     207.440E-03
            1555            2265     243.198E-03     247.456E-03
            1555            2266     207.249E-03     213.951E-03
            1556             389     194.151E-03     196.706E-03
            1556             390     193.289E-03     200.647E-03
            1556            2262     204.946E-03     207.440E-03
            1556            2266     207.249E-03     213.951E-03
            1557             263     389.366E-03     382.919E-03
            1557             264     412.371E-03     406.064E-03
            1557            2263     356.502E-03     352.467E-03
            1557            2267     376.954E-03     373.439E-03
            1558            2263     356.502E-03     352.467E-03
            1558            2264     294.439E-03     294.863E-03
            1558            2267     376.954E-03     373.439E-03
            1558            2268     309.666E-03     312.398E-03
            1559            2264     294.439E-03     294.863E-03
            1559            2265     243.198E-03     247.456E-03
            1559            2268     309.666E-03     312.398E-03
            1559            2269     249.296E-03     257.219E-03
            1560            2265     243.198E-03     247.456E-03
            1560            2266     207.249E-03     213.951E-03
            1560            2269     249.296E-03     257.219E-03
            1560            2270     204.638E-03     215.100E-03
            1561             390     193.289E-03     200.647E-03
            1561             391     188.419E-03     199.686E-03
            1561            2266     207.249E-03     213.951E-03
            1561            2270     204.638E-03     215.100E-03
            1562             264     412.371E-03     406.064E-03
            1562             265     445.162E-03     440.216E-03
            1562            2267     376.954E-03     373.439E-03
            1562            2271     405.498E-03     404.840E-03
            1563            2267     376.954E-03     373.439E-03
            1563            2268     309.666E-03     312.398E-03
            1563            2271     405.498E-03     404.840E-03
            1563            2272     322.715E-03     328.050E-03
            1564            2268     309.666E-03     312.398E-03
            1564            2269     249.296E-03     257.219E-03
            1564            2272     322.715E-03     328.050E-03
            1564            2273     246.351E-03     254.404E-03
            1565            2269     249.296E-03     257.219E-03
            1565            2270     204.638E-03     215.100E-03
            1565            2273     246.351E-03     254.404E-03
            1565            2274     194.507E-03     205.348E-03
            1566             391     188.419E-03     199.686E-03
            1566             392     175.844E-03     188.464E-03
            1566            2270     204.638E-03     215.100E-03
            1566            2274     194.507E-03     205.348E-03
            1567             265     445.162E-03     440.216E-03
            1567             266     493.115E-03     475.564E-03
            1567            2271     405.498E-03     404.840E-03
            1567            2275     431.362E-03     419.080E-03
            1568            2271     405.498E-03     404.840E-03
            1568            2272     322.715E-03     328.050E-03
            1568            2275     431.362E-03     419.080E-03
            1568            2276     317.803E-03     311.966E-03
            1569            2272     322.715E-03     328.050E-03
            1569            2273     246.351E-03     254.404E-03
            1569            2276     317.803E-03     311.966E-03
            1569            2277     231.666E-03     230.428E-03
            1570            2273     246.351E-03     254.404E-03
            1570            2274     194.507E-03     205.348E-03
            1570            2277     231.666E-03     230.428E-03
            1570            2278     174.642E-03     179.813E-03
            1571             392     175.844E-03     188.464E-03
            1571             393     151.883E-03     160.046E-03
            1571            2274     194.507E-03     205.348E-03
            1571            2278     174.642E-03     179.813E-03
            1572             266     493.115E-03     475.564E-03
            1572             267     449.272E-03     412.559E-03
            1572            2275     431.362E-03     419.080E-03
            1572            2279     396.706E-03     361.703E-03
            1573            2275     431.362E-03     419.080E-03
            1573            2276     317.803E-03     311.966E-03
            1573            2279     396.706E-03     361.703E-03
            1573            2280     306.777E-03     279.414E-03
            1574            2276     317.803E-03     311.966E-03
            1574            2277     231.666E-03     230.428E-03
            1574            2280     306.777E-03     279.414E-03
            1574            2281     239.866E-03     223.711E-03
            1575            2277     231.666E-03     230.428E-03
            1575            2278     174.642E-03     179.813E-03
            1575            2281     239.866E-03     223.711E-03
            1575            2282     191.962E-03     185.186E-03
            1576             393     151.883E-03     160.046E-03
            1576             394     173.549E-03     170.882E-03
            1576            2278     174.642E-03     179.813E-03
            1576            2282     191.962E-03     185.186E-03
            1577             267     449.272E-03     412.559E-03
            1577             268     403.304E-03     388.483E-03
            1577            2279     396.706E-03     361.703E-03
            1577            2283     374.987E-03     357.438E-03
            1578            2279     396.706E-03     361.703E-03
            1578            2280     306.777E-03     279.414E-03
            1578            2283     374.987E-03     357.438E-03
            1578            2284     316.378E-03     295.445E-03
            1579            2280     306.777E-03     279.414E-03
            1579            2281     239.866E-03     223.711E-03
            1579            2284     316.378E-03     295.445E-03
            1579            2285     259.794E-03     240.455E-03
            1580            2281     239.866E-03     223.711E-03
            1580            2282     191.962E-03     185.186E-03
            1580            2285     259.794E-03     240.455E-03
            1580            2286     217.179E-03     201.374E-03
            1581             394     173.549E-03     170.882E-03
            1581             395     200.808E-03     186.290E-03
            1581            2282     191.962E-03     185.186E-03
            1581            2286     217.179E-03     201.374E-03
            1582             268     403.304E-03     388.483E-03
            1582             269     443.764E-03     447.223E-03
            1582            2283     374.987E-03     357.438E-03
            1582            2287     407.783E-03     414.096E-03
            1583            2283     374.987E-03     357.438E-03
            1583            2284     316.378E-03     295.445E-03
            1583            2287     407.783E-03     414.096E-03
            1583            2288     335.609E-03     337.745E-03
            1584            2284     316.378E-03     295.445E-03
            1584            2285     259.794E-03     240.455E-03
            1584            2288     335.609E-03     337.745E-03
            1584            2289     266.553E-03     257.455E-03
            1585            2285     259.794E-03     240.455E-03
            1585            2286     217.179E-03     201.374E-03
            1585            2289     266.553E-03     257.455E-03
            1585            2290     211.957E-03     195.788E-03
            1586             395     200.808E-03     186.290E-03
            1586             396     190.167E-03     171.122E-03
            1586            2286     217.179E-03     201.374E-03
            1586            2290     211.957E-03     195.788E-03
            1587             269     443.764E-03     447.223E-03
            1587             270     473.957E-03     469.943E-03
            1587            2287     407.783E-03     414.096E-03
            1587            2291     431.361E-03     433.322E-03
            1588            2287     407.783E-03     414.096E-03
            1588            2288     335.609E-03     337.745E-03
            1588            2291     431.361E-03     433.322E-03
            1588            2292     350.121E-03     356.581E-03
            1589            2288     335.609E-03     337.745E-03
            1589            2289     266.553E-03     257.455E-03
            1589            2292     350.121E-03     356.581E-03
            1589            2293     274.949E-03     274.040E-03
            1590            2289     266.553E-03     257.455E-03
            1590            2290     211.957E-03     195.788E-03
            1590            2293     274.949E-03     274.040E-03
            1590            2294     214.122E-03     202.601E-03
            1591             396     190.167E-03     171.122E-03
            1591             397     189.755E-03     173.507E-03
            1591            2290     211.957E-03     195.788E-03
            1591            2294     214.122E-03     202.601E-03
            1592             270     473.957E-03     469.943E-03
            1592             271     501.783E-03     495.767E-03
            1592            2291     431.361E-03     433.322E-03
            1592            2295     454.451E-03     452.301E-03
            1593            2291     431.361E-03     433.322E-03
            1593            2292     350.121E-03     356.581E-03
            1593            2295     454.451E-03     452.301E-03
            1593            2296     363.835E-03     366.879E-03
            1594            2292     350.121E-03     356.581E-03
            1594            2293     274.949E-03     274.040E-03
            1594            2296     363.835E-03     366.879E-03
            1594            2297     282.538E-03     283.950E-03
            1595            2293     274.949E-03     274.040E-03
            1595            2294     214.122E-03     202.601E-03
            1595            2297     282.538E-03     283.950E-03
            1595            2298     218.737E-03     212.898E-03
            1596             397     189.755E-03     173.507E-03
            1596             398     192.877E-03     182.740E-03
            1596            2294     214.122E-03     202.601E-03
            1596            2298     218.737E-03     212.898E-03
            1597             271     501.783E-03     495.767E-03
            1597             272     526.570E-03     518.609E-03
            1597            2295     454.451E-03     452.301E-03
            1597            2299     475.822E-03     471.549E-03
            1598            2295     454.451E-03     452.301E-03
            1598            2296     363.835E-03     366.879E-03
            1598            2299     475.822E-03     471.549E-03
            1598            2300     378.382E-03     379.357E-03
            1599            2296     363.835E-03     366.879E-03
            1599            2297     282.538E-03     283.950E-03
            1599            2300     378.382E-03     379.357E-03
            1599            2301     291.242E-03     293.213E-03
            1600            2297     282.538E-03     283.950E-03
            1600            2298     218.737E-03     212.898E-03
            1600            2301     291.242E-03     293.213E-03
            1600            2302     223.559E-03     222.692E-03
            1601             398     192.877E-03     182.740E-03
            1601             399     196.250E-03     193.105E-03
            1601            2298     218.737E-03     212.898E-03
            1601            2302     223.559E-03     222.692E-03
            1602             272     526.570E-03     518.609E-03
            1602             273     550.321E-03     541.691E-03
            1602            2299     475.822E-03     471.549E-03
            1602            2303     496.999E-03     491.659E-03
            1603            2299     475.822E-03     471.549E-03
            1603            2300     378.382E-03     379.357E-03
            1603            2303     496.999E-03     491.659E-03
            1603            2304     393.972E-03     394.375E-03
            1604            2300     378.382E-03     379.357E-03
            1604            2301     291.242E-03     293.213E-03
            1604            2304     393.972E-03     394.375E-03
            1604            2305     300.164E-03     303.706E-03
            1605            2301     291.242E-03     293.213E-03
            1605            2302     223.559E-03     222.692E-03
            1605            2305     300.164E-03     303.706E-03
            1605            2306     227.851E-03     232.027E-03
            1606             399     196.250E-03     193.105E-03
            1606             400     199.559E-03     203.684E-03
            1606            2302     223.559E-03     222.692E-03
            1606            2306     227.851E-03     232.027E-03
            1607             273     550.321E-03     541.691E-03
            1607             274     575.449E-03     565.945E-03
            1607            2303     496.999E-03     491.659E-03
            1607            2307     518.875E-03     513.165E-03
            1608            2303     496.999E-03     491.659E-03
            1608            2304     393.972E-03     394.375E-03
            1608            2307     518.875E-03     513.165E-03
            1608            2308     408.618E-03     409.899E-03
            1609            2304     393.972E-03     394.375E-03
            1609            2305     300.164E-03     303.706E-03
            1609            2308     408.618E-03     409.899E-03
            1609            2309     309.187E-03     316.107E-03
            1610            2305     300.164E-03     303.706E-03
            1610            2306     227.851E-03     232.027E-03
            1610            2309     309.187E-03     316.107E-03
            1610            2310     231.330E-03     241.719E-03
            1611             400     199.559E-03     203.684E-03
            1611             401     199.140E-03     210.555E-03
            1611            2306     227.851E-03     232.027E-03
            1611            2310     231.330E-03     241.719E-03
            1612             274     575.449E-03     565.945E-03
            1612             275     597.737E-03     588.577E-03
            1612            2307     518.875E-03     513.165E-03
            1612            2311     539.102E-03     534.837E-03
            1613            2307     518.875E-03     513.165E-03
            1613            2308     408.618E-03     409.899E-03
            1613            2311     539.102E-03     534.837E-03
            1613            2312     424.718E-03     430.012E-03
            1614            2308     408.618E-03     409.899E-03
            1614            2309     309.187E-03     316.107E-03
            1614            2312     424.718E-03     430.012E-03
            1614            2313     316.045E-03     328.015E-03
            1615            2309     309.187E-03     316.107E-03
            1615            2310     231.330E-03     241.719E-03
            1615            2313     316.045E-03     328.015E-03
            1615            2314     228.651E-03     244.247E-03
            1616             401     199.140E-03     210.555E-03
            1616             402     194.095E-03     211.311E-03
            1616            2310     231.330E-03     241.719E-03
            1616            2314     228.651E-03     244.247E-03
            1617             275     597.737E-03     588.577E-03
            1617             276     631.379E-03     625.071E-03
            1617            2311     539.102E-03     534.837E-03
            1617            2315     568.448E-03     568.680E-03
            1618            2311     539.102E-03     534.837E-03
            1618            2312     424.718E-03     430.012E-03
            1618            2315     568.448E-03     568.680E-03
            1618            2316     437.068E-03     445.024E-03
            1619            2312     424.718E-03     430.012E-03
            1619            2313     316.045E-03     328.015E-03
            1619            2316     437.068E-03     445.024E-03
            1619            2317     311.443E-03     321.883E-03
            1620            2313     316.045E-03     328.015E-03
            1620            2314     228.651E-03     244.247E-03
            1620            2317     311.443E-03     321.883E-03
            1620            2318     216.572E-03     231.941E-03
            1621             402     194.095E-03     211.311E-03
            1621             403     178.788E-03     197.797E-03
            1621            2314     228.651E-03     244.247E-03
            1621            2318     216.572E-03     231.941E-03
            1622             276     631.379E-03     625.071E-03
            1622             277     681.088E-03     655.554E-03
            1622            2315     568.448E-03     568.680E-03
            1622            2319     592.350E-03     573.012E-03
            1623            2315     568.448E-03     568.680E-03
            1623            2316     437.068E-03     445.024E-03
            1623            2319     592.350E-03     573.012E-03
            1623            2320     426.965E-03     415.018E-03
            1624            2316     437.068E-03     445.024E-03
            1624            2317     311.443E-03     321.883E-03
            1624            2320     426.965E-03     415.018E-03
            1624            2321     292.793E-03     287.238E-03
            1625            2317     311.443E-03     321.883E-03
            1625            2318     216.572E-03     231.941E-03
            1625            2321     292.793E-03     287.238E-03
            1625            2322     191.684E-03     197.267E-03
            1626             403     178.788E-03     197.797E-03
            1626             404     148.003E-03     159.539E-03
            1626            2318     216.572E-03     231.941E-03
            1626            2322     191.684E-03     197.267E-03
            1627             277     681.088E-03     655.554E-03
            1627             278     636.999E-03     583.974E-03
            1627            2319     592.350E-03     573.012E-03
            1627            2323     554.110E-03     502.931E-03
            1628            2319     592.350E-03     573.012E-03
            1628            2320     426.965E-03     415.018E-03
            1628            2323     554.110E-03     502.931E-03
            1628            2324     412.584E-03     371.290E-03
            1629            2320     426.965E-03     415.018E-03
            1629            2321     292.793E-03     287.238E-03
            1629            2324     412.584E-03     371.290E-03
            1629            2325     302.152E-03     276.480E-03
            1630            2321     292.793E-03     287.238E-03
            1630            2322     191.684E-03     197.267E-03
            1630            2325     302.152E-03     276.480E-03
            1630            2326     215.488E-03     204.416E-03
            1631             404     148.003E-03     159.539E-03
            1631             405     180.536E-03     176.496E-03
            1631            2322     191.684E-03     197.267E-03
            1631            2326     215.488E-03     204.416E-03
            1632             278     636.999E-03     583.974E-03
            1632             279     591.039E-03     568.391E-03
            1632            2323     554.110E-03     502.931E-03
            1632            2327     535.703E-03     511.036E-03
            1633            2323     554.110E-03     502.931E-03
            1633            2324     412.584E-03     371.290E-03
            1633            2327     535.703E-03     511.036E-03
            1633            2328     426.743E-03     399.177E-03
            1634            2324     412.584E-03     371.290E-03
            1634            2325     302.152E-03     276.480E-03
            1634            2328     426.743E-03     399.177E-03
            1634            2329     326.753E-03     301.215E-03
            1635            2325     302.152E-03     276.480E-03
            1635            2326     215.488E-03     204.416E-03
            1635            2329     326.753E-03     301.215E-03
            1635            2330     248.861E-03     227.968E-03
            1636             405     180.536E-03     176.496E-03
            1636             406     217.271E-03     198.119E-03
            1636            2326     215.488E-03     204.416E-03
            1636            2330     248.861E-03     227.968E-03
            1637             279     591.039E-03     568.391E-03
            1637             280     630.680E-03     633.208E-03
            1637            2327     535.703E-03     511.036E-03
            1637            2331     571.729E-03     579.471E-03
            1638            2327     535.703E-03     511.036E-03
            1638            2328     426.743E-03     399.177E-03
            1638            2331     571.729E-03     579.471E-03
            1638            2332     452.301E-03     457.094E-03
            1639            2328     426.743E-03     399.177E-03
            1639            2329     326.753E-03     301.215E-03
            1639            2332     452.301E-03     457.094E-03
            1639            2333     336.019E-03     327.279E-03
            1640            2329     326.753E-03     301.215E-03
            1640            2330     248.861E-03     227.968E-03
            1640            2333     336.019E-03     327.279E-03
            1640            2334     240.388E-03     221.340E-03
            1641             406     217.271E-03     198.119E-03
            1641             407     200.480E-03     176.486E-03
            1641            2330     248.861E-03     227.968E-03
            1641            2334     240.388E-03     221.340E-03
            1642             280     630.680E-03     633.208E-03
            1642             281     661.477E-03     654.684E-03
            1642            2331     571.729E-03     579.471E-03
            1642            2335     596.248E-03     598.006E-03
            1643            2331     571.729E-03     579.471E-03
            1643            2332     452.301E-03     457.094E-03
            1643            2335     596.248E-03     598.006E-03
            1643            2336     469.078E-03     479.126E-03
            1644            2332     452.301E-03     457.094E-03
            1644            2333     336.019E-03     327.279E-03
            1644            2336     469.078E-03     479.126E-03
            1644            2337     346.541E-03     349.166E-03
            1645            2333     336.019E-03     327.279E-03
            1645            2334     240.388E-03     221.340E-03
            1645            2337     346.541E-03     349.166E-03
            1645            2338     241.947E-03     230.190E-03
            1646             407     200.480E-03     176.486E-03
            1646             408     197.858E-03     178.868E-03
            1646            2334     240.388E-03     221.340E-03
            1646            2338     241.947E-03     230.190E-03
            1647             281     661.477E-03     654.684E-03
            1647             282     690.367E-03     682.071E-03
            1647            2335     596.248E-03     598.006E-03
            1647            2339     620.328E-03     617.593E-03
            1648            2335     596.248E-03     598.006E-03
            1648            2336     469.078E-03     479.126E-03
            1648            2339     620.328E-03     617.593E-03
            1648            2340     483.691E-03     489.296E-03
            1649            2336     469.078E-03     479.126E-03
            1649            2337     346.541E-03     349.166E-03
            1649            2340     483.691E-03     489.296E-03
            1649            2341     355.525E-03     361.146E-03
            1650            2337     346.541E-03     349.166E-03
            1650            2338     241.947E-03     230.190E-03
            1650            2341     355.525E-03     361.146E-03
            1650            2342     247.044E-03     243.462E-03
            1651             408     197.858E-03     178.868E-03
            1651             409     200.036E-03     190.002E-03
            1651            2338     241.947E-03     230.190E-03
            1651            2342     247.044E-03     243.462E-03
            1652             282     690.367E-03     682.071E-03
            1652             283     715.931E-03     705.037E-03
            1652            2339     620.328E-03     617.593E-03
            1652            2343     642.919E-03     637.972E-03
            1653            2339     620.328E-03     617.593E-03
            1653            2340     483.691E-03     489.296E-03
            1653            2343     642.919E-03     637.972E-03
            1653            2344     499.866E-03     503.799E-03
            1654            2340     483.691E-03     489.296E-03
            1654            2341     355.525E-03     361.146E-03
            1654            2344     499.866E-03     503.799E-03
            1654            2345     364.306E-03     371.018E-03
            1655            2341     355.525E-03     361.146E-03
            1655            2342     247.044E-03     243.462E-03
            1655            2345     364.306E-03     371.018E-03
            1655            2346     251.859E-03     255.930E-03
            1656             409     200.036E-03     190.002E-03
            1656             410     204.831E-03     206.407E-03
            1656            2342     247.044E-03     243.462E-03
            1656            2346     251.859E-03     255.930E-03
            1657             283     715.931E-03     705.037E-03
            1657             284     741.494E-03     730.215E-03
            1657            2343     642.919E-03     637.972E-03
            1657            2347     665.041E-03     659.272E-03
            1658            2343     642.919E-03     637.972E-03
            1658            2344     499.866E-03     503.799E-03
            1658            2347     665.041E-03     659.272E-03
            1658            2348     514.568E-03     518.711E-03
            1659            2344     499.866E-03     503.799E-03
            1659            2345     364.306E-03     371.018E-03
            1659            2348     514.568E-03     518.711E-03
            1659            2349     373.802E-03     384.429E-03
            1660            2345     364.306E-03     371.018E-03
            1660            2346     251.859E-03     255.930E-03
            1660            2349     373.802E-03     384.429E-03
            1660            2350     256.079E-03     268.794E-03
            1661             410     204.831E-03     206.407E-03
            1661             411     204.999E-03     217.720E-03
            1661            2346     251.859E-03     255.930E-03
            1661            2350     256.079E-03     268.794E-03
            1662             284     741.494E-03     730.215E-03
            1662             285     763.801E-03     752.134E-03
            1662            2347     665.041E-03     659.272E-03
            1662            2351     685.311E-03     681.047E-03
            1663            2347     665.041E-03     659.272E-03
            1663            2348     514.568E-03     518.711E-03
            1663            2351     685.311E-03     681.047E-03
            1663            2352     530.913E-03     539.776E-03
            1664            2348     514.568E-03     518.711E-03
            1664            2349     373.802E-03     384.429E-03
            1664            2352     530.913E-03     539.776E-03
            1664            2353     380.693E-03     396.854E-03
            1665            2349     373.802E-03     384.429E-03
            1665            2350     256.079E-03     268.794E-03
            1665            2353     380.693E-03     396.854E-03
            1665            2354     253.285E-03     272.803E-03
            1666             411     204.999E-03     217.720E-03
            1666             412     200.082E-03     221.390E-03
            1666            2350     256.079E-03     268.794E-03
            1666            2354     253.285E-03     272.803E-03
            1667             285     763.801E-03     752.134E-03
            1667             286     797.873E-03     790.717E-03
            1667            2351     685.311E-03     681.047E-03
            1667            2355     715.154E-03     716.642E-03
            1668            2351     685.311E-03     681.047E-03
            1668            2352     530.913E-03     539.776E-03
            1668            2355     715.154E-03     716.642E-03
            1668            2356     542.518E-03     553.251E-03
            1669            2352     530.913E-03     539.776E-03
            1669            2353     380.693E-03     396.854E-03
            1669            2356     542.518E-03     553.251E-03
            1669            2357     374.474E-03     386.966E-03
            1670            2353     380.693E-03     396.854E-03
            1670            2354     253.285E-03     272.803E-03
            1670            2357     374.474E-03     386.966E-03
            1670            2358     239.592E-03     258.380E-03
            1671             412     200.082E-03     221.390E-03
            1671             413     182.727E-03     206.665E-03
            1671            2354     253.285E-03     272.803E-03
            1671            2358     239.592E-03     258.380E-03
            1672             286     797.873E-03     790.717E-03
            1672             287     849.281E-03     816.454E-03
            1672            2355     715.154E-03     716.642E-03
            1672            2359     737.427E-03     711.621E-03
            1673            2355     715.154E-03     716.642E-03
            1673            2356     542.518E-03     553.251E-03
            1673            2359     737.427E-03     711.621E-03
            1673            2360     527.825E-03     510.176E-03
            1674            2356     542.518E-03     553.251E-03
            1674            2357     374.474E-03     386.966E-03
            1674            2360     527.825E-03     510.176E-03
            1674            2361     352.728E-03     342.692E-03
            1675            2357     374.474E-03     386.966E-03
            1675            2358     239.592E-03     258.380E-03
            1675            2361     352.728E-03     342.692E-03
            1675            2362     211.230E-03     216.252E-03
            1676             413     182.727E-03     206.665E-03
            1676             414     146.955E-03     160.577E-03
            1676            2358     239.592E-03     258.380E-03
            1676            2362     211.230E-03     216.252E-03
            1677             287     849.281E-03     816.454E-03
            1677             288     804.186E-03     742.751E-03
            1677            2359     737.427E-03     711.621E-03
            1677            2363     696.180E-03     637.228E-03
            1678            2359     737.427E-03     711.621E-03
            1678            2360     527.825E-03     510.176E-03
            1678            2363     696.180E-03     637.228E-03
            1678            2364     511.592E-03     465.089E-03
            1679            2360     527.825E-03     510.176E-03
            1679            2361     352.728E-03     342.692E-03
            1679            2364     511.592E-03     465.089E-03
            1679            2365     365.177E-03     337.467E-03
            1680            2361     352.728E-03     342.692E-03
            1680            2362     211.230E-03     216.252E-03
            1680            2365     365.177E-03     337.467E-03
            1680            2366     244.293E-03     233.736E-03
            1681             414     146.955E-03     160.577E-03
            1681             415     193.138E-03     190.921E-03
            1681            2362     211.230E-03     216.252E-03
            1681            2366     244.293E-03     233.736E-03
            1682             288     804.186E-03     742.751E-03
            1682             289     763.133E-03     739.590E-03
            1682            2363     696.180E-03     637.228E-03
            1682            2367     685.423E-03     663.354E-03
            1683            2363     696.180E-03     637.228E-03
            1683            2364     511.592E-03     465.089E-03
            1683            2367     685.423E-03     663.354E-03
            1683            2368     534.397E-03     513.384E-03
            1684            2364     511.592E-03     465.089E-03
            1684            2365     365.177E-03     337.467E-03
            1684            2368     534.397E-03     513.384E-03
            1684            2369     396.488E-03     378.396E-03
            1685            2365     365.177E-03     337.467E-03
            1685            2366     244.293E-03     233.736E-03
            1685            2369     396.488E-03     378.396E-03
            1685            2370     286.568E-03     273.880E-03
            1686             415     193.138E-03     190.921E-03
            1686             416     241.163E-03     230.539E-03
            1686            2366     244.293E-03     233.736E-03
            1686            2370     286.568E-03     273.880E-03
            1687             289     763.133E-03     739.590E-03
            1687             290     807.568E-03     810.997E-03
            1687            2367     685.423E-03     663.354E-03
            1687            2371     729.107E-03     742.740E-03
            1688            2367     685.423E-03     663.354E-03
            1688            2368     534.397E-03     513.384E-03
            1688            2371     729.107E-03     742.740E-03
            1688            2372     568.083E-03     585.340E-03
            1689            2368     534.397E-03     513.384E-03
            1689            2369     396.488E-03     378.396E-03
            1689            2372     568.083E-03     585.340E-03
            1689            2373     409.900E-03     415.935E-03
            1690            2369     396.488E-03     378.396E-03
            1690            2370     286.568E-03     273.880E-03
            1690            2373     409.900E-03     415.935E-03
            1690            2374     273.817E-03     270.577E-03
            1691             416     241.163E-03     230.539E-03
            1691             417     213.254E-03     205.373E-03
            1691            2370     286.568E-03     273.880E-03
            1691            2374     273.817E-03     270.577E-03
            1692             290     807.568E-03     810.997E-03
            1692             291     835.182E-03     829.793E-03
            1692            2371     729.107E-03     742.740E-03
            1692            2375     752.193E-03     761.576E-03
            1693            2371     729.107E-03     742.740E-03
            1693            2372     568.083E-03     585.340E-03
            1693            2375     752.193E-03     761.576E-03
            1693            2376     587.842E-03     616.038E-03
            1694            2372     568.083E-03     585.340E-03
            1694            2373     409.900E-03     415.935E-03
            1694            2376     587.842E-03     616.038E-03
            1694            2377     419.238E-03     443.062E-03
            1695            2373     409.900E-03     415.935E-03
            1695            2374     273.817E-03     270.577E-03
            1695            2377     419.238E-03     443.062E-03
            1695            2378     265.971E-03     275.003E-03
            1696             417     213.254E-03     205.373E-03
            1696             418     199.829E-03     202.478E-03
            1696            2374     273.817E-03     270.577E-03
            1696            2378     265.971E-03     275.003E-03
            1697             291     835.182E-03     829.793E-03
            1697             292     877.704E-03     875.247E-03
            1697            2375     752.193E-03     761.576E-03
            1697            2379     786.476E-03     797.420E-03
            1698            2375     752.193E-03     761.576E-03
            1698            2376     587.842E-03     616.038E-03
            1698            2379     786.476E-03     797.420E-03
            1698            2380     596.545E-03     620.989E-03
            1699            2376     587.842E-03     616.038E-03
            1699            2377     419.238E-03     443.062E-03
            1699            2380     596.545E-03     620.989E-03
            1699            2381     409.542E-03     429.791E-03
            1700            2377     419.238E-03     443.062E-03
            1700            2378     265.971E-03     275.003E-03
            1700            2381     409.542E-03     429.791E-03
            1700            2382     250.695E-03     264.014E-03
            1701             418     199.829E-03     202.478E-03
            1701             419     180.022E-03     190.707E-03
            1701            2378     265.971E-03     275.003E-03
            1701            2382     250.695E-03     264.014E-03
            1702             292     877.704E-03     875.247E-03
            1702             293     930.589E-03     898.508E-03
            1702            2379     786.476E-03     797.420E-03
            1702            2383     807.430E-03     785.948E-03
            1703            2379     786.476E-03     797.420E-03
            1703            2380     596.545E-03     620.989E-03
            1703            2383     807.430E-03     785.948E-03
            1703            2384     576.841E-03     566.811E-03
            1704            2380     596.545E-03     620.989E-03
            1704            2381     409.542E-03     429.791E-03
            1704            2384     576.841E-03     566.811E-03
            1704            2385     382.383E-03     377.502E-03
            1705            2381     409.542E-03     429.791E-03
            1705            2382     250.695E-03     264.014E-03
            1705            2385     382.383E-03     377.502E-03
            1705            2386     218.908E-03     222.209E-03
            1706             419     180.022E-03     190.707E-03
            1706             420     142.313E-03     149.510E-03
            1706            2382     250.695E-03     264.014E-03
            1706            2386     218.908E-03     222.209E-03
            1707              11     896.311E-03     829.913E-03
            1707             293     930.589E-03     898.508E-03
            1707             424     774.010E-03     712.530E-03
            1707            2383     807.430E-03     785.948E-03
            1708             423     565.220E-03     520.821E-03
            1708             424     774.010E-03     712.530E-03
            1708            2383     807.430E-03     785.948E-03
            1708            2384     576.841E-03     566.811E-03
            1709             422     397.913E-03     373.720E-03
            1709             423     565.220E-03     520.821E-03
            1709            2384     576.841E-03     566.811E-03
            1709            2385     382.383E-03     377.502E-03
            1710             421     258.183E-03     249.316E-03
            1710             422     397.913E-03     373.720E-03
            1710            2385     382.383E-03     377.502E-03
            1710            2386     218.908E-03     222.209E-03
            1711              15     199.196E-03     198.151E-03
            1711             420     142.313E-03     149.510E-03
            1711             421     258.183E-03     249.316E-03
            1711            2386     218.908E-03     222.209E-03
            1712              13     84.9398E-03     84.9734E-03
            1712             356     254.733E-06     256.787E-06
            1712             369     85.1325E-03     85.1388E-03
            1712            2387     255.195E-06     257.255E-06
            1713             368     82.9146E-03     82.6765E-03
            1713             369     85.1325E-03     85.1388E-03
            1713            2387     255.195E-06     257.255E-06
            1713            2388     255.166E-06     257.099E-06
            1714             367     78.6781E-03     78.4943E-03
            1714             368     82.9146E-03     82.6765E-03
            1714            2388     255.166E-06     257.099E-06
            1714            2389     263.299E-06     264.695E-06
            1715             366     68.5339E-03     68.4995E-03
            1715             367     78.6781E-03     78.4943E-03
            1715            2389     263.299E-06     264.695E-06
            1715            2390     281.567E-06     278.681E-06
            1716               5     60.2149E-03     60.0585E-03
            1716             183     291.212E-06     284.449E-06
            1716             366     68.5339E-03     68.4995E-03
            1716            2390     281.567E-06     278.681E-06
            1717             356     254.733E-06     256.787E-06
            1717             357     270.232E-06     272.756E-06
            1717            2387     255.195E-06     257.255E-06
            1717            2391     268.892E-06     271.503E-06
            1718            2387     255.195E-06     257.255E-06
            1718            2388     255.166E-06     257.099E-06
            1718            2391     268.892E-06     271.503E-06
            1718            2392     266.826E-06     269.781E-06
            1719            2388     255.166E-06     257.099E-06
            1719            2389     263.299E-06     264.695E-06
            1719            2392     266.826E-06     269.781E-06
            1719            2393     261.865E-06     263.608E-06
            1720            2389     263.299E-06     264.695E-06
            1720            2390     281.567E-06     278.681E-06
            1720            2393     261.865E-06     263.608E-06
            1720            2394     243.601E-06     242.994E-06
            1721             183     291.212E-06     284.449E-06
            1721             184     229.572E-06     228.083E-06
            1721            2390     281.567E-06     278.681E-06
            1721            2394     243.601E-06     242.994E-06
            1722             357     270.232E-06     272.756E-06
            1722             358     278.891E-06     280.133E-06
            1722            2391     268.892E-06     271.503E-06
            1722            2395     277.508E-06     278.898E-06
            1723            2391     268.892E-06     271.503E-06
            1723            2392     266.826E-06     269.781E-06
            1723            2395     277.508E-06     278.898E-06
            1723            2396     270.272E-06     271.540E-06
            1724            2392     266.826E-06     269.781E-06
            1724            2393     261.865E-06     263.608E-06
            1724            2396     270.272E-06     271.540E-06
            1724            2397     249.354E-06     249.825E-06
            1725            2393     261.865E-06     263.608E-06
            1725            2394     243.601E-06     242.994E-06
            1725            2397     249.354E-06     249.825E-06
            1725            2398     213.105E-06     213.004E-06
            1726             184     229.572E-06     228.083E-06
            1726             185     191.922E-06     191.775E-06
            1726            2394     243.601E-06     242.994E-06
            1726            2398     213.105E-06     213.004E-06
            1727             358     278.891E-06     280.133E-06
            1727             359     279.679E-06     279.098E-06
            1727            2395     277.508E-06     278.898E-06
            1727            2399     277.938E-06     277.318E-06
            1728            2395     277.508E-06     278.898E-06
            1728            2396     270.272E-06     271.540E-06
            1728            2399     277.938E-06     277.318E-06
            1728            2400     268.403E-06     267.736E-06
            1729            2396     270.272E-06     271.540E-06
            1729            2397     249.354E-06     249.825E-06
            1729            2400     268.403E-06     267.736E-06
            1729            2401     242.577E-06     242.960E-06
            1730            2397     249.354E-06     249.825E-06
            1730            2398     213.105E-06     213.004E-06
            1730            2401     242.577E-06     242.960E-06
            1730            2402     196.562E-06     198.091E-06
            1731             185     191.922E-06     191.775E-06
            1731             186     168.580E-06     170.196E-06
            1731            2398     213.105E-06     213.004E-06
            1731            2402     196.562E-06     198.091E-06
            1732             359     279.679E-06     279.098E-06
            1732             360     274.155E-06     272.257E-06
            1732            2399     277.938E-06     277.318E-06
            1732            2403     271.366E-06     269.413E-06
            1733            2399     277.938E-06     277.318E-06
            1733            2400     268.403E-06     267.736E-06
            1733            2403     271.366E-06     269.413E-06
            1733            2404     263.521E-06     261.781E-06
            1734            2400     268.403E-06     267.736E-06
            1734            2401     242.577E-06     242.960E-06
            1734            2404     263.521E-06     261.781E-06
            1734            2405     242.629E-06     241.962E-06
            1735            2401     242.577E-06     242.960E-06
            1735            2402     196.562E-06     198.091E-06
            1735            2405     242.629E-06     241.962E-06
            1735            2406     192.064E-06     194.457E-06
            1736             186     168.580E-06     170.196E-06
            1736             187     157.331E-06     161.982E-06
            1736            2402     196.562E-06     198.091E-06
            1736            2406     192.064E-06     194.457E-06
            1737             360     274.155E-06     272.257E-06
            1737             361     266.406E-06     264.707E-06
            1737            2403     271.366E-06     269.413E-06
            1737            2407     263.966E-06     262.242E-06
            1738            2403     271.366E-06     269.413E-06
            1738            2404     263.521E-06     261.781E-06
            1738            2407     263.966E-06     262.242E-06
            1738            2408     254.454E-06     252.676E-06
            1739            2404     263.521E-06     261.781E-06
            1739            2405     242.629E-06     241.962E-06
            1739            2408     254.454E-06     252.676E-06
            1739            2409     238.165E-06     236.898E-06
            1740            2405     242.629E-06     241.962E-06
            1740            2406     192.064E-06     194.457E-06
            1740            2409     238.165E-06     236.898E-06
            1740            2410     199.874E-06     201.466E-06
            1741             187     157.331E-06     161.982E-06
            1741             188     170.799E-06     174.712E-06
            1741            2406     192.064E-06     194.457E-06
            1741            2410     199.874E-06     201.466E-06
            1742              14     263.114E-06     262.034E-06
            1742             361     266.406E-06     264.707E-06
            1742             428     260.661E-06     259.459E-06
            1742            2407     263.966E-06     262.242E-06
            1743             427     249.115E-06     247.726E-06
            1743             428     260.661E-06     259.459E-06
            1743            2407     263.966E-06     262.242E-06
            1743            2408     254.454E-06     252.676E-06
            1744             426     233.383E-06     232.316E-06
            1744             427     249.115E-06     247.726E-06
            1744            2408     254.454E-06     252.676E-06
            1744            2409     238.165E-06     236.898E-06
            1745             425     204.260E-06     205.128E-06
            1745             426     233.383E-06     232.316E-06
            1745            2409     238.165E-06     236.898E-06
            1745            2410     199.874E-06     201.466E-06
            1746               6     181.776E-06     184.191E-06
            1746             188     170.799E-06     174.712E-06
            1746             425     204.260E-06     205.128E-06
            1746            2410     199.874E-06     201.466E-06
            1747              15     199.196E-03     198.151E-03
            1747             429     257.931E-03     250.908E-03
            1747             446     251.020E-03     246.006E-03
            1747            2411     307.599E-03     302.711E-03
            1748             429     257.931E-03     250.908E-03
            1748             430     397.627E-03     376.200E-03
            1748            2411     307.599E-03     302.711E-03
            1748            2412     438.756E-03     429.196E-03
            1749             430     397.627E-03     376.200E-03
            1749             431     564.851E-03     523.777E-03
            1749            2412     438.756E-03     429.196E-03
            1749            2413     598.447E-03     584.440E-03
            1750             431     564.851E-03     523.777E-03
            1750             432     773.476E-03     716.086E-03
            1750            2413     598.447E-03     584.440E-03
            1750            2414     774.806E-03     756.571E-03
            1751               3     895.763E-03     833.817E-03
            1751             432     773.476E-03     716.086E-03
            1751             433     866.205E-03     844.349E-03
            1751            2414     774.806E-03     756.571E-03
            1752             445     213.950E-03     211.955E-03
            1752             446     251.020E-03     246.006E-03
            1752            2411     307.599E-03     302.711E-03
            1752            2415     287.105E-03     289.228E-03
            1753            2411     307.599E-03     302.711E-03
            1753            2412     438.756E-03     429.196E-03
            1753            2415     287.105E-03     289.228E-03
            1753            2416     452.822E-03     466.203E-03
            1754            2412     438.756E-03     429.196E-03
            1754            2413     598.447E-03     584.440E-03
            1754            2416     452.822E-03     466.203E-03
            1754            2417     639.173E-03     665.981E-03
            1755            2413     598.447E-03     584.440E-03
            1755            2414     774.806E-03     756.571E-03
            1755            2417     639.173E-03     665.981E-03
            1755            2418     819.215E-03     838.378E-03
            1756             433     866.205E-03     844.349E-03
            1756             434     906.146E-03     911.727E-03
            1756            2414     774.806E-03     756.571E-03
            1756            2418     819.215E-03     838.378E-03
            1757             444     184.650E-03     187.893E-03
            1757             445     213.950E-03     211.955E-03
            1757            2415     287.105E-03     289.228E-03
            1757            2419     266.933E-03     273.124E-03
            1758            2415     287.105E-03     289.228E-03
            1758            2416     452.822E-03     466.203E-03
            1758            2419     266.933E-03     273.124E-03
            1758            2420     447.764E-03     467.115E-03
            1759            2416     452.822E-03     466.203E-03
            1759            2417     639.173E-03     665.981E-03
            1759            2420     447.764E-03     467.115E-03
            1759            2421     652.469E-03     685.080E-03
            1760            2417     639.173E-03     665.981E-03
            1760            2418     819.215E-03     838.378E-03
            1760            2421     652.469E-03     685.080E-03
            1760            2422     852.774E-03     871.358E-03
            1761             434     906.146E-03     911.727E-03
            1761             435     948.186E-03     949.191E-03
            1761            2418     819.215E-03     838.378E-03
            1761            2422     852.774E-03     871.358E-03
            1762             443     141.473E-03     143.597E-03
            1762             444     184.650E-03     187.893E-03
            1762            2419     266.933E-03     273.124E-03
            1762            2423     232.319E-03     232.328E-03
            1763            2419     266.933E-03     273.124E-03
            1763            2420     447.764E-03     467.115E-03
            1763            2423     232.319E-03     232.328E-03
            1763            2424     416.828E-03     414.834E-03
            1764            2420     447.764E-03     467.115E-03
            1764            2421     652.469E-03     685.080E-03
            1764            2424     416.828E-03     414.834E-03
            1764            2425     627.351E-03     622.430E-03
            1765            2421     652.469E-03     685.080E-03
            1765            2422     852.774E-03     871.358E-03
            1765            2425     627.351E-03     622.430E-03
            1765            2426     874.554E-03     856.574E-03
            1766             435     948.186E-03     949.191E-03
            1766             436         1.00704     977.187E-03
            1766            2422     852.774E-03     871.358E-03
            1766            2426     874.554E-03     856.574E-03
            1767             442     125.383E-03     125.171E-03
            1767             443     141.473E-03     143.597E-03
            1767            2423     232.319E-03     232.328E-03
            1767            2427     216.373E-03     212.905E-03
            1768            2423     232.319E-03     232.328E-03
            1768            2424     416.828E-03     414.834E-03
            1768            2427     216.373E-03     212.905E-03
            1768            2428     402.376E-03     393.261E-03
            1769            2424     416.828E-03     414.834E-03
            1769            2425     627.351E-03     622.430E-03
            1769            2428     402.376E-03     393.261E-03
            1769            2429     603.206E-03     585.171E-03
            1770            2425     627.351E-03     622.430E-03
            1770            2426     874.554E-03     856.574E-03
            1770            2429     603.206E-03     585.171E-03
            1770            2430     835.724E-03     807.596E-03
            1771             436         1.00704     977.187E-03
            1771             437     965.245E-03     932.097E-03
            1771            2426     874.554E-03     856.574E-03
            1771            2430     835.724E-03     807.596E-03
            1772              17     171.152E-03     173.302E-03
            1772             441     251.636E-03     250.084E-03
            1772             442     125.383E-03     125.171E-03
            1772            2427     216.373E-03     212.905E-03
            1773             440     424.970E-03     415.309E-03
            1773             441     251.636E-03     250.084E-03
            1773            2427     216.373E-03     212.905E-03
            1773            2428     402.376E-03     393.261E-03
            1774             439     624.673E-03     605.194E-03
            1774             440     424.970E-03     415.309E-03
            1774            2428     402.376E-03     393.261E-03
            1774            2429     603.206E-03     585.171E-03
            1775             438     865.347E-03     835.104E-03
            1775             439     624.673E-03     605.194E-03
            1775            2429     603.206E-03     585.171E-03
            1775            2430     835.724E-03     807.596E-03
            1776              16         1.00114     965.262E-03
            1776             437     965.245E-03     932.097E-03
            1776             438     865.347E-03     835.104E-03
            1776            2430     835.724E-03     807.596E-03
            3465              13     84.9398E-03     84.9734E-03
            3465             355     85.1339E-03     85.1405E-03
            3465             370     169.052E-03     169.120E-03
            3465            3890     169.262E-03     169.275E-03
            3466             354     82.9207E-03     82.6849E-03
            3466             355     85.1339E-03     85.1405E-03
            3466            3890     169.262E-03     169.275E-03
            3466            3891     167.986E-03     167.748E-03
            3467             353     78.7025E-03     78.5241E-03
            3467             354     82.9207E-03     82.6849E-03
            3467            3891     167.986E-03     167.748E-03
            3467            3892     161.737E-03     161.065E-03
            3468             352     68.6211E-03     68.5879E-03
            3468             353     78.7025E-03     78.5241E-03
            3468            3892     161.737E-03     161.065E-03
            3468            3893     135.560E-03     135.635E-03
            3469               2     60.3515E-03     60.1906E-03
            3469              51     114.144E-03     115.204E-03
            3469             352     68.6211E-03     68.5879E-03
            3469            3893     135.560E-03     135.635E-03
            3470             370     169.052E-03     169.120E-03
            3470             371     167.456E-03     167.497E-03
            3470            3890     169.262E-03     169.275E-03
            3470            3894     167.694E-03     167.752E-03
            3471            3890     169.262E-03     169.275E-03
            3471            3891     167.986E-03     167.748E-03
            3471            3894     167.694E-03     167.752E-03
            3471            3895     169.705E-03     169.950E-03
            3472            3891     167.986E-03     167.748E-03
            3472            3892     161.737E-03     161.065E-03
            3472            3895     169.705E-03     169.950E-03
            3472            3896     167.310E-03     167.163E-03
            3473            3892     161.737E-03     161.065E-03
            3473            3893     135.560E-03     135.635E-03
            3473            3896     167.310E-03     167.163E-03
            3473            3897     139.581E-03     139.884E-03
            3474              51     114.144E-03     115.204E-03
            3474              52     116.016E-03     117.330E-03
            3474            3893     135.560E-03     135.635E-03
            3474            3897     139.581E-03     139.884E-03
            3475             371     167.456E-03     167.497E-03
            3475             372     164.432E-03     164.440E-03
            3475            3894     167.694E-03     167.752E-03
            3475            3898     165.170E-03     165.265E-03
            3476            3894     167.694E-03     167.752E-03
            3476            3895     169.705E-03     169.950E-03
            3476            3898     165.170E-03     165.265E-03
            3476            3899     165.437E-03     165.760E-03
            3477            3895     169.705E-03     169.950E-03
            3477            3896     167.310E-03     167.163E-03
            3477            3899     165.437E-03     165.760E-03
            3477            3900     164.182E-03     164.972E-03
            3478            3896     167.310E-03     167.163E-03
            3478            3897     139.581E-03     139.884E-03
            3478            3900     164.182E-03     164.972E-03
            3478            3901     153.182E-03     153.030E-03
            3479              52     116.016E-03     117.330E-03
            3479              53     142.955E-03     141.539E-03
            3479            3897     139.581E-03     139.884E-03
            3479            3901     153.182E-03     153.030E-03
            3480             372     164.432E-03     164.440E-03
            3480             373     169.016E-03     167.756E-03
            3480            3898     165.170E-03     165.265E-03
            3480            3902     168.739E-03     167.315E-03
            3481            3898     165.170E-03     165.265E-03
            3481            3899     165.437E-03     165.760E-03
            3481            3902     168.739E-03     167.315E-03
            3481            3903     164.667E-03     162.824E-03
            3482            3899     165.437E-03     165.760E-03
            3482            3900     164.182E-03     164.972E-03
            3482            3903     164.667E-03     162.824E-03
            3482            3904     158.200E-03     156.111E-03
            3483            3900     164.182E-03     164.972E-03
            3483            3901     153.182E-03     153.030E-03
            3483            3904     158.200E-03     156.111E-03
            3483            3905     143.231E-03     141.561E-03
            3484              53     142.955E-03     141.539E-03
            3484              54     130.927E-03     129.666E-03
            3484            3901     153.182E-03     153.030E-03
            3484            3905     143.231E-03     141.561E-03
            3485             373     169.016E-03     167.756E-03
            3485             374     176.370E-03     172.301E-03
            3485            3902     168.739E-03     167.315E-03
            3485            3906     175.146E-03     170.941E-03
            3486            3902     168.739E-03     167.315E-03
            3486            3903     164.667E-03     162.824E-03
            3486            3906     175.146E-03     170.941E-03
            3486            3907     170.310E-03     165.882E-03
            3487            3903     164.667E-03     162.824E-03
            3487            3904     158.200E-03     156.111E-03
            3487            3907     170.310E-03     165.882E-03
            3487            3908     160.299E-03     156.306E-03
            3488            3904     158.200E-03     156.111E-03
            3488            3905     143.231E-03     141.561E-03
            3488            3908     160.299E-03     156.306E-03
            3488            3909     130.394E-03     131.217E-03
            3489              54     130.927E-03     129.666E-03
            3489              55     106.881E-03     112.001E-03
            3489            3905     143.231E-03     141.561E-03
            3489            3909     130.394E-03     131.217E-03
            3490             374     176.370E-03     172.301E-03
            3490             375     179.709E-03     174.063E-03
            3490            3906     175.146E-03     170.941E-03
            3490            3910     178.804E-03     173.531E-03
            3491            3906     175.146E-03     170.941E-03
            3491            3907     170.310E-03     165.882E-03
            3491            3910     178.804E-03     173.531E-03
            3491            3911     175.853E-03     171.720E-03
            3492            3907     170.310E-03     165.882E-03
            3492            3908     160.299E-03     156.306E-03
            3492            3911     175.853E-03     171.720E-03
            3492            3912     165.595E-03     164.746E-03
            3493            3908     160.299E-03     156.306E-03
            3493            3909     130.394E-03     131.217E-03
            3493            3912     165.595E-03     164.746E-03
            3493            3913     140.192E-03     144.153E-03
            3494              55     106.881E-03     112.001E-03
            3494              56     122.990E-03     129.245E-03
            3494            3909     130.394E-03     131.217E-03
            3494            3913     140.192E-03     144.153E-03
            3495             375     179.709E-03     174.063E-03
            3495             376     184.566E-03     179.806E-03
            3495            3910     178.804E-03     173.531E-03
            3495            3914     183.750E-03     179.591E-03
            3496            3910     178.804E-03     173.531E-03
            3496            3911     175.853E-03     171.720E-03
            3496            3914     183.750E-03     179.591E-03
            3496            3915     179.941E-03     177.892E-03
            3497            3911     175.853E-03     171.720E-03
            3497            3912     165.595E-03     164.746E-03
            3497            3915     179.941E-03     177.892E-03
            3497            3916     169.174E-03     170.463E-03
            3498            3912     165.595E-03     164.746E-03
            3498            3913     140.192E-03     144.153E-03
            3498            3916     169.174E-03     170.463E-03
            3498            3917     152.098E-03     154.590E-03
            3499              56     122.990E-03     129.245E-03
            3499              57     142.779E-03     144.644E-03
            3499            3913     140.192E-03     144.153E-03
            3499            3917     152.098E-03     154.590E-03
            3500             376     184.566E-03     179.806E-03
            3500             377     188.393E-03     185.702E-03
            3500            3914     183.750E-03     179.591E-03
            3500            3918     187.465E-03     185.442E-03
            3501            3914     183.750E-03     179.591E-03
            3501            3915     179.941E-03     177.892E-03
            3501            3918     187.465E-03     185.442E-03
            3501            3919     183.267E-03     182.941E-03
            3502            3915     179.941E-03     177.892E-03
            3502            3916     169.174E-03     170.463E-03
            3502            3919     183.267E-03     182.941E-03
            3502            3920     175.258E-03     176.401E-03
            3503            3916     169.174E-03     170.463E-03
            3503            3917     152.098E-03     154.590E-03
            3503            3920     175.258E-03     176.401E-03
            3503            3921     166.917E-03     167.599E-03
            3504              57     142.779E-03     144.644E-03
            3504              58     163.297E-03     163.074E-03
            3504            3917     152.098E-03     154.590E-03
            3504            3921     166.917E-03     167.599E-03
            3505             377     188.393E-03     185.702E-03
            3505             378     190.549E-03     190.546E-03
            3505            3918     187.465E-03     185.442E-03
            3505            3922     189.467E-03     189.662E-03
            3506            3918     187.465E-03     185.442E-03
            3506            3919     183.267E-03     182.941E-03
            3506            3922     189.467E-03     189.662E-03
            3506            3923     187.196E-03     187.862E-03
            3507            3919     183.267E-03     182.941E-03
            3507            3920     175.258E-03     176.401E-03
            3507            3923     187.196E-03     187.862E-03
            3507            3924     184.252E-03     184.957E-03
            3508            3920     175.258E-03     176.401E-03
            3508            3921     166.917E-03     167.599E-03
            3508            3924     184.252E-03     184.957E-03
            3508            3925     183.329E-03     182.620E-03
            3509              58     163.297E-03     163.074E-03
            3509              59     184.138E-03     182.247E-03
            3509            3921     166.917E-03     167.599E-03
            3509            3925     183.329E-03     182.620E-03
            3510             378     190.549E-03     190.546E-03
            3510             379     189.576E-03     192.338E-03
            3510            3922     189.467E-03     189.662E-03
            3510            3926     190.359E-03     192.914E-03
            3511            3922     189.467E-03     189.662E-03
            3511            3923     187.196E-03     187.862E-03
            3511            3926     190.359E-03     192.914E-03
            3511            3927     191.553E-03     193.225E-03
            3512            3923     187.196E-03     187.862E-03
            3512            3924     184.252E-03     184.957E-03
            3512            3927     191.553E-03     193.225E-03
            3512            3928     194.361E-03     194.585E-03
            3513            3924     184.252E-03     184.957E-03
            3513            3925     183.329E-03     182.620E-03
            3513            3928     194.361E-03     194.585E-03
            3513            3929     201.912E-03     200.148E-03
            3514              59     184.138E-03     182.247E-03
            3514              60     207.039E-03     204.057E-03
            3514            3925     183.329E-03     182.620E-03
            3514            3929     201.912E-03     200.148E-03
            3515             379     189.576E-03     192.338E-03
            3515             380     185.094E-03     190.049E-03
            3515            3926     190.359E-03     192.914E-03
            3515            3930     187.585E-03     192.351E-03
            3516            3926     190.359E-03     192.914E-03
            3516            3927     191.553E-03     193.225E-03
            3516            3930     187.585E-03     192.351E-03
            3516            3931     195.576E-03     199.122E-03
            3517            3927     191.553E-03     193.225E-03
            3517            3928     194.361E-03     194.585E-03
            3517            3931     195.576E-03     199.122E-03
            3517            3932     206.734E-03     207.342E-03
            3518            3928     194.361E-03     194.585E-03
            3518            3929     201.912E-03     200.148E-03
            3518            3932     206.734E-03     207.342E-03
            3518            3933     221.006E-03     218.779E-03
            3519              60     207.039E-03     204.057E-03
            3519              61     229.591E-03     226.434E-03
            3519            3929     201.912E-03     200.148E-03
            3519            3933     221.006E-03     218.779E-03
            3520             380     185.094E-03     190.049E-03
            3520             381     175.475E-03     181.346E-03
            3520            3930     187.585E-03     192.351E-03
            3520            3934     179.489E-03     184.896E-03
            3521            3930     187.585E-03     192.351E-03
            3521            3931     195.576E-03     199.122E-03
            3521            3934     179.489E-03     184.896E-03
            3521            3935     193.698E-03     198.241E-03
            3522            3931     195.576E-03     199.122E-03
            3522            3932     206.734E-03     207.342E-03
            3522            3935     193.698E-03     198.241E-03
            3522            3936     219.197E-03     221.635E-03
            3523            3932     206.734E-03     207.342E-03
            3523            3933     221.006E-03     218.779E-03
            3523            3936     219.197E-03     221.635E-03
            3523            3937     247.534E-03     246.366E-03
            3524              61     229.591E-03     226.434E-03
            3524              62     260.533E-03     257.464E-03
            3524            3933     221.006E-03     218.779E-03
            3524            3937     247.534E-03     246.366E-03
            3525             381     175.475E-03     181.346E-03
            3525             382     159.296E-03     163.330E-03
            3525            3934     179.489E-03     184.896E-03
            3525            3938     165.658E-03     168.947E-03
            3526            3934     179.489E-03     184.896E-03
            3526            3935     193.698E-03     198.241E-03
            3526            3938     165.658E-03     168.947E-03
            3526            3939     183.355E-03     184.619E-03
            3527            3935     193.698E-03     198.241E-03
            3527            3936     219.197E-03     221.635E-03
            3527            3939     183.355E-03     184.619E-03
            3527            3940     219.039E-03     218.201E-03
            3528            3936     219.197E-03     221.635E-03
            3528            3937     247.534E-03     246.366E-03
            3528            3940     219.039E-03     218.201E-03
            3528            3941     274.525E-03     268.994E-03
            3529              62     260.533E-03     257.464E-03
            3529              63     305.627E-03     296.226E-03
            3529            3937     247.534E-03     246.366E-03
            3529            3941     274.525E-03     268.994E-03
            3530             382     159.296E-03     163.330E-03
            3530             383     170.232E-03     168.458E-03
            3530            3938     165.658E-03     168.947E-03
            3530            3942     175.362E-03     172.080E-03
            3531            3938     165.658E-03     168.947E-03
            3531            3939     183.355E-03     184.619E-03
            3531            3942     175.362E-03     172.080E-03
            3531            3943     188.921E-03     181.642E-03
            3532            3939     183.355E-03     184.619E-03
            3532            3940     219.039E-03     218.201E-03
            3532            3943     188.921E-03     181.642E-03
            3532            3944     212.200E-03     199.131E-03
            3533            3940     219.039E-03     218.201E-03
            3533            3941     274.525E-03     268.994E-03
            3533            3944     212.200E-03     199.131E-03
            3533            3945     246.097E-03     228.337E-03
            3534              63     305.627E-03     296.226E-03
            3534              64     265.112E-03     245.968E-03
            3534            3941     274.525E-03     268.994E-03
            3534            3945     246.097E-03     228.337E-03
            3535             383     170.232E-03     168.458E-03
            3535             384     186.875E-03     177.671E-03
            3535            3942     175.362E-03     172.080E-03
            3535            3946     191.317E-03     181.421E-03
            3536            3942     175.362E-03     172.080E-03
            3536            3943     188.921E-03     181.642E-03
            3536            3946     191.317E-03     181.421E-03
            3536            3947     203.229E-03     191.402E-03
            3537            3943     188.921E-03     181.642E-03
            3537            3944     212.200E-03     199.131E-03
            3537            3947     203.229E-03     191.402E-03
            3537            3948     217.974E-03     205.320E-03
            3538            3944     212.200E-03     199.131E-03
            3538            3945     246.097E-03     228.337E-03
            3538            3948     217.974E-03     205.320E-03
            3538            3949     223.914E-03     214.977E-03
            3539              64     265.112E-03     245.968E-03
            3539              65     222.551E-03     216.921E-03
            3539            3945     246.097E-03     228.337E-03
            3539            3949     223.914E-03     214.977E-03
            3540             384     186.875E-03     177.671E-03
            3540             385     183.338E-03     170.842E-03
            3540            3946     191.317E-03     181.421E-03
            3540            3950     190.244E-03     178.979E-03
            3541            3946     191.317E-03     181.421E-03
            3541            3947     203.229E-03     191.402E-03
            3541            3950     190.244E-03     178.979E-03
            3541            3951     208.523E-03     200.927E-03
            3542            3947     203.229E-03     191.402E-03
            3542            3948     217.974E-03     205.320E-03
            3542            3951     208.523E-03     200.927E-03
            3542            3952     230.713E-03     230.882E-03
            3543            3948     217.974E-03     205.320E-03
            3543            3949     223.914E-03     214.977E-03
            3543            3952     230.713E-03     230.882E-03
            3543            3953     251.567E-03     256.855E-03
            3544              65     222.551E-03     216.921E-03
            3544              66     261.571E-03     266.647E-03
            3544            3949     223.914E-03     214.977E-03
            3544            3953     251.567E-03     256.855E-03
            3545             385     183.338E-03     170.842E-03
            3545             386     185.560E-03     174.727E-03
            3545            3950     190.244E-03     178.979E-03
            3545            3954     193.629E-03     185.006E-03
            3546            3950     190.244E-03     178.979E-03
            3546            3951     208.523E-03     200.927E-03
            3546            3954     193.629E-03     185.006E-03
            3546            3955     214.775E-03     212.320E-03
            3547            3951     208.523E-03     200.927E-03
            3547            3952     230.713E-03     230.882E-03
            3547            3955     214.775E-03     212.320E-03
            3547            3956     241.636E-03     245.382E-03
            3548            3952     230.713E-03     230.882E-03
            3548            3953     251.567E-03     256.855E-03
            3548            3956     241.636E-03     245.382E-03
            3548            3957     273.137E-03     275.621E-03
            3549              66     261.571E-03     266.647E-03
            3549              67     290.813E-03     289.789E-03
            3549            3953     251.567E-03     256.855E-03
            3549            3957     273.137E-03     275.621E-03
            3550             386     185.560E-03     174.727E-03
            3550             387     189.166E-03     182.310E-03
            3550            3954     193.629E-03     185.006E-03
            3550            3958     197.797E-03     193.128E-03
            3551            3954     193.629E-03     185.006E-03
            3551            3955     214.775E-03     212.320E-03
            3551            3958     197.797E-03     193.128E-03
            3551            3959     220.781E-03     220.667E-03
            3552            3955     214.775E-03     212.320E-03
            3552            3956     241.636E-03     245.382E-03
            3552            3959     220.781E-03     220.667E-03
            3552            3960     253.280E-03     255.311E-03
            3553            3956     241.636E-03     245.382E-03
            3553            3957     273.137E-03     275.621E-03
            3553            3960     253.280E-03     255.311E-03
            3553            3961     294.138E-03     293.566E-03
            3554              67     290.813E-03     289.789E-03
            3554              68     316.805E-03     313.847E-03
            3554            3957     273.137E-03     275.621E-03
            3554            3961     294.138E-03     293.566E-03
            3555             387     189.166E-03     182.310E-03
            3555             388     191.971E-03     189.717E-03
            3555            3958     197.797E-03     193.128E-03
            3555            3962     201.665E-03     200.657E-03
            3556            3958     197.797E-03     193.128E-03
            3556            3959     220.781E-03     220.667E-03
            3556            3962     201.665E-03     200.657E-03
            3556            3963     227.880E-03     228.706E-03
            3557            3959     220.781E-03     220.667E-03
            3557            3960     253.280E-03     255.311E-03
            3557            3963     227.880E-03     228.706E-03
            3557            3964     266.109E-03     266.821E-03
            3558            3960     253.280E-03     255.311E-03
            3558            3961     294.138E-03     293.566E-03
            3558            3964     266.109E-03     266.821E-03
            3558            3965     314.392E-03     311.999E-03
            3559              68     316.805E-03     313.847E-03
            3559              69     340.919E-03     336.119E-03
            3559            3961     294.138E-03     293.566E-03
            3559            3965     314.392E-03     311.999E-03
            3560             388     191.971E-03     189.717E-03
            3560             389     194.151E-03     196.706E-03
            3560            3962     201.665E-03     200.657E-03
            3560            3966     204.754E-03     207.242E-03
            3561            3962     201.665E-03     200.657E-03
            3561            3963     227.880E-03     228.706E-03
            3561            3966     204.754E-03     207.242E-03
            3561            3967     235.329E-03     237.399E-03
            3562            3963     227.880E-03     228.706E-03
            3562            3964     266.109E-03     266.821E-03
            3562            3967     235.329E-03     237.399E-03
            3562            3968     280.281E-03     280.457E-03
            3563            3964     266.109E-03     266.821E-03
            3563            3965     314.392E-03     311.999E-03
            3563            3968     280.281E-03     280.457E-03
            3563            3969     334.758E-03     331.333E-03
            3564              69     340.919E-03     336.119E-03
            3564              70     364.202E-03     358.717E-03
            3564            3965     314.392E-03     311.999E-03
            3564            3969     334.758E-03     331.333E-03
            3565             389     194.151E-03     196.706E-03
            3565             390     193.289E-03     200.647E-03
            3565            3966     204.754E-03     207.242E-03
            3565            3970     207.047E-03     213.747E-03
            3566            3966     204.754E-03     207.242E-03
            3566            3967     235.329E-03     237.399E-03
            3566            3970     207.047E-03     213.747E-03
            3566            3971     242.851E-03     247.105E-03
            3567            3967     235.329E-03     237.399E-03
            3567            3968     280.281E-03     280.457E-03
            3567            3971     242.851E-03     247.105E-03
            3567            3972     294.014E-03     294.437E-03
            3568            3968     280.281E-03     280.457E-03
            3568            3969     334.758E-03     331.333E-03
            3568            3972     294.014E-03     294.437E-03
            3568            3973     356.042E-03     352.011E-03
            3569              70     364.202E-03     358.717E-03
            3569              71     388.898E-03     382.457E-03
            3569            3969     334.758E-03     331.333E-03
            3569            3973     356.042E-03     352.011E-03
            3570             390     193.289E-03     200.647E-03
            3570             391     188.419E-03     199.686E-03
            3570            3970     207.047E-03     213.747E-03
            3570            3974     204.428E-03     214.894E-03
            3571            3970     207.047E-03     213.747E-03
            3571            3971     242.851E-03     247.105E-03
            3571            3974     204.428E-03     214.894E-03
            3571            3975     248.940E-03     256.862E-03
            3572            3971     242.851E-03     247.105E-03
            3572            3972     294.014E-03     294.437E-03
            3572            3975     248.940E-03     256.862E-03
            3572            3976     309.230E-03     311.961E-03
            3573            3972     294.014E-03     294.437E-03
            3573            3973     356.042E-03     352.011E-03
            3573            3976     309.230E-03     311.961E-03
            3573            3977     376.488E-03     372.977E-03
            3574              71     388.898E-03     382.457E-03
            3574              72     411.899E-03     405.598E-03
            3574            3973     356.042E-03     352.011E-03
            3574            3977     376.488E-03     372.977E-03
            3575             391     188.419E-03     199.686E-03
            3575             392     175.844E-03     188.464E-03
            3575            3974     204.428E-03     214.894E-03
            3575            3978     194.289E-03     205.141E-03
            3576            3974     204.428E-03     214.894E-03
            3576            3975     248.940E-03     256.862E-03
            3576            3978     194.289E-03     205.141E-03
            3576            3979     245.990E-03     254.053E-03
            3577            3975     248.940E-03     256.862E-03
            3577            3976     309.230E-03     311.961E-03
            3577            3979     245.990E-03     254.053E-03
            3577            3980     322.273E-03     327.610E-03
            3578            3976     309.230E-03     311.961E-03
            3578            3977     376.488E-03     372.977E-03
            3578            3980     322.273E-03     327.610E-03
            3578            3981     405.020E-03     404.363E-03
            3579              72     411.899E-03     405.598E-03
            3579              73     444.676E-03     439.735E-03
            3579            3977     376.488E-03     372.977E-03
            3579            3981     405.020E-03     404.363E-03
            3580             392     175.844E-03     188.464E-03
            3580             393     151.883E-03     160.046E-03
            3580            3978     194.289E-03     205.141E-03
            3580            3982     174.413E-03     179.606E-03
            3581            3978     194.289E-03     205.141E-03
            3581            3979     245.990E-03     254.053E-03
            3581            3982     174.413E-03     179.606E-03
            3581            3983     231.300E-03     230.087E-03
            3582            3979     245.990E-03     254.053E-03
            3582            3980     322.273E-03     327.610E-03
            3582            3983     231.300E-03     230.087E-03
            3582            3984     317.364E-03     311.547E-03
            3583            3980     322.273E-03     327.610E-03
            3583            3981     405.020E-03     404.363E-03
            3583            3984     317.364E-03     311.547E-03
            3583            3985     430.868E-03     418.603E-03
            3584              73     444.676E-03     439.735E-03
            3584              74     492.597E-03     475.063E-03
            3584            3981     405.020E-03     404.363E-03
            3584            3985     430.868E-03     418.603E-03
            3585             393     151.883E-03     160.046E-03
            3585             394     173.549E-03     170.882E-03
            3585            3982     174.413E-03     179.606E-03
            3585            3986     191.770E-03     185.020E-03
            3586            3982     174.413E-03     179.606E-03
            3586            3983     231.300E-03     230.087E-03
            3586            3986     191.770E-03     185.020E-03
            3586            3987     239.549E-03     223.430E-03
            3587            3983     231.300E-03     230.087E-03
            3587            3984     317.364E-03     311.547E-03
            3587            3987     239.549E-03     223.430E-03
            3587            3988     306.388E-03     279.061E-03
            3588            3984     317.364E-03     311.547E-03
            3588            3985     430.868E-03     418.603E-03
            3588            3988     306.388E-03     279.061E-03
            3588            3989     396.239E-03     361.272E-03
            3589              74     492.597E-03     475.063E-03
            3589              75     448.752E-03     412.076E-03
            3589            3985     430.868E-03     418.603E-03
            3589            3989     396.239E-03     361.272E-03
            3590             394     173.549E-03     170.882E-03
            3590             395     200.808E-03     186.290E-03
            3590            3986     191.770E-03     185.020E-03
            3590            3990     217.010E-03     201.215E-03
            3591            3986     191.770E-03     185.020E-03
            3591            3987     239.549E-03     223.430E-03
            3591            3990     217.010E-03     201.215E-03
            3591            3991     259.506E-03     240.182E-03
            3592            3987     239.549E-03     223.430E-03
            3592            3988     306.388E-03     279.061E-03
            3592            3991     259.506E-03     240.182E-03
            3592            3992     316.010E-03     295.094E-03
            3593            3988     306.388E-03     279.061E-03
            3593            3989     396.239E-03     361.272E-03
            3593            3992     316.010E-03     295.094E-03
            3593            3993     374.542E-03     357.013E-03
            3594              75     448.752E-03     412.076E-03
            3594              76     402.816E-03     388.019E-03
            3594            3989     396.239E-03     361.272E-03
            3594            3993     374.542E-03     357.013E-03
            3595             395     200.808E-03     186.290E-03
            3595             396     190.167E-03     171.122E-03
            3595            3990     217.010E-03     201.215E-03
            3595            3994     211.754E-03     195.572E-03
            3596            3990     217.010E-03     201.215E-03
            3596            3991     259.506E-03     240.182E-03
            3596            3994     211.754E-03     195.572E-03
            3596            3995     266.220E-03     257.110E-03
            3597            3991     259.506E-03     240.182E-03
            3597            3992     316.010E-03     295.094E-03
            3597            3995     266.220E-03     257.110E-03
            3597            3996     335.201E-03     337.329E-03
            3598            3992     316.010E-03     295.094E-03
            3598            3993     374.542E-03     357.013E-03
            3598            3996     335.201E-03     337.329E-03
            3598            3997     407.328E-03     413.643E-03
            3599              76     402.816E-03     388.019E-03
            3599              77     443.294E-03     446.761E-03
            3599            3993     374.542E-03     357.013E-03
            3599            3997     407.328E-03     413.643E-03
            3600             396     190.167E-03     171.122E-03
            3600             397     189.755E-03     173.507E-03
            3600            3994     211.754E-03     195.572E-03
            3600            3998     213.896E-03     202.354E-03
            3601            3994     211.754E-03     195.572E-03
            3601            3995     266.220E-03     257.110E-03
            3601            3998     213.896E-03     202.354E-03
            3601            3999     274.586E-03     273.657E-03
            3602            3995     266.220E-03     257.110E-03
            3602            3996     335.201E-03     337.329E-03
            3602            3999     274.586E-03     273.657E-03
            3602            4000     349.691E-03     356.142E-03
            3603            3996     335.201E-03     337.329E-03
            3603            3997     407.328E-03     413.643E-03
            3603            4000     349.691E-03     356.142E-03
            3603            4001     430.902E-03     432.865E-03
            3604              77     443.294E-03     446.761E-03
            3604              78     473.491E-03     469.483E-03
            3604            3997     407.328E-03     413.643E-03
            3604            4001     430.902E-03     432.865E-03
            3605             397     189.755E-03     173.507E-03
            3605             398     192.877E-03     182.740E-03
            3605            3998     213.896E-03     202.354E-03
            3605            4002     218.496E-03     212.638E-03
            3606            3998     213.896E-03     202.354E-03
            3606            3999     274.586E-03     273.657E-03
            3606            4002     218.496E-03     212.638E-03
            3606            4003     282.156E-03     283.552E-03
            3607            3999     274.586E-03     273.657E-03
            3607            4000     349.691E-03     356.142E-03
            3607            4003     282.156E-03     283.552E-03
            3607            4004     363.392E-03     366.431E-03
            3608            4000     349.691E-03     356.142E-03
            3608            4001     430.902E-03     432.865E-03
            3608            4004     363.392E-03     366.431E-03
            3608            4005     453.985E-03     451.838E-03
            3609              78     473.491E-03     469.483E-03
            3609              79     501.313E-03     495.303E-03
            3609            4001     430.902E-03     432.865E-03
            3609            4005     453.985E-03     451.838E-03
            3610             398     192.877E-03     182.740E-03
            3610             399     196.250E-03     193.105E-03
            3610            4002     218.496E-03     212.638E-03
            3610            4006     223.308E-03     222.429E-03
            3611            4002     218.496E-03     212.638E-03
            3611            4003     282.156E-03     283.552E-03
            3611            4006     223.308E-03     222.429E-03
            3611            4007     290.848E-03     292.808E-03
            3612            4003     282.156E-03     283.552E-03
            3612            4004     363.392E-03     366.431E-03
            3612            4007     290.848E-03     292.808E-03
            3612            4008     377.930E-03     378.902E-03
            3613            4004     363.392E-03     366.431E-03
            3613            4005     453.985E-03     451.838E-03
            3613            4008     377.930E-03     378.902E-03
            3613            4009     475.352E-03     471.082E-03
            3614              79     501.313E-03     495.303E-03
            3614              80     526.098E-03     518.143E-03
            3614            4005     453.985E-03     451.838E-03
            3614            4009     475.352E-03     471.082E-03
            3615             399     196.250E-03     193.105E-03
            3615             400     199.559E-03     203.684E-03
            3615            4006     223.308E-03     222.429E-03
            3615            4010     227.591E-03     231.761E-03
            3616            4006     223.308E-03     222.429E-03
            3616            4007     290.848E-03     292.808E-03
            3616            4010     227.591E-03     231.761E-03
            3616            4011     299.762E-03     303.298E-03
            3617            4007     290.848E-03     292.808E-03
            3617            4008     377.930E-03     378.902E-03
            3617            4011     299.762E-03     303.298E-03
            3617            4012     393.514E-03     393.916E-03
            3618            4008     377.930E-03     378.902E-03
            3618            4009     475.352E-03     471.082E-03
            3618            4012     393.514E-03     393.916E-03
            3618            4013     496.527E-03     491.189E-03
            3619              80     526.098E-03     518.143E-03
            3619              81     549.847E-03     541.223E-03
            3619            4009     475.352E-03     471.082E-03
            3619            4013     496.527E-03     491.189E-03
            3620             400     199.559E-03     203.684E-03
            3620             401     199.140E-03     210.555E-03
            3620            4010     227.591E-03     231.761E-03
            3620            4014     231.065E-03     241.453E-03
            3621            4010     227.591E-03     231.761E-03
            3621            4011     299.762E-03     303.298E-03
            3621            4014     231.065E-03     241.453E-03
            3621            4015     308.778E-03     315.695E-03
            3622            4011     299.762E-03     303.298E-03
            3622            4012     393.514E-03     393.916E-03
            3622            4015     308.778E-03     315.695E-03
            3622            4016     408.157E-03     409.436E-03
            3623            4012     393.514E-03     393.916E-03
            3623            4013     496.527E-03     491.189E-03
            3623            4016     408.157E-03     409.436E-03
            3623            4017     518.400E-03     512.694E-03
            3624              81     549.847E-03     541.223E-03
            3624              82     574.972E-03     565.475E-03
            3624            4013     496.527E-03     491.189E-03
            3624            4017     518.400E-03     512.694E-03
            3625             401     199.140E-03     210.555E-03
            3625             402     194.095E-03     211.311E-03
            3625            4014     231.065E-03     241.453E-03
            3625            4018     228.381E-03     243.985E-03
            3626            4014     231.065E-03     241.453E-03
            3626            4015     308.778E-03     315.695E-03
            3626            4018     228.381E-03     243.985E-03
            3626            4019     315.633E-03     327.604E-03
            3627            4015     308.778E-03     315.695E-03
            3627            4016     408.157E-03     409.436E-03
            3627            4019     315.633E-03     327.604E-03
            3627            4020     424.253E-03     429.544E-03
            3628            4016     408.157E-03     409.436E-03
            3628            4017     518.400E-03     512.694E-03
            3628            4020     424.253E-03     429.544E-03
            3628            4021     538.625E-03     534.361E-03
            3629              82     574.972E-03     565.475E-03
            3629              83     597.259E-03     588.105E-03
            3629            4017     518.400E-03     512.694E-03
            3629            4021     538.625E-03     534.361E-03
            3630             402     194.095E-03     211.311E-03
            3630             403     178.788E-03     197.797E-03
            3630            4018     228.381E-03     243.985E-03
            3630            4022     216.295E-03     231.683E-03
            3631            4018     228.381E-03     243.985E-03
            3631            4019     315.633E-03     327.604E-03
            3631            4022     216.295E-03     231.683E-03
            3631            4023     311.032E-03     321.484E-03
            3632            4019     315.633E-03     327.604E-03
            3632            4020     424.253E-03     429.544E-03
            3632            4023     311.032E-03     321.484E-03
            3632            4024     436.601E-03     444.559E-03
            3633            4020     424.253E-03     429.544E-03
            3633            4021     538.625E-03     534.361E-03
            3633            4024     436.601E-03     444.559E-03
            3633            4025     567.960E-03     568.192E-03
            3634              83     597.259E-03     588.105E-03
            3634              84     630.890E-03     624.585E-03
            3634            4021     538.625E-03     534.361E-03
            3634            4025     567.960E-03     568.192E-03
            3635             403     178.788E-03     197.797E-03
            3635             404     148.003E-03     159.539E-03
            3635            4022     216.295E-03     231.683E-03
            3635            4026     191.395E-03     197.007E-03
            3636            4022     216.295E-03     231.683E-03
            3636            4023     311.032E-03     321.484E-03
            3636            4026     191.395E-03     197.007E-03
            3636            4027     292.382E-03     286.854E-03
            3637            4023     311.032E-03     321.484E-03
            3637            4024     436.601E-03     444.559E-03
            3637            4027     292.382E-03     286.854E-03
            3637            4028     426.506E-03     414.578E-03
            3638            4024     436.601E-03     444.559E-03
            3638            4025     567.960E-03     568.192E-03
            3638            4028     426.506E-03     414.578E-03
            3638            4029     591.850E-03     572.528E-03
            3639              84     630.890E-03     624.585E-03
            3639              85     680.568E-03     655.051E-03
            3639            4025     567.960E-03     568.192E-03
            3639            4029     591.850E-03     572.528E-03
            3640             404     148.003E-03     159.539E-03
            3640             405     180.536E-03     176.496E-03
            3640            4026     191.395E-03     197.007E-03
            3640            4030     215.243E-03     204.202E-03
            3641            4026     191.395E-03     197.007E-03
            3641            4027     292.382E-03     286.854E-03
            3641            4030     215.243E-03     204.202E-03
            3641            4031     301.792E-03     276.152E-03
            3642            4027     292.382E-03     286.854E-03
            3642            4028     426.506E-03     414.578E-03
            3642            4031     301.792E-03     276.152E-03
            3642            4032     412.168E-03     370.906E-03
            3643            4028     426.506E-03     414.578E-03
            3643            4029     591.850E-03     572.528E-03
            3643            4032     412.168E-03     370.906E-03
            3643            4033     553.628E-03     502.483E-03
            3644              85     680.568E-03     655.051E-03
            3644              86     636.472E-03     583.481E-03
            3644            4029     591.850E-03     572.528E-03
            3644            4033     553.628E-03     502.483E-03
            3645             405     180.536E-03     176.496E-03
            3645             406     217.271E-03     198.119E-03
            3645            4030     215.243E-03     204.202E-03
            3645            4034     248.648E-03     227.763E-03
            3646            4030     215.243E-03     204.202E-03
            3646            4031     301.792E-03     276.152E-03
            3646            4034     248.648E-03     227.763E-03
            3646            4035     326.416E-03     300.891E-03
            3647            4031     301.792E-03     276.152E-03
            3647            4032     412.168E-03     370.906E-03
            3647            4035     326.416E-03     300.891E-03
            3647            4036     426.339E-03     398.787E-03
            3648            4032     412.168E-03     370.906E-03
            3648            4033     553.628E-03     502.483E-03
            3648            4036     426.339E-03     398.787E-03
            3648            4037     535.237E-03     510.586E-03
            3649              86     636.472E-03     583.481E-03
            3649              87     590.539E-03     567.912E-03
            3649            4033     553.628E-03     502.483E-03
            3649            4037     535.237E-03     510.586E-03
            3650             406     217.271E-03     198.119E-03
            3650             407     200.480E-03     176.486E-03
            3650            4034     248.648E-03     227.763E-03
            3650            4038     240.134E-03     221.067E-03
            3651            4034     248.648E-03     227.763E-03
            3651            4035     326.416E-03     300.891E-03
            3651            4038     240.134E-03     221.067E-03
            3651            4039     335.637E-03     326.884E-03
            3652            4035     326.416E-03     300.891E-03
            3652            4036     426.339E-03     398.787E-03
            3652            4039     335.637E-03     326.884E-03
            3652            4040     451.862E-03     456.648E-03
            3653            4036     426.339E-03     398.787E-03
            3653            4037     535.237E-03     510.586E-03
            3653            4040     451.862E-03     456.648E-03
            3653            4041     571.260E-03     579.002E-03
            3654              87     590.539E-03     567.912E-03
            3654              88     630.203E-03     632.737E-03
            3654            4037     535.237E-03     510.586E-03
            3654            4041     571.260E-03     579.002E-03
            3655             407     200.480E-03     176.486E-03
            3655             408     197.858E-03     178.868E-03
            3655            4038     240.134E-03     221.067E-03
            3655            4042     241.667E-03     229.883E-03
            3656            4038     240.134E-03     221.067E-03
            3656            4039     335.637E-03     326.884E-03
            3656            4042     241.667E-03     229.883E-03
            3656            4043     346.131E-03     348.737E-03
            3657            4039     335.637E-03     326.884E-03
            3657            4040     451.862E-03     456.648E-03
            3657            4043     346.131E-03     348.737E-03
            3657            4044     468.622E-03     478.663E-03
            3658            4040     451.862E-03     456.648E-03
            3658            4041     571.260E-03     579.002E-03
            3658            4044     468.622E-03     478.663E-03
            3658            4045     595.778E-03     597.539E-03
            3659              88     630.203E-03     632.737E-03
            3659              89     661.006E-03     654.220E-03
            3659            4041     571.260E-03     579.002E-03
            3659            4045     595.778E-03     597.539E-03
            3660             408     197.858E-03     178.868E-03
            3660             409     200.036E-03     190.002E-03
            3660            4042     241.667E-03     229.883E-03
            3660            4046     246.750E-03     243.146E-03
            3661            4042     241.667E-03     229.883E-03
            3661            4043     346.131E-03     348.737E-03
            3661            4046     246.750E-03     243.146E-03
            3661            4047     355.099E-03     360.705E-03
            3662            4043     346.131E-03     348.737E-03
            3662            4044     468.622E-03     478.663E-03
            3662            4047     355.099E-03     360.705E-03
            3662            4048     483.226E-03     488.826E-03
            3663            4044     468.622E-03     478.663E-03
            3663            4045     595.778E-03     597.539E-03
            3663            4048     483.226E-03     488.826E-03
            3663            4049     619.854E-03     617.122E-03
            3664              89     661.006E-03     654.220E-03
            3664              90     689.894E-03     681.604E-03
            3664            4045     595.778E-03     597.539E-03
            3664            4049     619.854E-03     617.122E-03
            3665             409     200.036E-03     190.002E-03
            3665             410     204.831E-03     206.407E-03
            3665            4046     246.750E-03     243.146E-03
            3665            4050     251.556E-03     255.613E-03
            3666            4046     246.750E-03     243.146E-03
            3666            4047     355.099E-03     360.705E-03
            3666            4050     251.556E-03     255.613E-03
            3666            4051     363.871E-03     370.574E-03
            3667            4047     355.099E-03     360.705E-03
            3667            4048     483.226E-03     488.826E-03
            3667            4051     363.871E-03     370.574E-03
            3667            4052     499.394E-03     503.323E-03
            3668            4048     483.226E-03     488.826E-03
            3668            4049     619.854E-03     617.122E-03
            3668            4052     499.394E-03     503.323E-03
            3668            4053     642.443E-03     637.498E-03
            3669              90     689.894E-03     681.604E-03
            3669              91     715.457E-03     704.569E-03
            3669            4049     619.854E-03     617.122E-03
            3669            4053     642.443E-03     637.498E-03
            3670             410     204.831E-03     206.407E-03
            3670             411     204.999E-03     217.720E-03
            3670            4050     251.556E-03     255.613E-03
            3670            4054     255.772E-03     268.484E-03
            3671            4050     251.556E-03     255.613E-03
            3671            4051     363.871E-03     370.574E-03
            3671            4054     255.772E-03     268.484E-03
            3671            4055     373.363E-03     383.983E-03
            3672            4051     363.871E-03     370.574E-03
            3672            4052     499.394E-03     503.323E-03
            3672            4055     373.363E-03     383.983E-03
            3672            4056     514.093E-03     518.233E-03
            3673            4052     499.394E-03     503.323E-03
            3673            4053     642.443E-03     637.498E-03
            3673            4056     514.093E-03     518.233E-03
            3673            4057     664.563E-03     658.796E-03
            3674              91     715.457E-03     704.569E-03
            3674              92     741.017E-03     729.745E-03
            3674            4053     642.443E-03     637.498E-03
            3674            4057     664.563E-03     658.796E-03
            3675             411     204.999E-03     217.720E-03
            3675             412     200.082E-03     221.390E-03
            3675            4054     255.772E-03     268.484E-03
            3675            4058     252.974E-03     272.501E-03
            3676            4054     255.772E-03     268.484E-03
            3676            4055     373.363E-03     383.983E-03
            3676            4058     252.974E-03     272.501E-03
            3676            4059     380.253E-03     396.413E-03
            3677            4055     373.363E-03     383.983E-03
            3677            4056     514.093E-03     518.233E-03
            3677            4059     380.253E-03     396.413E-03
            3677            4060     530.436E-03     539.295E-03
            3678            4056     514.093E-03     518.233E-03
            3678            4057     664.563E-03     658.796E-03
            3678            4060     530.436E-03     539.295E-03
            3678            4061     684.831E-03     680.569E-03
            3679              92     741.017E-03     729.745E-03
            3679              93     763.324E-03     751.662E-03
            3679            4057     664.563E-03     658.796E-03
            3679            4061     684.831E-03     680.569E-03
            3680             412     200.082E-03     221.390E-03
            3680             413     182.727E-03     206.665E-03
            3680            4058     252.974E-03     272.501E-03
            3680            4062     239.276E-03     258.085E-03
            3681            4058     252.974E-03     272.501E-03
            3681            4059     380.253E-03     396.413E-03
            3681            4062     239.276E-03     258.085E-03
            3681            4063     374.037E-03     386.541E-03
            3682            4059     380.253E-03     396.413E-03
            3682            4060     530.436E-03     539.295E-03
            3682            4063     374.037E-03     386.541E-03
            3682            4064     542.041E-03     552.774E-03
            3683            4060     530.436E-03     539.295E-03
            3683            4061     684.831E-03     680.569E-03
            3683            4064     542.041E-03     552.774E-03
            3683            4065     714.663E-03     716.152E-03
            3684              93     763.324E-03     751.662E-03
            3684              94     797.384E-03     790.232E-03
            3684            4061     684.831E-03     680.569E-03
            3684            4065     714.663E-03     716.152E-03
            3685             413     182.727E-03     206.665E-03
            3685             414     146.955E-03     160.577E-03
            3685            4062     239.276E-03     258.085E-03
            3685            4066     210.898E-03     215.954E-03
            3686            4062     239.276E-03     258.085E-03
            3686            4063     374.037E-03     386.541E-03
            3686            4066     210.898E-03     215.954E-03
            3686            4067     352.296E-03     342.285E-03
            3687            4063     374.037E-03     386.541E-03
            3687            4064     542.041E-03     552.774E-03
            3687            4067     352.296E-03     342.285E-03
            3687            4068     527.359E-03     509.727E-03
            3688            4064     542.041E-03     552.774E-03
            3688            4065     714.663E-03     716.152E-03
            3688            4068     527.359E-03     509.727E-03
            3688            4069     736.926E-03     711.135E-03
            3689              94     797.384E-03     790.232E-03
            3689              95     848.760E-03     815.951E-03
            3689            4065     714.663E-03     716.152E-03
            3689            4069     736.926E-03     711.135E-03
            3690             414     146.955E-03     160.577E-03
            3690             415     193.138E-03     190.921E-03
            3690            4066     210.898E-03     215.954E-03
            3690            4070     244.013E-03     233.482E-03
            3691            4066     210.898E-03     215.954E-03
            3691            4067     352.296E-03     342.285E-03
            3691            4070     244.013E-03     233.482E-03
            3691            4071     364.794E-03     337.108E-03
            3692            4067     352.296E-03     342.285E-03
            3692            4068     527.359E-03     509.727E-03
            3692            4071     364.794E-03     337.108E-03
            3692            4072     511.164E-03     464.686E-03
            3693            4068     527.359E-03     509.727E-03
            3693            4069     736.926E-03     711.135E-03
            3693            4072     511.164E-03     464.686E-03
            3693            4073     695.697E-03     636.775E-03
            3694              95     848.760E-03     815.951E-03
            3694              96     803.663E-03     742.259E-03
            3694            4069     736.926E-03     711.135E-03
            3694            4073     695.697E-03     636.775E-03
            3695             415     193.138E-03     190.921E-03
            3695             416     241.163E-03     230.539E-03
            3695            4070     244.013E-03     233.482E-03
            3695            4074     286.323E-03     273.636E-03
            3696            4070     244.013E-03     233.482E-03
            3696            4071     364.794E-03     337.108E-03
            3696            4074     286.323E-03     273.636E-03
            3696            4075     396.121E-03     378.034E-03
            3697            4071     364.794E-03     337.108E-03
            3697            4072     511.164E-03     464.686E-03
            3697            4075     396.121E-03     378.034E-03
            3697            4076     533.976E-03     512.969E-03
            3698            4072     511.164E-03     464.686E-03
            3698            4073     695.697E-03     636.775E-03
            3698            4076     533.976E-03     512.969E-03
            3698            4077     684.956E-03     662.899E-03
            3699              96     803.663E-03     742.259E-03
            3699              97     762.641E-03     739.115E-03
            3699            4073     695.697E-03     636.775E-03
            3699            4077     684.956E-03     662.899E-03
            3700             416     241.163E-03     230.539E-03
            3700             417     213.254E-03     205.373E-03
            3700            4074     286.323E-03     273.636E-03
            3700            4078     273.523E-03     270.270E-03
            3701            4074     286.323E-03     273.636E-03
            3701            4075     396.121E-03     378.034E-03
            3701            4078     273.523E-03     270.270E-03
            3701            4079     409.486E-03     415.510E-03
            3702            4075     396.121E-03     378.034E-03
            3702            4076     533.976E-03     512.969E-03
            3702            4079     409.486E-03     415.510E-03
            3702            4080     567.629E-03     584.875E-03
            3703            4076     533.976E-03     512.969E-03
            3703            4077     684.956E-03     662.899E-03
            3703            4080     567.629E-03     584.875E-03
            3703            4081     728.638E-03     742.268E-03
            3704              97     762.641E-03     739.115E-03
            3704              98     807.099E-03     810.531E-03
            3704            4077     684.956E-03     662.899E-03
            3704            4081     728.638E-03     742.268E-03
            3705             417     213.254E-03     205.373E-03
            3705             418     199.829E-03     202.478E-03
            3705            4078     273.523E-03     270.270E-03
            3705            4082     265.649E-03     274.670E-03
            3706            4078     273.523E-03     270.270E-03
            3706            4079     409.486E-03     415.510E-03
            3706            4082     265.649E-03     274.670E-03
            3706            4083     418.799E-03     442.610E-03
            3707            4079     409.486E-03     415.510E-03
            3707            4080     567.629E-03     584.875E-03
            3707            4083     418.799E-03     442.610E-03
            3707            4084     587.371E-03     615.556E-03
            3708            4080     567.629E-03     584.875E-03
            3708            4081     728.638E-03     742.268E-03
            3708            4084     587.371E-03     615.556E-03
            3708            4085     751.724E-03     761.105E-03
            3709              98     807.099E-03     810.531E-03
            3709              99     834.720E-03     829.335E-03
            3709            4081     728.638E-03     742.268E-03
            3709            4085     751.724E-03     761.105E-03
            3710             418     199.829E-03     202.478E-03
            3710             419     180.022E-03     190.707E-03
            3710            4082     265.649E-03     274.670E-03
            3710            4086     250.355E-03     263.678E-03
            3711            4082     265.649E-03     274.670E-03
            3711            4083     418.799E-03     442.610E-03
            3711            4086     250.355E-03     263.678E-03
            3711            4087     409.096E-03     429.344E-03
            3712            4083     418.799E-03     442.610E-03
            3712            4084     587.371E-03     615.556E-03
            3712            4087     409.096E-03     429.344E-03
            3712            4088     596.069E-03     620.507E-03
            3713            4084     587.371E-03     615.556E-03
            3713            4085     751.724E-03     761.105E-03
            3713            4088     596.069E-03     620.507E-03
            3713            4089     785.994E-03     796.935E-03
            3714              99     834.720E-03     829.335E-03
            3714             100     877.228E-03     874.773E-03
            3714            4085     751.724E-03     761.105E-03
            3714            4089     785.994E-03     796.935E-03
            3715             419     180.022E-03     190.707E-03
            3715             420     142.313E-03     149.510E-03
            3715            4086     250.355E-03     263.678E-03
            3715            4090     218.544E-03     221.863E-03
            3716            4086     250.355E-03     263.678E-03
            3716            4087     409.096E-03     429.344E-03
            3716            4090     218.544E-03     221.863E-03
            3716            4091     381.939E-03     377.070E-03
            3717            4087     409.096E-03     429.344E-03
            3717            4088     596.069E-03     620.507E-03
            3717            4091     381.939E-03     377.070E-03
            3717            4092     576.374E-03     566.352E-03
            3718            4088     596.069E-03     620.507E-03
            3718            4089     785.994E-03     796.935E-03
            3718            4092     576.374E-03     566.352E-03
            3718            4093     806.937E-03     785.466E-03
            3719             100     877.228E-03     874.773E-03
            3719             101     930.082E-03     898.015E-03
            3719            4089     785.994E-03     796.935E-03
            3719            4093     806.937E-03     785.466E-03
            3720              15     199.196E-03     198.151E-03
            3720             420     142.313E-03     149.510E-03
            3720             429     257.931E-03     250.908E-03
            3720            4090     218.544E-03     221.863E-03
            3721             429     257.931E-03     250.908E-03
            3721             430     397.627E-03     376.200E-03
            3721            4090     218.544E-03     221.863E-03
            3721            4091     381.939E-03     377.070E-03
            3722             430     397.627E-03     376.200E-03
            3722             431     564.851E-03     523.777E-03
            3722            4091     381.939E-03     377.070E-03
            3722            4092     576.374E-03     566.352E-03
            3723             431     564.851E-03     523.777E-03
            3723             432     773.476E-03     716.086E-03
            3723            4092     576.374E-03     566.352E-03
            3723            4093     806.937E-03     785.466E-03
            3724               3     895.763E-03     833.817E-03
            3724             101     930.082E-03     898.015E-03
            3724             432     773.476E-03     716.086E-03
            3724            4093     806.937E-03     785.466E-03
            3725              20     994.686E-03     960.034E-03
            3725             560         1.05990         1.02374
            3725             577     859.071E-03     829.911E-03
            3725            4094     920.939E-03     898.842E-03
            3726             577     859.071E-03     829.911E-03
            3726             578     618.631E-03     600.097E-03
            3726            4094     920.939E-03     898.842E-03
            3726            4095     663.782E-03     657.276E-03
            3727             578     618.631E-03     600.097E-03
            3727             579     419.169E-03     410.409E-03
            3727            4095     663.782E-03     657.276E-03
            3727            4096     458.112E-03     457.759E-03
            3728             579     419.169E-03     410.409E-03
            3728             580     246.855E-03     246.013E-03
            3728            4096     458.112E-03     457.759E-03
            3728            4097     304.411E-03     311.457E-03
            3729              17     171.152E-03     173.302E-03
            3729             580     246.855E-03     246.013E-03
            3729             581     239.148E-03     248.627E-03
            3729            4097     304.411E-03     311.457E-03
            3730             560         1.05990         1.02374
            3730             561     974.931E-03     971.121E-03
            3730            4094     920.939E-03     898.842E-03
            3730            4098     879.719E-03     890.763E-03
            3731            4094     920.939E-03     898.842E-03
            3731            4095     663.782E-03     657.276E-03
            3731            4098     879.719E-03     890.763E-03
            3731            4099     681.668E-03     709.020E-03
            3732            4095     663.782E-03     657.276E-03
            3732            4096     458.112E-03     457.759E-03
            3732            4099     681.668E-03     709.020E-03
            3732            4100     491.754E-03     515.380E-03
            3733            4096     458.112E-03     457.759E-03
            3733            4097     304.411E-03     311.457E-03
            3733            4100     491.754E-03     515.380E-03
            3733            4101     345.436E-03     360.492E-03
            3734             581     239.148E-03     248.627E-03
            3734             582     286.991E-03     298.516E-03
            3734            4097     304.411E-03     311.457E-03
            3734            4101     345.436E-03     360.492E-03
            3735             561     974.931E-03     971.121E-03
            3735             562     908.700E-03     903.546E-03
            3735            4098     879.719E-03     890.763E-03
            3735            4102     826.107E-03     836.413E-03
            3736            4098     879.719E-03     890.763E-03
            3736            4099     681.668E-03     709.020E-03
            3736            4102     826.107E-03     836.413E-03
            3736            4103     664.608E-03     693.619E-03
            3737            4099     681.668E-03     709.020E-03
            3737            4100     491.754E-03     515.380E-03
            3737            4103     664.608E-03     693.619E-03
            3737            4104     503.018E-03     526.172E-03
            3738            4100     491.754E-03     515.380E-03
            3738            4101     345.436E-03     360.492E-03
            3738            4104     503.018E-03     526.172E-03
            3738            4105     365.262E-03     373.249E-03
            3739             582     286.991E-03     298.516E-03
            3739             583     310.892E-03     312.789E-03
            3739            4101     345.436E-03     360.492E-03
            3739            4105     365.262E-03     373.249E-03
            3740             562     908.700E-03     903.546E-03
            3740             563     858.975E-03     865.132E-03
            3740            4102     826.107E-03     836.413E-03
            3740            4106     785.998E-03     801.334E-03
            3741            4102     826.107E-03     836.413E-03
            3741            4103     664.608E-03     693.619E-03
            3741            4106     785.998E-03     801.334E-03
            3741            4107     636.903E-03     652.337E-03
            3742            4103     664.608E-03     693.619E-03
            3742            4104     503.018E-03     526.172E-03
            3742            4107     636.903E-03     652.337E-03
            3742            4108     492.548E-03     494.438E-03
            3743            4104     503.018E-03     526.172E-03
            3743            4105     365.262E-03     373.249E-03
            3743            4108     492.548E-03     494.438E-03
            3743            4109     374.912E-03     368.863E-03
            3744             583     310.892E-03     312.789E-03
            3744             584     326.053E-03     316.652E-03
            3744            4105     365.262E-03     373.249E-03
            3744            4109     374.912E-03     368.863E-03
            3745             563     858.975E-03     865.132E-03
            3745             564     784.007E-03     761.295E-03
            3745            4106     785.998E-03     801.334E-03
            3745            4110     722.287E-03     698.430E-03
            3746            4106     785.998E-03     801.334E-03
            3746            4107     636.903E-03     652.337E-03
            3746            4110     722.287E-03     698.430E-03
            3746            4111     597.627E-03     572.493E-03
            3747            4107     636.903E-03     652.337E-03
            3747            4108     492.548E-03     494.438E-03
            3747            4111     597.627E-03     572.493E-03
            3747            4112     479.468E-03     458.153E-03
            3748            4108     492.548E-03     494.438E-03
            3748            4109     374.912E-03     368.863E-03
            3748            4112     479.468E-03     458.153E-03
            3748            4113     389.723E-03     375.221E-03
            3749             584     326.053E-03     316.652E-03
            3749             585     355.583E-03     344.108E-03
            3749            4109     374.912E-03     368.863E-03
            3749            4113     389.723E-03     375.221E-03
            3750              23     822.348E-03     769.326E-03
            3750             564     784.007E-03     761.295E-03
            3750             589     724.058E-03     675.872E-03
            3750            4110     722.287E-03     698.430E-03
            3751             588     557.679E-03     525.519E-03
            3751             589     724.058E-03     675.872E-03
            3751            4110     722.287E-03     698.430E-03
            3751            4111     597.627E-03     572.493E-03
            3752             587     429.622E-03     414.042E-03
            3752             588     557.679E-03     525.519E-03
            3752            4111     597.627E-03     572.493E-03
            3752            4112     479.468E-03     458.153E-03
            3753             586     330.369E-03     322.938E-03
            3753             587     429.622E-03     414.042E-03
            3753            4112     479.468E-03     458.153E-03
            3753            4113     389.723E-03     375.221E-03
            3754              25     291.512E-03     286.775E-03
            3754             585     355.583E-03     344.108E-03
            3754             586     330.369E-03     322.938E-03
            3754            4113     389.723E-03     375.221E-03
            4035              11     896.311E-03     829.913E-03
            4035             424     774.010E-03     712.530E-03
            4035             527     864.059E-03     839.050E-03
            4035            4345     773.201E-03     751.117E-03
            4036             423     565.220E-03     520.821E-03
            4036             424     774.010E-03     712.530E-03
            4036            4345     773.201E-03     751.117E-03
            4036            4346     597.547E-03     578.928E-03
            4037             422     397.913E-03     373.720E-03
            4037             423     565.220E-03     520.821E-03
            4037            4346     597.547E-03     578.928E-03
            4037            4347     438.065E-03     424.175E-03
            4038             421     258.183E-03     249.316E-03
            4038             422     397.913E-03     373.720E-03
            4038            4347     438.065E-03     424.175E-03
            4038            4348     307.124E-03     299.286E-03
            4039              15     199.196E-03     198.151E-03
            4039             421     258.183E-03     249.316E-03
            4039             446     251.020E-03     246.006E-03
            4039            4348     307.124E-03     299.286E-03
            4040             526     901.914E-03     908.948E-03
            4040             527     864.059E-03     839.050E-03
            4040            4345     773.201E-03     751.117E-03
            4040            4349     815.445E-03     835.088E-03
            4041            4345     773.201E-03     751.117E-03
            4041            4346     597.547E-03     578.928E-03
            4041            4349     815.445E-03     835.088E-03
            4041            4350     636.293E-03     661.947E-03
            4042            4346     597.547E-03     578.928E-03
            4042            4347     438.065E-03     424.175E-03
            4042            4350     636.293E-03     661.947E-03
            4042            4351     450.443E-03     462.197E-03
            4043            4347     438.065E-03     424.175E-03
            4043            4348     307.124E-03     299.286E-03
            4043            4351     450.443E-03     462.197E-03
            4043            4352     285.273E-03     286.327E-03
            4044             445     213.950E-03     211.955E-03
            4044             446     251.020E-03     246.006E-03
            4044            4348     307.124E-03     299.286E-03
            4044            4352     285.273E-03     286.327E-03
            4045             525     945.080E-03     945.352E-03
            4045             526     901.914E-03     908.948E-03
            4045            4349     815.445E-03     835.088E-03
            4045            4353     849.146E-03     867.890E-03
            4046            4349     815.445E-03     835.088E-03
            4046            4350     636.293E-03     661.947E-03
            4046            4353     849.146E-03     867.890E-03
            4046            4354     648.205E-03     682.231E-03
            4047            4350     636.293E-03     661.947E-03
            4047            4351     450.443E-03     462.197E-03
            4047            4354     648.205E-03     682.231E-03
            4047            4355     443.591E-03     464.606E-03
            4048            4351     450.443E-03     462.197E-03
            4048            4352     285.273E-03     286.327E-03
            4048            4355     443.591E-03     464.606E-03
            4048            4356     263.684E-03     271.156E-03
            4049             444     184.650E-03     187.893E-03
            4049             445     213.950E-03     211.955E-03
            4049            4352     285.273E-03     286.327E-03
            4049            4356     263.684E-03     271.156E-03
            4050             524         1.00186     975.223E-03
            4050             525     945.080E-03     945.352E-03
            4050            4353     849.146E-03     867.890E-03
            4050            4357     869.161E-03     854.831E-03
            4051            4353     849.146E-03     867.890E-03
            4051            4354     648.205E-03     682.231E-03
            4051            4357     869.161E-03     854.831E-03
            4051            4358     621.566E-03     621.219E-03
            4052            4354     648.205E-03     682.231E-03
            4052            4355     443.591E-03     464.606E-03
            4052            4358     621.566E-03     621.219E-03
            4052            4359     410.988E-03     413.949E-03
            4053            4355     443.591E-03     464.606E-03
            4053            4356     263.684E-03     271.156E-03
            4053            4359     410.988E-03     413.949E-03
            4053            4360     227.318E-03     231.603E-03
            4054             443     141.473E-03     143.597E-03
            4054             444     184.650E-03     187.893E-03
            4054            4356     263.684E-03     271.156E-03
            4054            4360     227.318E-03     231.603E-03
            4055             523     957.599E-03     928.663E-03
            4055             524         1.00186     975.223E-03
            4055            4357     869.161E-03     854.831E-03
            4055            4361     828.306E-03     804.023E-03
            4056            4357     869.161E-03     854.831E-03
            4056            4358     621.566E-03     621.219E-03
            4056            4361     828.306E-03     804.023E-03
            4056            4362     596.092E-03     581.461E-03
            4057            4358     621.566E-03     621.219E-03
            4057            4359     410.988E-03     413.949E-03
            4057            4362     596.092E-03     581.461E-03
            4057            4363     395.398E-03     389.618E-03
            4058            4359     410.988E-03     413.949E-03
            4058            4360     227.318E-03     231.603E-03
            4058            4363     395.398E-03     389.618E-03
            4058            4364     210.095E-03     209.753E-03
            4059             442     125.383E-03     125.171E-03
            4059             443     141.473E-03     143.597E-03
            4059            4360     227.318E-03     231.603E-03
            4059            4364     210.095E-03     209.753E-03
            4060              20     994.686E-03     960.034E-03
            4060             523     957.599E-03     928.663E-03
            4060             577     859.071E-03     829.911E-03
            4060            4361     828.306E-03     804.023E-03
            4061             577     859.071E-03     829.911E-03
            4061             578     618.631E-03     600.097E-03
            4061            4361     828.306E-03     804.023E-03
            4061            4362     596.092E-03     581.461E-03
            4062             578     618.631E-03     600.097E-03
            4062             579     419.169E-03     410.409E-03
            4062            4362     596.092E-03     581.461E-03
            4062            4363     395.398E-03     389.618E-03
            4063             579     419.169E-03     410.409E-03
            4063             580     246.855E-03     246.013E-03
            4063            4363     395.398E-03     389.618E-03
            4063            4364     210.095E-03     209.753E-03
            4064              17     171.152E-03     173.302E-03
            4064             442     125.383E-03     125.171E-03
            4064             580     246.855E-03     246.013E-03
            4064            4364     210.095E-03     209.753E-03
            4065              25     291.512E-03     286.775E-03
            4065             660     331.697E-03     324.198E-03
            4065             723     236.998E-03     236.483E-03
            4065            4365     288.029E-03     288.400E-03
            4066             660     331.697E-03     324.198E-03
            4066             661     431.688E-03     416.116E-03
            4066            4365     288.029E-03     288.400E-03
            4066            4366     407.843E-03     411.448E-03
            4067             661     431.688E-03     416.116E-03
            4067             662     560.037E-03     528.100E-03
            4067            4366     407.843E-03     411.448E-03
            4067            4367     567.347E-03     575.915E-03
            4068             662     560.037E-03     528.100E-03
            4068             663     726.620E-03     679.001E-03
            4068            4367     567.347E-03     575.915E-03
            4068            4368     762.775E-03     758.312E-03
            4069              21     825.088E-03     772.776E-03
            4069             663     726.620E-03     679.001E-03
            4069             664     867.939E-03     847.661E-03
            4069            4368     762.775E-03     758.312E-03
            4070             722     288.221E-03     288.182E-03
            4070             723     236.998E-03     236.483E-03
            4070            4365     288.029E-03     288.400E-03
            4070            4369     331.355E-03     331.685E-03
            4071            4365     288.029E-03     288.400E-03
            4071            4366     407.843E-03     411.448E-03
            4071            4369     331.355E-03     331.685E-03
            4071            4370     439.078E-03     444.757E-03
            4072            4366     407.843E-03     411.448E-03
            4072            4367     567.347E-03     575.915E-03
            4072            4370     439.078E-03     444.757E-03
            4072            4371     581.235E-03     602.877E-03
            4073            4367     567.347E-03     575.915E-03
            4073            4368     762.775E-03     758.312E-03
            4073            4371     581.235E-03     602.877E-03
            4073            4372     719.203E-03     740.170E-03
            4074             664     867.939E-03     847.661E-03
            4074             665     779.927E-03     789.212E-03
            4074            4368     762.775E-03     758.312E-03
            4074            4372     719.203E-03     740.170E-03
            4075             721     336.062E-03     336.833E-03
            4075             722     288.221E-03     288.182E-03
            4075            4369     331.355E-03     331.685E-03
            4075            4373     367.173E-03     366.806E-03
            4076            4369     331.355E-03     331.685E-03
            4076            4370     439.078E-03     444.757E-03
            4076            4373     367.173E-03     366.806E-03
            4076            4374     446.920E-03     443.755E-03
            4077            4370     439.078E-03     444.757E-03
            4077            4371     581.235E-03     602.877E-03
            4077            4374     446.920E-03     443.755E-03
            4077            4375     545.693E-03     539.529E-03
            4078            4371     581.235E-03     602.877E-03
            4078            4372     719.203E-03     740.170E-03
            4078            4375     545.693E-03     539.529E-03
            4078            4376     639.150E-03     630.333E-03
            4079             665     779.927E-03     789.212E-03
            4079             666     682.678E-03     672.620E-03
            4079            4372     719.203E-03     740.170E-03
            4079            4376     639.150E-03     630.333E-03
            4080             720     295.341E-03     299.254E-03
            4080             721     336.062E-03     336.833E-03
            4080            4373     367.173E-03     366.806E-03
            4080            4377     327.300E-03     327.367E-03
            4081            4373     367.173E-03     366.806E-03
            4081            4374     446.920E-03     443.755E-03
            4081            4377     327.300E-03     327.367E-03
            4081            4378     405.547E-03     393.998E-03
            4082            4374     446.920E-03     443.755E-03
            4082            4375     545.693E-03     539.529E-03
            4082            4378     405.547E-03     393.998E-03
            4082            4379     512.841E-03     484.789E-03
            4083            4375     545.693E-03     539.529E-03
            4083            4376     639.150E-03     630.333E-03
            4083            4379     512.841E-03     484.789E-03
            4083            4380     657.660E-03     617.098E-03
            4084             666     682.678E-03     672.620E-03
            4084             667     741.605E-03     697.272E-03
            4084            4376     639.150E-03     630.333E-03
            4084            4380     657.660E-03     617.098E-03
            4085             719     252.084E-03     265.668E-03
            4085             720     295.341E-03     299.254E-03
            4085            4377     327.300E-03     327.367E-03
            4085            4381     288.933E-03     297.553E-03
            4086            4377     327.300E-03     327.367E-03
            4086            4378     405.547E-03     393.998E-03
            4086            4381     288.933E-03     297.553E-03
            4086            4382     381.492E-03     379.449E-03
            4087            4378     405.547E-03     393.998E-03
            4087            4379     512.841E-03     484.789E-03
            4087            4382     381.492E-03     379.449E-03
            4087            4383     522.180E-03     512.343E-03
            4088            4379     512.841E-03     484.789E-03
            4088            4380     657.660E-03     617.098E-03
            4088            4383     522.180E-03     512.343E-03
            4088            4384     708.691E-03     687.936E-03
            4089             667     741.605E-03     697.272E-03
            4089             668     810.317E-03     780.681E-03
            4089            4380     657.660E-03     617.098E-03
            4089            4384     708.691E-03     687.936E-03
            4090             718     291.333E-03     312.125E-03
            4090             719     252.084E-03     265.668E-03
            4090            4381     288.933E-03     297.553E-03
            4090            4385     321.388E-03     339.386E-03
            4091            4381     288.933E-03     297.553E-03
            4091            4382     381.492E-03     379.449E-03
            4091            4385     321.388E-03     339.386E-03
            4091            4386     405.351E-03     419.080E-03
            4092            4382     381.492E-03     379.449E-03
            4092            4383     522.180E-03     512.343E-03
            4092            4386     405.351E-03     419.080E-03
            4092            4387     529.803E-03     539.068E-03
            4093            4383     522.180E-03     512.343E-03
            4093            4384     708.691E-03     687.936E-03
            4093            4387     529.803E-03     539.068E-03
            4093            4388     665.337E-03     664.366E-03
            4094             668     810.317E-03     780.681E-03
            4094             669     730.412E-03     722.141E-03
            4094            4384     708.691E-03     687.936E-03
            4094            4388     665.337E-03     664.366E-03
            4095             717     312.028E-03     329.975E-03
            4095             718     291.333E-03     312.125E-03
            4095            4385     321.388E-03     339.386E-03
            4095            4389     338.157E-03     355.220E-03
            4096            4385     321.388E-03     339.386E-03
            4096            4386     405.351E-03     419.080E-03
            4096            4389     338.157E-03     355.220E-03
            4096            4390     410.296E-03     424.057E-03
            4097            4386     405.351E-03     419.080E-03
            4097            4387     529.803E-03     539.068E-03
            4097            4390     410.296E-03     424.057E-03
            4097            4391     508.132E-03     513.681E-03
            4098            4387     529.803E-03     539.068E-03
            4098            4388     665.337E-03     664.366E-03
            4098            4391     508.132E-03     513.681E-03
            4098            4392     617.802E-03     612.409E-03
            4099             669     730.412E-03     722.141E-03
            4099             670     675.725E-03     665.129E-03
            4099            4388     665.337E-03     664.366E-03
            4099            4392     617.802E-03     612.409E-03
            4100             716     319.981E-03     330.321E-03
            4100             717     312.028E-03     329.975E-03
            4100            4389     338.157E-03     355.220E-03
            4100            4393     342.535E-03     352.621E-03
            4101            4389     338.157E-03     355.220E-03
            4101            4390     410.296E-03     424.057E-03
            4101            4393     342.535E-03     352.621E-03
            4101            4394     400.557E-03     408.396E-03
            4102            4390     410.296E-03     424.057E-03
            4102            4391     508.132E-03     513.681E-03
            4102            4394     400.557E-03     408.396E-03
            4102            4395     483.047E-03     485.402E-03
            4103            4391     508.132E-03     513.681E-03
            4103            4392     617.802E-03     612.409E-03
            4103            4395     483.047E-03     485.402E-03
            4103            4396     583.314E-03     577.793E-03
            4104             670     675.725E-03     665.129E-03
            4104             671     636.626E-03     626.680E-03
            4104            4392     617.802E-03     612.409E-03
            4104            4396     583.314E-03     577.793E-03
            4105             715     320.800E-03     321.351E-03
            4105             716     319.981E-03     330.321E-03
            4105            4393     342.535E-03     352.621E-03
            4105            4397     338.648E-03     340.617E-03
            4106            4393     342.535E-03     352.621E-03
            4106            4394     400.557E-03     408.396E-03
            4106            4397     338.648E-03     340.617E-03
            4106            4398     388.605E-03     392.687E-03
            4107            4394     400.557E-03     408.396E-03
            4107            4395     483.047E-03     485.402E-03
            4107            4398     388.605E-03     392.687E-03
            4107            4399     460.606E-03     463.486E-03
            4108            4395     483.047E-03     485.402E-03
            4108            4396     583.314E-03     577.793E-03
            4108            4399     460.606E-03     463.486E-03
            4108            4400     547.652E-03     543.954E-03
            4109             671     636.626E-03     626.680E-03
            4109             672     594.875E-03     586.447E-03
            4109            4396     583.314E-03     577.793E-03
            4109            4400     547.652E-03     543.954E-03
            4110             714     315.861E-03     306.518E-03
            4110             715     320.800E-03     321.351E-03
            4110            4397     338.648E-03     340.617E-03
            4110            4401     333.117E-03     327.541E-03
            4111            4397     338.648E-03     340.617E-03
            4111            4398     388.605E-03     392.687E-03
            4111            4401     333.117E-03     327.541E-03
            4111            4402     377.202E-03     378.950E-03
            4112            4398     388.605E-03     392.687E-03
            4112            4399     460.606E-03     463.486E-03
            4112            4402     377.202E-03     378.950E-03
            4112            4403     437.825E-03     442.302E-03
            4113            4399     460.606E-03     463.486E-03
            4113            4400     547.652E-03     543.954E-03
            4113            4403     437.825E-03     442.302E-03
            4113            4404     512.765E-03     512.091E-03
            4114             672     594.875E-03     586.447E-03
            4114             673     553.959E-03     548.948E-03
            4114            4400     547.652E-03     543.954E-03
            4114            4404     512.765E-03     512.091E-03
            4115             713     310.410E-03     293.415E-03
            4115             714     315.861E-03     306.518E-03
            4115            4401     333.117E-03     327.541E-03
            4115            4405     325.954E-03     312.705E-03
            4116            4401     333.117E-03     327.541E-03
            4116            4402     377.202E-03     378.950E-03
            4116            4405     325.954E-03     312.705E-03
            4116            4406     366.369E-03     363.531E-03
            4117            4402     377.202E-03     378.950E-03
            4117            4403     437.825E-03     442.302E-03
            4117            4406     366.369E-03     363.531E-03
            4117            4407     417.974E-03     425.121E-03
            4118            4403     437.825E-03     442.302E-03
            4118            4404     512.765E-03     512.091E-03
            4118            4407     417.974E-03     425.121E-03
            4118            4408     477.475E-03     481.593E-03
            4119             673     553.959E-03     548.948E-03
            4119             674     510.284E-03     508.051E-03
            4119            4404     512.765E-03     512.091E-03
            4119            4408     477.475E-03     481.593E-03
            4120             712     307.022E-03     286.462E-03
            4120             713     310.410E-03     293.415E-03
            4120            4405     325.954E-03     312.705E-03
            4120            4409     320.287E-03     302.003E-03
            4121            4405     325.954E-03     312.705E-03
            4121            4406     366.369E-03     363.531E-03
            4121            4409     320.287E-03     302.003E-03
            4121            4410     355.438E-03     343.421E-03
            4122            4406     366.369E-03     363.531E-03
            4122            4407     417.974E-03     425.121E-03
            4122            4410     355.438E-03     343.421E-03
            4122            4411     398.767E-03     399.701E-03
            4123            4407     417.974E-03     425.121E-03
            4123            4408     477.475E-03     481.593E-03
            4123            4411     398.767E-03     399.701E-03
            4123            4412     440.477E-03     449.466E-03
            4124             674     510.284E-03     508.051E-03
            4124             675     460.759E-03     468.887E-03
            4124            4408     477.475E-03     481.593E-03
            4124            4412     440.477E-03     449.466E-03
            4125             711     313.837E-03     298.524E-03
            4125             712     307.022E-03     286.462E-03
            4125            4409     320.287E-03     302.003E-03
            4125            4413     322.796E-03     306.253E-03
            4126            4409     320.287E-03     302.003E-03
            4126            4410     355.438E-03     343.421E-03
            4126            4413     322.796E-03     306.253E-03
            4126            4414     346.204E-03     326.375E-03
            4127            4410     355.438E-03     343.421E-03
            4127            4411     398.767E-03     399.701E-03
            4127            4414     346.204E-03     326.375E-03
            4127            4415     375.837E-03     354.571E-03
            4128            4411     398.767E-03     399.701E-03
            4128            4412     440.477E-03     449.466E-03
            4128            4415     375.837E-03     354.571E-03
            4128            4416     393.090E-03     377.611E-03
            4129             675     460.759E-03     468.887E-03
            4129             676     395.154E-03     384.910E-03
            4129            4412     440.477E-03     449.466E-03
            4129            4416     393.090E-03     377.611E-03
            4130             710     283.684E-03     280.718E-03
            4130             711     313.837E-03     298.524E-03
            4130            4413     322.796E-03     306.253E-03
            4130            4417     293.397E-03     287.776E-03
            4131            4413     322.796E-03     306.253E-03
            4131            4414     346.204E-03     326.375E-03
            4131            4417     293.397E-03     287.776E-03
            4131            4418     320.413E-03     307.606E-03
            4132            4414     346.204E-03     326.375E-03
            4132            4415     375.837E-03     354.571E-03
            4132            4418     320.413E-03     307.606E-03
            4132            4419     365.144E-03     342.147E-03
            4133            4415     375.837E-03     354.571E-03
            4133            4416     393.090E-03     377.611E-03
            4133            4419     365.144E-03     342.147E-03
            4133            4420     429.323E-03     398.425E-03
            4134             676     395.154E-03     384.910E-03
            4134             677     466.004E-03     432.868E-03
            4134            4416     393.090E-03     377.611E-03
            4134            4420     429.323E-03     398.425E-03
            4135             709     262.540E-03     269.604E-03
            4135             710     283.684E-03     280.718E-03
            4135            4417     293.397E-03     287.776E-03
            4135            4421     275.008E-03     280.586E-03
            4136            4417     293.397E-03     287.776E-03
            4136            4418     320.413E-03     307.606E-03
            4136            4421     275.008E-03     280.586E-03
            4136            4422     309.720E-03     311.438E-03
            4137            4418     320.413E-03     307.606E-03
            4137            4419     365.144E-03     342.147E-03
            4137            4422     309.720E-03     311.438E-03
            4137            4423     376.727E-03     374.726E-03
            4138            4419     365.144E-03     342.147E-03
            4138            4420     429.323E-03     398.425E-03
            4138            4423     376.727E-03     374.726E-03
            4138            4424     478.486E-03     468.533E-03
            4139             677     466.004E-03     432.868E-03
            4139             678     535.328E-03     518.762E-03
            4139            4420     429.323E-03     398.425E-03
            4139            4424     478.486E-03     468.533E-03
            4140             708     290.648E-03     301.107E-03
            4140             709     262.540E-03     269.604E-03
            4140            4421     275.008E-03     280.586E-03
            4140            4425     298.998E-03     308.492E-03
            4141            4421     275.008E-03     280.586E-03
            4141            4422     309.720E-03     311.438E-03
            4141            4425     298.998E-03     308.492E-03
            4141            4426     327.718E-03     335.479E-03
            4142            4422     309.720E-03     311.438E-03
            4142            4423     376.727E-03     374.726E-03
            4142            4426     327.718E-03     335.479E-03
            4142            4427     378.034E-03     382.269E-03
            4143            4423     376.727E-03     374.726E-03
            4143            4424     478.486E-03     468.533E-03
            4143            4427     378.034E-03     382.269E-03
            4143            4428     434.225E-03     432.373E-03
            4144             678     535.328E-03     518.762E-03
            4144             679     460.315E-03     455.124E-03
            4144            4424     478.486E-03     468.533E-03
            4144            4428     434.225E-03     432.373E-03
            4145             707     307.134E-03     316.356E-03
            4145             708     290.648E-03     301.107E-03
            4145            4425     298.998E-03     308.492E-03
            4145            4429     312.806E-03     321.472E-03
            4146            4425     298.998E-03     308.492E-03
            4146            4426     327.718E-03     335.479E-03
            4146            4429     312.806E-03     321.472E-03
            4146            4430     331.082E-03     337.278E-03
            4147            4426     327.718E-03     335.479E-03
            4147            4427     378.034E-03     382.269E-03
            4147            4430     331.082E-03     337.278E-03
            4147            4431     357.354E-03     358.215E-03
            4148            4427     378.034E-03     382.269E-03
            4148            4428     434.225E-03     432.373E-03
            4148            4431     357.354E-03     358.215E-03
            4148            4432     390.152E-03     386.099E-03
            4149             679     460.315E-03     455.124E-03
            4149             680     409.144E-03     403.576E-03
            4149            4428     434.225E-03     432.373E-03
            4149            4432     390.152E-03     386.099E-03
            4150             706     314.910E-03     320.838E-03
            4150             707     307.134E-03     316.356E-03
            4150            4429     312.806E-03     321.472E-03
            4150            4433     317.552E-03     322.801E-03
            4151            4429     312.806E-03     321.472E-03
            4151            4430     331.082E-03     337.278E-03
            4151            4433     317.552E-03     322.801E-03
            4151            4434     323.983E-03     326.868E-03
            4152            4430     331.082E-03     337.278E-03
            4152            4431     357.354E-03     358.215E-03
            4152            4434     323.983E-03     326.868E-03
            4152            4435     336.237E-03     335.923E-03
            4153            4431     357.354E-03     358.215E-03
            4153            4432     390.152E-03     386.099E-03
            4153            4435     336.237E-03     335.923E-03
            4153            4436     358.362E-03     354.632E-03
            4154             680     409.144E-03     403.576E-03
            4154             681     371.897E-03     366.247E-03
            4154            4432     390.152E-03     386.099E-03
            4154            4436     358.362E-03     354.632E-03
            4155             705     317.183E-03     319.119E-03
            4155             706     314.910E-03     320.838E-03
            4155            4433     317.552E-03     322.801E-03
            4155            4437     316.314E-03     318.006E-03
            4156            4433     317.552E-03     322.801E-03
            4156            4434     323.983E-03     326.868E-03
            4156            4437     316.314E-03     318.006E-03
            4156            4438     316.007E-03     317.326E-03
            4157            4434     323.983E-03     326.868E-03
            4157            4435     336.237E-03     335.923E-03
            4157            4438     316.007E-03     317.326E-03
            4157            4439     318.262E-03     318.352E-03
            4158            4435     336.237E-03     335.923E-03
            4158            4436     358.362E-03     354.632E-03
            4158            4439     318.262E-03     318.352E-03
            4158            4440     327.197E-03     324.627E-03
            4159             681     371.897E-03     366.247E-03
            4159             682     334.328E-03     330.165E-03
            4159            4436     358.362E-03     354.632E-03
            4159            4440     327.197E-03     324.627E-03
            4160             704     315.421E-03     313.386E-03
            4160             705     317.183E-03     319.119E-03
            4160            4437     316.314E-03     318.006E-03
            4160            4441     313.661E-03     312.347E-03
            4161            4437     316.314E-03     318.006E-03
            4161            4438     316.007E-03     317.326E-03
            4161            4441     313.661E-03     312.347E-03
            4161            4442     308.447E-03     308.552E-03
            4162            4438     316.007E-03     317.326E-03
            4162            4439     318.262E-03     318.352E-03
            4162            4442     308.447E-03     308.552E-03
            4162            4443     301.419E-03     302.195E-03
            4163            4439     318.262E-03     318.352E-03
            4163            4440     327.197E-03     324.627E-03
            4163            4443     301.419E-03     302.195E-03
            4163            4444     298.859E-03     297.791E-03
            4164             682     334.328E-03     330.165E-03
            4164             683     299.786E-03     296.866E-03
            4164            4440     327.197E-03     324.627E-03
            4164            4444     298.859E-03     297.791E-03
            4165             703     311.614E-03     305.863E-03
            4165             704     315.421E-03     313.386E-03
            4165            4441     313.661E-03     312.347E-03
            4165            4445     309.503E-03     304.922E-03
            4166            4441     313.661E-03     312.347E-03
            4166            4442     308.447E-03     308.552E-03
            4166            4445     309.503E-03     304.922E-03
            4166            4446     301.835E-03     300.461E-03
            4167            4442     308.447E-03     308.552E-03
            4167            4443     301.419E-03     302.195E-03
            4167            4446     301.835E-03     300.461E-03
            4167            4447     287.887E-03     289.522E-03
            4168            4443     301.419E-03     302.195E-03
            4168            4444     298.859E-03     297.791E-03
            4168            4447     287.887E-03     289.522E-03
            4168            4448     272.857E-03     274.103E-03
            4169             683     299.786E-03     296.866E-03
            4169             684     266.135E-03     266.006E-03
            4169            4444     298.859E-03     297.791E-03
            4169            4448     272.857E-03     274.103E-03
            4170             702     304.942E-03     296.051E-03
            4170             703     311.614E-03     305.863E-03
            4170            4445     309.503E-03     304.922E-03
            4170            4449     303.423E-03     295.641E-03
            4171            4445     309.503E-03     304.922E-03
            4171            4446     301.835E-03     300.461E-03
            4171            4449     303.423E-03     295.641E-03
            4171            4450     296.777E-03     292.731E-03
            4172            4446     301.835E-03     300.461E-03
            4172            4447     287.887E-03     289.522E-03
            4172            4450     296.777E-03     292.731E-03
            4172            4451     278.234E-03     280.122E-03
            4173            4447     287.887E-03     289.522E-03
            4173            4448     272.857E-03     274.103E-03
            4173            4451     278.234E-03     280.122E-03
            4173            4452     248.914E-03     253.324E-03
            4174             684     266.135E-03     266.006E-03
            4174             685     232.942E-03     236.558E-03
            4174            4448     272.857E-03     274.103E-03
            4174            4452     248.914E-03     253.324E-03
            4175             701     296.976E-03     286.912E-03
            4175             702     304.942E-03     296.051E-03
            4175            4449     303.423E-03     295.641E-03
            4175            4453     295.362E-03     285.986E-03
            4176            4449     303.423E-03     295.641E-03
            4176            4450     296.777E-03     292.731E-03
            4176            4453     295.362E-03     285.986E-03
            4176            4454     290.129E-03     282.832E-03
            4177            4450     296.777E-03     292.731E-03
            4177            4451     278.234E-03     280.122E-03
            4177            4454     290.129E-03     282.832E-03
            4177            4455     272.853E-03     271.233E-03
            4178            4451     278.234E-03     280.122E-03
            4178            4452     248.914E-03     253.324E-03
            4178            4455     272.853E-03     271.233E-03
            4178            4456     230.288E-03     236.969E-03
            4179             685     232.942E-03     236.558E-03
            4179             686     201.320E-03     212.045E-03
            4179            4452     248.914E-03     253.324E-03
            4179            4456     230.288E-03     236.969E-03
            4180             700     291.392E-03     284.223E-03
            4180             701     296.976E-03     286.912E-03
            4180            4453     295.362E-03     285.986E-03
            4180            4457     289.209E-03     281.944E-03
            4181            4453     295.362E-03     285.986E-03
            4181            4454     290.129E-03     282.832E-03
            4181            4457     289.209E-03     281.944E-03
            4181            4458     281.117E-03     273.547E-03
            4182            4454     290.129E-03     282.832E-03
            4182            4455     272.853E-03     271.233E-03
            4182            4458     281.117E-03     273.547E-03
            4182            4459     264.504E-03     257.828E-03
            4183            4455     272.853E-03     271.233E-03
            4183            4456     230.288E-03     236.969E-03
            4183            4459     264.504E-03     257.828E-03
            4183            4460     214.893E-03     216.561E-03
            4184             686     201.320E-03     212.045E-03
            4184             687     175.938E-03     184.889E-03
            4184            4456     230.288E-03     236.969E-03
            4184            4460     214.893E-03     216.561E-03
            4185             699     279.347E-03     277.169E-03
            4185             700     291.392E-03     284.223E-03
            4185            4457     289.209E-03     281.944E-03
            4185            4461     279.057E-03     276.596E-03
            4186            4457     289.209E-03     281.944E-03
            4186            4458     281.117E-03     273.547E-03
            4186            4461     279.057E-03     276.596E-03
            4186            4462     272.102E-03     268.982E-03
            4187            4458     281.117E-03     273.547E-03
            4187            4459     264.504E-03     257.828E-03
            4187            4462     272.102E-03     268.982E-03
            4187            4463     261.374E-03     257.897E-03
            4188            4459     264.504E-03     257.828E-03
            4188            4460     214.893E-03     216.561E-03
            4188            4463     261.374E-03     257.897E-03
            4188            4464     236.656E-03     233.982E-03
            4189             687     175.938E-03     184.889E-03
            4189             688     215.944E-03     214.055E-03
            4189            4460     214.893E-03     216.561E-03
            4189            4464     236.656E-03     233.982E-03
            4190             698     272.282E-03     272.296E-03
            4190             699     279.347E-03     277.169E-03
            4190            4461     279.057E-03     276.596E-03
            4190            4465     273.414E-03     273.552E-03
            4191            4461     279.057E-03     276.596E-03
            4191            4462     272.102E-03     268.982E-03
            4191            4465     273.414E-03     273.552E-03
            4191            4466     273.791E-03     274.278E-03
            4192            4462     272.102E-03     268.982E-03
            4192            4463     261.374E-03     257.897E-03
            4192            4466     273.791E-03     274.278E-03
            4192            4467     271.613E-03     272.833E-03
            4193            4463     261.374E-03     257.897E-03
            4193            4464     236.656E-03     233.982E-03
            4193            4467     271.613E-03     272.833E-03
            4193            4468     253.015E-03     252.652E-03
            4194             688     215.944E-03     214.055E-03
            4194             689     235.781E-03     233.317E-03
            4194            4464     236.656E-03     233.982E-03
            4194            4468     253.015E-03     252.652E-03
            4195             697     277.263E-03     277.332E-03
            4195             698     272.282E-03     272.296E-03
            4195            4465     273.414E-03     273.552E-03
            4195            4469     277.592E-03     277.679E-03
            4196            4465     273.414E-03     273.552E-03
            4196            4466     273.791E-03     274.278E-03
            4196            4469     277.592E-03     277.679E-03
            4196            4470     280.882E-03     281.303E-03
            4197            4466     273.791E-03     274.278E-03
            4197            4467     271.613E-03     272.833E-03
            4197            4470     280.882E-03     281.303E-03
            4197            4471     277.031E-03     276.771E-03
            4198            4467     271.613E-03     272.833E-03
            4198            4468     253.015E-03     252.652E-03
            4198            4471     277.031E-03     276.771E-03
            4198            4472     231.151E-03     231.517E-03
            4199             689     235.781E-03     233.317E-03
            4199             690     192.041E-03     194.031E-03
            4199            4468     253.015E-03     252.652E-03
            4199            4472     231.151E-03     231.517E-03
            4200             696     279.932E-03     280.043E-03
            4200             697     277.263E-03     277.332E-03
            4200            4469     277.592E-03     277.679E-03
            4200            4473     280.268E-03     280.311E-03
            4201            4469     277.592E-03     277.679E-03
            4201            4470     280.882E-03     281.303E-03
            4201            4473     280.268E-03     280.311E-03
            4201            4474     278.200E-03     277.856E-03
            4202            4470     280.882E-03     281.303E-03
            4202            4471     277.031E-03     276.771E-03
            4202            4474     278.200E-03     277.856E-03
            4202            4475     268.048E-03     267.007E-03
            4203            4471     277.031E-03     276.771E-03
            4203            4472     231.151E-03     231.517E-03
            4203            4475     268.048E-03     267.007E-03
            4203            4476     225.032E-03     225.101E-03
            4204             690     192.041E-03     194.031E-03
            4204             691     189.744E-03     191.310E-03
            4204            4472     231.151E-03     231.517E-03
            4204            4476     225.032E-03     225.101E-03
            4205              29     140.581E-03     140.635E-03
            4205             695     140.912E-03     140.942E-03
            4205             696     279.932E-03     280.043E-03
            4205            4473     280.268E-03     280.311E-03
            4206             694     137.305E-03     136.940E-03
            4206             695     140.912E-03     140.942E-03
            4206            4473     280.268E-03     280.311E-03
            4206            4474     278.200E-03     277.856E-03
            4207             693     130.405E-03     130.155E-03
            4207             694     137.305E-03     136.940E-03
            4207            4474     278.200E-03     277.856E-03
            4207            4475     268.048E-03     267.007E-03
            4208             692     113.889E-03     113.864E-03
            4208             693     130.405E-03     130.155E-03
            4208            4475     268.048E-03     267.007E-03
            4208            4476     225.032E-03     225.101E-03
            4209              28     100.342E-03     100.054E-03
            4209             691     189.744E-03     191.310E-03
            4209             692     113.889E-03     113.864E-03
            4209            4476     225.032E-03     225.101E-03
            5042              26     99.2303E-03     98.9861E-03
            5042             839     113.209E-03     113.115E-03
            5042             858     287.783E-06     281.098E-06
            5042            5187     278.868E-06     276.091E-06
            5043             839     113.209E-03     113.115E-03
            5043             840     130.235E-03     129.881E-03
            5043            5187     278.868E-06     276.091E-06
            5043            5188     261.815E-06     263.275E-06
            5044             840     130.235E-03     129.881E-03
            5044             841     137.271E-03     136.857E-03
            5044            5188     261.815E-06     263.275E-06
            5044            5189     254.495E-06     256.368E-06
            5045             841     137.271E-03     136.857E-03
            5045             842     140.918E-03     140.912E-03
            5045            5189     254.495E-06     256.368E-06
            5045            5190     254.948E-06     256.872E-06
            5046              29     140.581E-03     140.635E-03
            5046             842     140.918E-03     140.912E-03
            5046             843     254.583E-06     256.473E-06
            5046            5190     254.948E-06     256.872E-06
            5047             857     227.406E-06     225.973E-06
            5047             858     287.783E-06     281.098E-06
            5047            5187     278.868E-06     276.091E-06
            5047            5191     242.084E-06     241.555E-06
            5048            5187     278.868E-06     276.091E-06
            5048            5188     261.815E-06     263.275E-06
            5048            5191     242.084E-06     241.555E-06
            5048            5192     261.045E-06     262.823E-06
            5049            5188     261.815E-06     263.275E-06
            5049            5189     254.495E-06     256.368E-06
            5049            5192     261.045E-06     262.823E-06
            5049            5193     266.056E-06     268.922E-06
            5050            5189     254.495E-06     256.368E-06
            5050            5190     254.948E-06     256.872E-06
            5050            5193     266.056E-06     268.922E-06
            5050            5194     268.079E-06     270.526E-06
            5051             843     254.583E-06     256.473E-06
            5051             844     269.373E-06     271.717E-06
            5051            5190     254.948E-06     256.872E-06
            5051            5194     268.079E-06     270.526E-06
            5052             856     190.464E-06     190.463E-06
            5052             857     227.406E-06     225.973E-06
            5052            5191     242.084E-06     241.555E-06
            5052            5195     212.382E-06     212.356E-06
            5053            5191     242.084E-06     241.555E-06
            5053            5192     261.045E-06     262.823E-06
            5053            5195     212.382E-06     212.356E-06
            5053            5196     249.350E-06     249.819E-06
            5054            5192     261.045E-06     262.823E-06
            5054            5193     266.056E-06     268.922E-06
            5054            5196     249.350E-06     249.819E-06
            5054            5197     269.871E-06     271.110E-06
            5055            5193     266.056E-06     268.922E-06
            5055            5194     268.079E-06     270.526E-06
            5055            5197     269.871E-06     271.110E-06
            5055            5198     276.519E-06     277.852E-06
            5056             844     269.373E-06     271.717E-06
            5056             845     277.695E-06     278.872E-06
            5056            5194     268.079E-06     270.526E-06
            5056            5198     276.519E-06     277.852E-06
            5057             855     167.918E-06     169.628E-06
            5057             856     190.464E-06     190.463E-06
            5057            5195     212.382E-06     212.356E-06
            5057            5199     196.492E-06     197.996E-06
            5058            5195     212.382E-06     212.356E-06
            5058            5196     249.350E-06     249.819E-06
            5058            5199     196.492E-06     197.996E-06
            5058            5200     242.975E-06     243.258E-06
            5059            5196     249.350E-06     249.819E-06
            5059            5197     269.871E-06     271.110E-06
            5059            5200     242.975E-06     243.258E-06
            5059            5201     268.233E-06     267.572E-06
            5060            5197     269.871E-06     271.110E-06
            5060            5198     276.519E-06     277.852E-06
            5060            5201     268.233E-06     267.572E-06
            5060            5202     277.076E-06     276.533E-06
            5061             845     277.695E-06     278.872E-06
            5061             846     278.570E-06     278.073E-06
            5061            5198     276.519E-06     277.852E-06
            5061            5202     277.076E-06     276.533E-06
            5062             854     157.559E-06     162.089E-06
            5062             855     167.918E-06     169.628E-06
            5062            5199     196.492E-06     197.996E-06
            5062            5203     192.535E-06     194.813E-06
            5063            5199     196.492E-06     197.996E-06
            5063            5200     242.975E-06     243.258E-06
            5063            5203     192.535E-06     194.813E-06
            5063            5204     243.003E-06     242.283E-06
            5064            5200     242.975E-06     243.258E-06
            5064            5201     268.233E-06     267.572E-06
            5064            5204     243.003E-06     242.283E-06
            5064            5205     263.328E-06     261.651E-06
            5065            5201     268.233E-06     267.572E-06
            5065            5202     277.076E-06     276.533E-06
            5065            5205     263.328E-06     261.651E-06
            5065            5206     270.824E-06     269.021E-06
            5066             846     278.570E-06     278.073E-06
            5066             847     273.486E-06     271.770E-06
            5066            5202     277.076E-06     276.533E-06
            5066            5206     270.824E-06     269.021E-06
            5067             853     171.224E-06     174.903E-06
            5067             854     157.559E-06     162.089E-06
            5067            5203     192.535E-06     194.813E-06
            5067            5207     200.242E-06     201.714E-06
            5068            5203     192.535E-06     194.813E-06
            5068            5204     243.003E-06     242.283E-06
            5068            5207     200.242E-06     201.714E-06
            5068            5208     238.319E-06     237.084E-06
            5069            5204     243.003E-06     242.283E-06
            5069            5205     263.328E-06     261.651E-06
            5069            5208     238.319E-06     237.084E-06
            5069            5209     254.419E-06     252.734E-06
            5070            5205     263.328E-06     261.651E-06
            5070            5206     270.824E-06     269.021E-06
            5070            5209     254.419E-06     252.734E-06
            5070            5210     263.861E-06     262.269E-06
            5071             847     273.486E-06     271.770E-06
            5071             848     266.262E-06     264.712E-06
            5071            5206     270.824E-06     269.021E-06
            5071            5210     263.861E-06     262.269E-06
            5072              34     182.024E-06     184.255E-06
            5072             852     204.431E-06     205.225E-06
            5072             853     171.224E-06     174.903E-06
            5072            5207     200.242E-06     201.714E-06
            5073             851     233.450E-06     232.430E-06
            5073             852     204.431E-06     205.225E-06
            5073            5207     200.242E-06     201.714E-06
            5073            5208     238.319E-06     237.084E-06
            5074             850     249.235E-06     247.922E-06
            5074             851     233.450E-06     232.430E-06
            5074            5208     238.319E-06     237.084E-06
            5074            5209     254.419E-06     252.734E-06
            5075             849     260.803E-06     259.695E-06
            5075             850     249.235E-06     247.922E-06
            5075            5209     254.419E-06     252.734E-06
            5075            5210     263.861E-06     262.269E-06
            5076              33     263.199E-06     262.211E-06
            5076             848     266.262E-06     264.712E-06
            5076             849     260.803E-06     259.695E-06
            5076            5210     263.861E-06     262.269E-06
            5309              29     140.581E-03     140.635E-03
            5309             695     140.912E-03     140.942E-03
            5309             843     254.583E-06     256.473E-06
            5309            5407     254.948E-06     256.872E-06
            5310             694     137.305E-03     136.940E-03
            5310             695     140.912E-03     140.942E-03
            5310            5407     254.948E-06     256.872E-06
            5310            5408     254.495E-06     256.368E-06
            5311             693     130.405E-03     130.155E-03
            5311             694     137.305E-03     136.940E-03
            5311            5408     254.495E-06     256.368E-06
            5311            5409     261.815E-06     263.275E-06
            5312             692     113.889E-03     113.864E-03
            5312             693     130.405E-03     130.155E-03
            5312            5409     261.815E-06     263.275E-06
            5312            5410     278.868E-06     276.091E-06
            5313              28     100.342E-03     100.054E-03
            5313             692     113.889E-03     113.864E-03
            5313             812     287.783E-06     281.098E-06
            5313            5410     278.868E-06     276.091E-06
            5314             843     254.583E-06     256.473E-06
            5314             844     269.373E-06     271.717E-06
            5314            5407     254.948E-06     256.872E-06
            5314            5411     268.079E-06     270.526E-06
            5315            5407     254.948E-06     256.872E-06
            5315            5408     254.495E-06     256.368E-06
            5315            5411     268.079E-06     270.526E-06
            5315            5412     266.056E-06     268.922E-06
            5316            5408     254.495E-06     256.368E-06
            5316            5409     261.815E-06     263.275E-06
            5316            5412     266.056E-06     268.922E-06
            5316            5413     261.045E-06     262.823E-06
            5317            5409     261.815E-06     263.275E-06
            5317            5410     278.868E-06     276.091E-06
            5317            5413     261.045E-06     262.823E-06
            5317            5414     242.084E-06     241.555E-06
            5318             812     287.783E-06     281.098E-06
            5318             813     227.406E-06     225.973E-06
            5318            5410     278.868E-06     276.091E-06
            5318            5414     242.084E-06     241.555E-06
            5319             844     269.373E-06     271.717E-06
            5319             845     277.695E-06     278.872E-06
            5319            5411     268.079E-06     270.526E-06
            5319            5415     276.519E-06     277.852E-06
            5320            5411     268.079E-06     270.526E-06
            5320            5412     266.056E-06     268.922E-06
            5320            5415     276.519E-06     277.852E-06
            5320            5416     269.871E-06     271.110E-06
            5321            5412     266.056E-06     268.922E-06
            5321            5413     261.045E-06     262.823E-06
            5321            5416     269.871E-06     271.110E-06
            5321            5417     249.350E-06     249.819E-06
            5322            5413     261.045E-06     262.823E-06
            5322            5414     242.084E-06     241.555E-06
            5322            5417     249.350E-06     249.819E-06
            5322            5418     212.382E-06     212.356E-06
            5323             813     227.406E-06     225.973E-06
            5323             814     190.464E-06     190.463E-06
            5323            5414     242.084E-06     241.555E-06
            5323            5418     212.382E-06     212.356E-06
            5324             845     277.695E-06     278.872E-06
            5324             846     278.570E-06     278.073E-06
            5324            5415     276.519E-06     277.852E-06
            5324            5419     277.076E-06     276.533E-06
            5325            5415     276.519E-06     277.852E-06
            5325            5416     269.871E-06     271.110E-06
            5325            5419     277.076E-06     276.533E-06
            5325            5420     268.233E-06     267.572E-06
            5326            5416     269.871E-06     271.110E-06
            5326            5417     249.350E-06     249.819E-06
            5326            5420     268.233E-06     267.572E-06
            5326            5421     242.975E-06     243.258E-06
            5327            5417     249.350E-06     249.819E-06
            5327            5418     212.382E-06     212.356E-06
            5327            5421     242.975E-06     243.258E-06
            5327            5422     196.492E-06     197.996E-06
            5328             814     190.464E-06     190.463E-06
            5328             815     167.918E-06     169.628E-06
            5328            5418     212.382E-06     212.356E-06
            5328            5422     196.492E-06     197.996E-06
            5329             846     278.570E-06     278.073E-06
            5329             847     273.486E-06     271.770E-06
            5329            5419     277.076E-06     276.533E-06
            5329            5423     270.824E-06     269.021E-06
            5330            5419     277.076E-06     276.533E-06
            5330            5420     268.233E-06     267.572E-06
            5330            5423     270.824E-06     269.021E-06
            5330            5424     263.328E-06     261.651E-06
            5331            5420     268.233E-06     267.572E-06
            5331            5421     242.975E-06     243.258E-06
            5331            5424     263.328E-06     261.651E-06
            5331            5425     243.003E-06     242.283E-06
            5332            5421     242.975E-06     243.258E-06
            5332            5422     196.492E-06     197.996E-06
            5332            5425     243.003E-06     242.283E-06
            5332            5426     192.535E-06     194.813E-06
            5333             815     167.918E-06     169.628E-06
            5333             816     157.559E-06     162.089E-06
            5333            5422     196.492E-06     197.996E-06
            5333            5426     192.535E-06     194.813E-06
            5334             847     273.486E-06     271.770E-06
            5334             848     266.262E-06     264.712E-06
            5334            5423     270.824E-06     269.021E-06
            5334            5427     263.861E-06     262.269E-06
            5335            5423     270.824E-06     269.021E-06
            5335            5424     263.328E-06     261.651E-06
            5335            5427     263.861E-06     262.269E-06
            5335            5428     254.419E-06     252.734E-06
            5336            5424     263.328E-06     261.651E-06
            5336            5425     243.003E-06     242.283E-06
            5336            5428     254.419E-06     252.734E-06
            5336            5429     238.319E-06     237.084E-06
            5337            5425     243.003E-06     242.283E-06
            5337            5426     192.535E-06     194.813E-06
            5337            5429     238.319E-06     237.084E-06
            5337            5430     200.242E-06     201.714E-06
            5338             816     157.559E-06     162.089E-06
            5338             817     171.224E-06     174.903E-06
            5338            5426     192.535E-06     194.813E-06
            5338            5430     200.242E-06     201.714E-06
            5339              33     263.199E-06     262.211E-06
            5339             848     266.262E-06     264.712E-06
            5339             869     260.803E-06     259.695E-06
            5339            5427     263.861E-06     262.269E-06
            5340             868     249.235E-06     247.922E-06
            5340             869     260.803E-06     259.695E-06
            5340            5427     263.861E-06     262.269E-06
            5340            5428     254.419E-06     252.734E-06
            5341             867     233.450E-06     232.430E-06
            5341             868     249.235E-06     247.922E-06
            5341            5428     254.419E-06     252.734E-06
            5341            5429     238.319E-06     237.084E-06
            5342             866     204.431E-06     205.225E-06
            5342             867     233.450E-06     232.430E-06
            5342            5429     238.319E-06     237.084E-06
            5342            5430     200.242E-06     201.714E-06
            5343              31     182.024E-06     184.255E-06
            5343             817     171.224E-06     174.903E-06
            5343             866     204.431E-06     205.225E-06
            5343            5430     200.242E-06     201.714E-06
            5344              17     171.152E-03     173.302E-03
            5344             441     251.636E-03     250.084E-03
            5344             581     239.148E-03     248.627E-03
            5344            5431     307.289E-03     313.354E-03
            5345             440     424.970E-03     415.309E-03
            5345             441     251.636E-03     250.084E-03
            5345            5431     307.289E-03     313.354E-03
            5345            5432     462.182E-03     460.516E-03
            5346             439     624.673E-03     605.194E-03
            5346             440     424.970E-03     415.309E-03
            5346            5432     462.182E-03     460.516E-03
            5346            5433     668.211E-03     660.443E-03
            5347             438     865.347E-03     835.104E-03
            5347             439     624.673E-03     605.194E-03
            5347            5433     668.211E-03     660.443E-03
            5347            5434     925.503E-03     902.398E-03
            5348              16         1.00114     965.262E-03
            5348             438     865.347E-03     835.104E-03
            5348             528         1.06448         1.02748
            5348            5434     925.503E-03     902.398E-03
            5349             581     239.148E-03     248.627E-03
            5349             582     286.991E-03     298.516E-03
            5349            5431     307.289E-03     313.354E-03
            5349            5435     347.964E-03     362.522E-03
            5350            5431     307.289E-03     313.354E-03
            5350            5432     462.182E-03     460.516E-03
            5350            5435     347.964E-03     362.522E-03
            5350            5436     495.513E-03     518.416E-03
            5351            5432     462.182E-03     460.516E-03
            5351            5433     668.211E-03     660.443E-03
            5351            5436     495.513E-03     518.416E-03
            5351            5437     685.795E-03     712.593E-03
            5352            5433     668.211E-03     660.443E-03
            5352            5434     925.503E-03     902.398E-03
            5352            5437     685.795E-03     712.593E-03
            5352            5438     883.865E-03     894.614E-03
            5353             528         1.06448         1.02748
            5353             529     979.026E-03     975.003E-03
            5353            5434     925.503E-03     902.398E-03
            5353            5438     883.865E-03     894.614E-03
            5354             582     286.991E-03     298.516E-03
            5354             583     310.892E-03     312.789E-03
            5354            5435     347.964E-03     362.522E-03
            5354            5439     367.465E-03     375.416E-03
            5355            5435     347.964E-03     362.522E-03
            5355            5436     495.513E-03     518.416E-03
            5355            5439     367.465E-03     375.416E-03
            5355            5440     506.415E-03     529.447E-03
            5356            5436     495.513E-03     518.416E-03
            5356            5437     685.795E-03     712.593E-03
            5356            5440     506.415E-03     529.447E-03
            5356            5441     668.553E-03     697.238E-03
            5357            5437     685.795E-03     712.593E-03
            5357            5438     883.865E-03     894.614E-03
            5357            5441     668.553E-03     697.238E-03
            5357            5442     830.141E-03     840.105E-03
            5358             529     979.026E-03     975.003E-03
            5358             530     912.673E-03     907.261E-03
            5358            5438     883.865E-03     894.614E-03
            5358            5442     830.141E-03     840.105E-03
            5359             583     310.892E-03     312.789E-03
            5359             584     326.053E-03     316.652E-03
            5359            5439     367.465E-03     375.416E-03
            5359            5443     376.731E-03     371.038E-03
            5360            5439     367.465E-03     375.416E-03
            5360            5440     506.415E-03     529.447E-03
            5360            5443     376.731E-03     371.038E-03
            5360            5444     495.429E-03     497.782E-03
            5361            5440     506.415E-03     529.447E-03
            5361            5441     668.553E-03     697.238E-03
            5361            5444     495.429E-03     497.782E-03
            5361            5445     640.428E-03     656.046E-03
            5362            5441     668.553E-03     697.238E-03
            5362            5442     830.141E-03     840.105E-03
            5362            5445     640.428E-03     656.046E-03
            5362            5446     789.959E-03     805.024E-03
            5363             530     912.673E-03     907.261E-03
            5363             531     863.049E-03     868.758E-03
            5363            5442     830.141E-03     840.105E-03
            5363            5446     789.959E-03     805.024E-03
            5364             584     326.053E-03     316.652E-03
            5364             585     355.583E-03     344.108E-03
            5364            5443     376.731E-03     371.038E-03
            5364            5447     391.073E-03     377.118E-03
            5365            5443     376.731E-03     371.038E-03
            5365            5444     495.429E-03     497.782E-03
            5365            5447     391.073E-03     377.118E-03
            5365            5448     481.672E-03     461.273E-03
            5366            5444     495.429E-03     497.782E-03
            5366            5445     640.428E-03     656.046E-03
            5366            5448     481.672E-03     461.273E-03
            5366            5449     600.298E-03     576.329E-03
            5367            5445     640.428E-03     656.046E-03
            5367            5446     789.959E-03     805.024E-03
            5367            5449     600.298E-03     576.329E-03
            5367            5450     725.526E-03     702.640E-03
            5368             531     863.049E-03     868.758E-03
            5368             532     787.624E-03     765.592E-03
            5368            5446     789.959E-03     805.024E-03
            5368            5450     725.526E-03     702.640E-03
            5369              25     291.512E-03     286.775E-03
            5369             585     355.583E-03     344.108E-03
            5369             660     331.697E-03     324.198E-03
            5369            5447     391.073E-03     377.118E-03
            5370             660     331.697E-03     324.198E-03
            5370             661     431.688E-03     416.116E-03
            5370            5447     391.073E-03     377.118E-03
            5370            5448     481.672E-03     461.273E-03
            5371             661     431.688E-03     416.116E-03
            5371             662     560.037E-03     528.100E-03
            5371            5448     481.672E-03     461.273E-03
            5371            5449     600.298E-03     576.329E-03
            5372             662     560.037E-03     528.100E-03
            5372             663     726.620E-03     679.001E-03
            5372            5449     600.298E-03     576.329E-03
            5372            5450     725.526E-03     702.640E-03
            5373              21     825.088E-03     772.776E-03
            5373             532     787.624E-03     765.592E-03
            5373             663     726.620E-03     679.001E-03
            5373            5450     725.526E-03     702.640E-03
            5430              23     822.348E-03     769.326E-03
            5430             589     724.058E-03     675.872E-03
            5430             597     865.541E-03     845.771E-03
            5430            5493     760.355E-03     756.548E-03
            5431             588     557.679E-03     525.519E-03
            5431             589     724.058E-03     675.872E-03
            5431            5493     760.355E-03     756.548E-03
            5431            5494     564.984E-03     574.369E-03
            5432             587     429.622E-03     414.042E-03
            5432             588     557.679E-03     525.519E-03
            5432            5494     564.984E-03     574.369E-03
            5432            5495     405.752E-03     410.097E-03
            5433             586     330.369E-03     322.938E-03
            5433             587     429.622E-03     414.042E-03
            5433            5495     405.752E-03     410.097E-03
            5433            5496     286.623E-03     287.487E-03
            5434              25     291.512E-03     286.775E-03
            5434             586     330.369E-03     322.938E-03
            5434             723     236.998E-03     236.483E-03
            5434            5496     286.623E-03     287.487E-03
            5435             597     865.541E-03     845.771E-03
            5435             598     777.671E-03     787.254E-03
            5435            5493     760.355E-03     756.548E-03
            5435            5497     717.012E-03     738.195E-03
            5436            5493     760.355E-03     756.548E-03
            5436            5494     564.984E-03     574.369E-03
            5436            5497     717.012E-03     738.195E-03
            5436            5498     579.267E-03     600.996E-03
            5437            5494     564.984E-03     574.369E-03
            5437            5495     405.752E-03     410.097E-03
            5437            5498     579.267E-03     600.996E-03
            5437            5499     437.427E-03     443.181E-03
            5438            5495     405.752E-03     410.097E-03
            5438            5496     286.623E-03     287.487E-03
            5438            5499     437.427E-03     443.181E-03
            5438            5500     330.284E-03     330.695E-03
            5439             722     288.221E-03     288.182E-03
            5439             723     236.998E-03     236.483E-03
            5439            5496     286.623E-03     287.487E-03
            5439            5500     330.284E-03     330.695E-03
            5440             598     777.671E-03     787.254E-03
            5440             599     680.716E-03     670.392E-03
            5440            5497     717.012E-03     738.195E-03
            5440            5501     637.401E-03     628.129E-03
            5441            5497     717.012E-03     738.195E-03
            5441            5498     579.267E-03     600.996E-03
            5441            5501     637.401E-03     628.129E-03
            5441            5502     544.258E-03     537.484E-03
            5442            5498     579.267E-03     600.996E-03
            5442            5499     437.427E-03     443.181E-03
            5442            5502     544.258E-03     537.484E-03
            5442            5503     445.744E-03     442.102E-03
            5443            5499     437.427E-03     443.181E-03
            5443            5500     330.284E-03     330.695E-03
            5443            5503     445.744E-03     442.102E-03
            5443            5504     366.456E-03     365.828E-03
            5444             721     336.062E-03     336.833E-03
            5444             722     288.221E-03     288.182E-03
            5444            5500     330.284E-03     330.695E-03
            5444            5504     366.456E-03     365.828E-03
            5445             599     680.716E-03     670.392E-03
            5445             600     740.393E-03     695.800E-03
            5445            5501     637.401E-03     628.129E-03
            5445            5505     656.570E-03     615.745E-03
            5446            5501     637.401E-03     628.129E-03
            5446            5502     544.258E-03     537.484E-03
            5446            5505     656.570E-03     615.745E-03
            5446            5506     511.910E-03     483.650E-03
            5447            5502     544.258E-03     537.484E-03
            5447            5503     445.744E-03     442.102E-03
            5447            5506     511.910E-03     483.650E-03
            5447            5507     404.794E-03     393.084E-03
            5448            5503     445.744E-03     442.102E-03
            5448            5504     366.456E-03     365.828E-03
            5448            5507     404.794E-03     393.084E-03
            5448            5508     326.863E-03     326.836E-03
            5449             720     295.341E-03     299.254E-03
            5449             721     336.062E-03     336.833E-03
            5449            5504     366.456E-03     365.828E-03
            5449            5508     326.863E-03     326.836E-03
            5450             600     740.393E-03     695.800E-03
            5450             601     809.578E-03     780.249E-03
            5450            5505     656.570E-03     615.745E-03
            5450            5509     707.990E-03     687.549E-03
            5451            5505     656.570E-03     615.745E-03
            5451            5506     511.910E-03     483.650E-03
            5451            5509     707.990E-03     687.549E-03
            5451            5510     521.550E-03     512.048E-03
            5452            5506     511.910E-03     483.650E-03
            5452            5507     404.794E-03     393.084E-03
            5452            5510     521.550E-03     512.048E-03
            5452            5511     380.959E-03     379.239E-03
            5453            5507     404.794E-03     393.084E-03
            5453            5508     326.863E-03     326.836E-03
            5453            5511     380.959E-03     379.239E-03
            5453            5512     288.607E-03     297.432E-03
            5454             719     252.084E-03     265.668E-03
            5454             720     295.341E-03     299.254E-03
            5454            5508     326.863E-03     326.836E-03
            5454            5512     288.607E-03     297.432E-03
            5455             601     809.578E-03     780.249E-03
            5455             602     729.828E-03     721.576E-03
            5455            5509     707.990E-03     687.549E-03
            5455            5513     664.780E-03     663.862E-03
            5456            5509     707.990E-03     687.549E-03
            5456            5510     521.550E-03     512.048E-03
            5456            5513     664.780E-03     663.862E-03
            5456            5514     529.282E-03     538.700E-03
            5457            5510     521.550E-03     512.048E-03
            5457            5511     380.959E-03     379.239E-03
            5457            5514     529.282E-03     538.700E-03
            5457            5515     404.892E-03     418.847E-03
            5458            5511     380.959E-03     379.239E-03
            5458            5512     288.607E-03     297.432E-03
            5458            5515     404.892E-03     418.847E-03
            5458            5516     321.101E-03     339.267E-03
            5459             718     291.333E-03     312.125E-03
            5459             719     252.084E-03     265.668E-03
            5459            5512     288.607E-03     297.432E-03
            5459            5516     321.101E-03     339.267E-03
            5460             602     729.828E-03     721.576E-03
            5460             603     675.117E-03     664.657E-03
            5460            5513     664.780E-03     663.862E-03
            5460            5517     617.233E-03     611.987E-03
            5461            5513     664.780E-03     663.862E-03
            5461            5514     529.282E-03     538.700E-03
            5461            5517     617.233E-03     611.987E-03
            5461            5518     507.628E-03     513.356E-03
            5462            5514     529.282E-03     538.700E-03
            5462            5515     404.892E-03     418.847E-03
            5462            5518     507.628E-03     513.356E-03
            5462            5519     409.873E-03     423.833E-03
            5463            5515     404.892E-03     418.847E-03
            5463            5516     321.101E-03     339.267E-03
            5463            5519     409.873E-03     423.833E-03
            5463            5520     337.895E-03     355.111E-03
            5464             717     312.028E-03     329.975E-03
            5464             718     291.333E-03     312.125E-03
            5464            5516     321.101E-03     339.267E-03
            5464            5520     337.895E-03     355.111E-03
            5465             603     675.117E-03     664.657E-03
            5465             604     636.103E-03     626.231E-03
            5465            5517     617.233E-03     611.987E-03
            5465            5521     582.793E-03     577.410E-03
            5466            5517     617.233E-03     611.987E-03
            5466            5518     507.628E-03     513.356E-03
            5466            5521     582.793E-03     577.410E-03
            5466            5522     482.546E-03     485.136E-03
            5467            5518     507.628E-03     513.356E-03
            5467            5519     409.873E-03     423.833E-03
            5467            5522     482.546E-03     485.136E-03
            5467            5523     400.134E-03     408.219E-03
            5468            5519     409.873E-03     423.833E-03
            5468            5520     337.895E-03     355.111E-03
            5468            5523     400.134E-03     408.219E-03
            5468            5524     342.286E-03     352.525E-03
            5469             716     319.981E-03     330.321E-03
            5469             717     312.028E-03     329.975E-03
            5469            5520     337.895E-03     355.111E-03
            5469            5524     342.286E-03     352.525E-03
            5470             604     636.103E-03     626.231E-03
            5470             605     594.414E-03     586.070E-03
            5470            5521     582.793E-03     577.410E-03
            5470            5525     547.176E-03     543.636E-03
            5471            5521     582.793E-03     577.410E-03
            5471            5522     482.546E-03     485.136E-03
            5471            5525     547.176E-03     543.636E-03
            5471            5526     460.128E-03     463.264E-03
            5472            5522     482.546E-03     485.136E-03
            5472            5523     400.134E-03     408.219E-03
            5472            5526     460.128E-03     463.264E-03
            5472            5527     388.201E-03     392.533E-03
            5473            5523     400.134E-03     408.219E-03
            5473            5524     342.286E-03     352.525E-03
            5473            5527     388.201E-03     392.533E-03
            5473            5528     338.407E-03     340.535E-03
            5474             715     320.800E-03     321.351E-03
            5474             716     319.981E-03     330.321E-03
            5474            5524     342.286E-03     352.525E-03
            5474            5528     338.407E-03     340.535E-03
            5475             605     594.414E-03     586.070E-03
            5475             606     553.554E-03     548.671E-03
            5475            5525     547.176E-03     543.636E-03
            5475            5529     512.338E-03     511.842E-03
            5476            5525     547.176E-03     543.636E-03
            5476            5526     460.128E-03     463.264E-03
            5476            5529     512.338E-03     511.842E-03
            5476            5530     437.385E-03     442.108E-03
            5477            5526     460.128E-03     463.264E-03
            5477            5527     388.201E-03     392.533E-03
            5477            5530     437.385E-03     442.108E-03
            5477            5531     376.832E-03     378.796E-03
            5478            5527     388.201E-03     392.533E-03
            5478            5528     338.407E-03     340.535E-03
            5478            5531     376.832E-03     378.796E-03
            5478            5532     332.914E-03     327.436E-03
            5479             714     315.861E-03     306.518E-03
            5479             715     320.800E-03     321.351E-03
            5479            5528     338.407E-03     340.535E-03
            5479            5532     332.914E-03     327.436E-03
            5480             606     553.554E-03     548.671E-03
            5480             607     509.993E-03     507.814E-03
            5480            5529     512.338E-03     511.842E-03
            5480            5533     477.113E-03     481.392E-03
            5481            5529     512.338E-03     511.842E-03
            5481            5530     437.385E-03     442.108E-03
            5481            5533     477.113E-03     481.392E-03
            5481            5534     417.579E-03     424.936E-03
            5482            5530     437.385E-03     442.108E-03
            5482            5531     376.832E-03     378.796E-03
            5482            5534     417.579E-03     424.936E-03
            5482            5535     366.094E-03     363.311E-03
            5483            5531     376.832E-03     378.796E-03
            5483            5532     332.914E-03     327.436E-03
            5483            5535     366.094E-03     363.311E-03
            5483            5536     325.816E-03     312.547E-03
            5484             713     310.410E-03     293.415E-03
            5484             714     315.861E-03     306.518E-03
            5484            5532     332.914E-03     327.436E-03
            5484            5536     325.816E-03     312.547E-03
            5485             607     509.993E-03     507.814E-03
            5485             608     460.407E-03     468.815E-03
            5485            5533     477.113E-03     481.392E-03
            5485            5537     440.149E-03     449.306E-03
            5486            5533     477.113E-03     481.392E-03
            5486            5534     417.579E-03     424.936E-03
            5486            5537     440.149E-03     449.306E-03
            5486            5538     398.549E-03     399.379E-03
            5487            5534     417.579E-03     424.936E-03
            5487            5535     366.094E-03     363.311E-03
            5487            5538     398.549E-03     399.379E-03
            5487            5539     355.326E-03     343.072E-03
            5488            5535     366.094E-03     363.311E-03
            5488            5536     325.816E-03     312.547E-03
            5488            5539     355.326E-03     343.072E-03
            5488            5540     320.226E-03     301.792E-03
            5489             712     307.022E-03     286.462E-03
            5489             713     310.410E-03     293.415E-03
            5489            5536     325.816E-03     312.547E-03
            5489            5540     320.226E-03     301.792E-03
            5490             608     460.407E-03     468.815E-03
            5490             609     395.170E-03     384.428E-03
            5490            5537     440.149E-03     449.306E-03
            5490            5541     393.160E-03     377.054E-03
            5491            5537     440.149E-03     449.306E-03
            5491            5538     398.549E-03     399.379E-03
            5491            5541     393.160E-03     377.054E-03
            5491            5542     375.926E-03     354.001E-03
            5492            5538     398.549E-03     399.379E-03
            5492            5539     355.326E-03     343.072E-03
            5492            5542     375.926E-03     354.001E-03
            5492            5543     346.237E-03     325.957E-03
            5493            5539     355.326E-03     343.072E-03
            5493            5540     320.226E-03     301.792E-03
            5493            5543     346.237E-03     325.957E-03
            5493            5544     322.807E-03     306.027E-03
            5494             711     313.837E-03     298.524E-03
            5494             712     307.022E-03     286.462E-03
            5494            5540     320.226E-03     301.792E-03
            5494            5544     322.807E-03     306.027E-03
            5495             609     395.170E-03     384.428E-03
            5495             610     467.131E-03     433.520E-03
            5495            5541     393.160E-03     377.054E-03
            5495            5545     430.356E-03     398.998E-03
            5496            5541     393.160E-03     377.054E-03
            5496            5542     375.926E-03     354.001E-03
            5496            5545     430.356E-03     398.998E-03
            5496            5546     365.952E-03     342.640E-03
            5497            5542     375.926E-03     354.001E-03
            5497            5543     346.237E-03     325.957E-03
            5497            5546     365.952E-03     342.640E-03
            5497            5547     321.000E-03     308.006E-03
            5498            5543     346.237E-03     325.957E-03
            5498            5544     322.807E-03     306.027E-03
            5498            5547     321.000E-03     308.006E-03
            5498            5548     293.715E-03     287.995E-03
            5499             710     283.684E-03     280.718E-03
            5499             711     313.837E-03     298.524E-03
            5499            5544     322.807E-03     306.027E-03
            5499            5548     293.715E-03     287.995E-03
            5500             610     467.131E-03     433.520E-03
            5500             611     537.189E-03     520.854E-03
            5500            5545     430.356E-03     398.998E-03
            5500            5549     480.249E-03     470.490E-03
            5501            5545     430.356E-03     398.998E-03
            5501            5546     365.952E-03     342.640E-03
            5501            5549     480.249E-03     470.490E-03
            5501            5550     378.207E-03     376.355E-03
            5502            5546     365.952E-03     342.640E-03
            5502            5547     321.000E-03     308.006E-03
            5502            5550     378.207E-03     376.355E-03
            5502            5551     310.814E-03     312.639E-03
            5503            5547     321.000E-03     308.006E-03
            5503            5548     293.715E-03     287.995E-03
            5503            5551     310.814E-03     312.639E-03
            5503            5552     275.608E-03     281.229E-03
            5504             709     262.540E-03     269.604E-03
            5504             710     283.684E-03     280.718E-03
            5504            5548     293.715E-03     287.995E-03
            5504            5552     275.608E-03     281.229E-03
            5505             611     537.189E-03     520.854E-03
            5505             612     462.172E-03     456.959E-03
            5505            5549     480.249E-03     470.490E-03
            5505            5553     436.039E-03     434.185E-03
            5506            5549     480.249E-03     470.490E-03
            5506            5550     378.207E-03     376.355E-03
            5506            5553     436.039E-03     434.185E-03
            5506            5554     379.606E-03     383.869E-03
            5507            5550     378.207E-03     376.355E-03
            5507            5551     310.814E-03     312.639E-03
            5507            5554     379.606E-03     383.869E-03
            5507            5555     328.836E-03     336.648E-03
            5508            5551     310.814E-03     312.639E-03
            5508            5552     275.608E-03     281.229E-03
            5508            5555     328.836E-03     336.648E-03
            5508            5556     299.585E-03     309.119E-03
            5509             708     290.648E-03     301.107E-03
            5509             709     262.540E-03     269.604E-03
            5509            5552     275.608E-03     281.229E-03
            5509            5556     299.585E-03     309.119E-03
            5510             612     462.172E-03     456.959E-03
            5510             613     410.898E-03     405.434E-03
            5510            5553     436.039E-03     434.185E-03
            5510            5557     391.862E-03     387.898E-03
            5511            5553     436.039E-03     434.185E-03
            5511            5554     379.606E-03     383.869E-03
            5511            5557     391.862E-03     387.898E-03
            5511            5558     358.852E-03     359.800E-03
            5512            5554     379.606E-03     383.869E-03
            5512            5555     328.836E-03     336.648E-03
            5512            5558     358.852E-03     359.800E-03
            5512            5559     332.166E-03     338.440E-03
            5513            5555     328.836E-03     336.648E-03
            5513            5556     299.585E-03     309.119E-03
            5513            5559     332.166E-03     338.440E-03
            5513            5560     313.363E-03     322.080E-03
            5514             707     307.134E-03     316.356E-03
            5514             708     290.648E-03     301.107E-03
            5514            5556     299.585E-03     309.119E-03
            5514            5560     313.363E-03     322.080E-03
            5515             613     410.898E-03     405.434E-03
            5515             614     373.727E-03     368.079E-03
            5515            5557     391.862E-03     387.898E-03
            5515            5561     360.069E-03     356.401E-03
            5516            5557     391.862E-03     387.898E-03
            5516            5558     358.852E-03     359.800E-03
            5516            5561     360.069E-03     356.401E-03
            5516            5562     337.632E-03     337.460E-03
            5517            5558     358.852E-03     359.800E-03
            5517            5559     332.166E-03     338.440E-03
            5517            5562     337.632E-03     337.460E-03
            5517            5563     324.965E-03     327.994E-03
            5518            5559     332.166E-03     338.440E-03
            5518            5560     313.363E-03     322.080E-03
            5518            5563     324.965E-03     327.994E-03
            5518            5564     318.057E-03     323.387E-03
            5519             706     314.910E-03     320.838E-03
            5519             707     307.134E-03     316.356E-03
            5519            5560     313.363E-03     322.080E-03
            5519            5564     318.057E-03     323.387E-03
            5520             614     373.727E-03     368.079E-03
            5520             615     336.144E-03     332.042E-03
            5520            5561     360.069E-03     356.401E-03
            5520            5565     328.866E-03     326.391E-03
            5521            5561     360.069E-03     356.401E-03
            5521            5562     337.632E-03     337.460E-03
            5521            5565     328.866E-03     326.391E-03
            5521            5566     319.568E-03     319.825E-03
            5522            5562     337.632E-03     337.460E-03
            5522            5563     324.965E-03     327.994E-03
            5522            5566     319.568E-03     319.825E-03
            5522            5567     316.877E-03     318.377E-03
            5523            5563     324.965E-03     327.994E-03
            5523            5564     318.057E-03     323.387E-03
            5523            5567     316.877E-03     318.377E-03
            5523            5568     316.750E-03     318.554E-03
            5524             705     317.183E-03     319.119E-03
            5524             706     314.910E-03     320.838E-03
            5524            5564     318.057E-03     323.387E-03
            5524            5568     316.750E-03     318.554E-03
            5525             615     336.144E-03     332.042E-03
            5525             616     301.625E-03     298.724E-03
            5525            5565     328.866E-03     326.391E-03
            5525            5569     300.476E-03     299.514E-03
            5526            5565     328.866E-03     326.391E-03
            5526            5566     319.568E-03     319.825E-03
            5526            5569     300.476E-03     299.514E-03
            5526            5570     302.596E-03     303.582E-03
            5527            5566     319.568E-03     319.825E-03
            5527            5567     316.877E-03     318.377E-03
            5527            5570     302.596E-03     303.582E-03
            5527            5571     309.208E-03     309.510E-03
            5528            5567     316.877E-03     318.377E-03
            5528            5568     316.750E-03     318.554E-03
            5528            5571     309.208E-03     309.510E-03
            5528            5572     314.030E-03     312.835E-03
            5529             704     315.421E-03     313.386E-03
            5529             705     317.183E-03     319.119E-03
            5529            5568     316.750E-03     318.554E-03
            5529            5572     314.030E-03     312.835E-03
            5530             616     301.625E-03     298.724E-03
            5530             617     267.879E-03     267.842E-03
            5530            5569     300.476E-03     299.514E-03
            5530            5573     274.353E-03     275.740E-03
            5531            5569     300.476E-03     299.514E-03
            5531            5570     302.596E-03     303.582E-03
            5531            5573     274.353E-03     275.740E-03
            5531            5574     288.913E-03     290.764E-03
            5532            5570     302.596E-03     303.582E-03
            5532            5571     309.208E-03     309.510E-03
            5532            5574     288.913E-03     290.764E-03
            5532            5575     302.473E-03     301.290E-03
            5533            5571     309.208E-03     309.510E-03
            5533            5572     314.030E-03     312.835E-03
            5533            5575     302.473E-03     301.290E-03
            5533            5576     309.822E-03     305.324E-03
            5534             703     311.614E-03     305.863E-03
            5534             704     315.421E-03     313.386E-03
            5534            5572     314.030E-03     312.835E-03
            5534            5576     309.822E-03     305.324E-03
            5535             617     267.879E-03     267.842E-03
            5535             618     234.553E-03     238.215E-03
            5535            5573     274.353E-03     275.740E-03
            5535            5577     250.209E-03     254.778E-03
            5536            5573     274.353E-03     275.740E-03
            5536            5574     288.913E-03     290.764E-03
            5536            5577     250.209E-03     254.778E-03
            5536            5578     279.052E-03     281.147E-03
            5537            5574     288.913E-03     290.764E-03
            5537            5575     302.473E-03     301.290E-03
            5537            5578     279.052E-03     281.147E-03
            5537            5579     297.320E-03     293.337E-03
            5538            5575     302.473E-03     301.290E-03
            5538            5576     309.822E-03     305.324E-03
            5538            5579     297.320E-03     293.337E-03
            5538            5580     303.704E-03     295.924E-03
            5539             702     304.942E-03     296.051E-03
            5539             703     311.614E-03     305.863E-03
            5539            5576     309.822E-03     305.324E-03
            5539            5580     303.704E-03     295.924E-03
            5540             618     234.553E-03     238.215E-03
            5540             619     202.450E-03     213.410E-03
            5540            5577     250.209E-03     254.778E-03
            5540            5581     231.207E-03     238.031E-03
            5541            5577     250.209E-03     254.778E-03
            5541            5578     279.052E-03     281.147E-03
            5541            5581     231.207E-03     238.031E-03
            5541            5582     273.497E-03     271.797E-03
            5542            5578     279.052E-03     281.147E-03
            5542            5579     297.320E-03     293.337E-03
            5542            5582     273.497E-03     271.797E-03
            5542            5583     290.598E-03     283.134E-03
            5543            5579     297.320E-03     293.337E-03
            5543            5580     303.704E-03     295.924E-03
            5543            5583     290.598E-03     283.134E-03
            5543            5584     295.600E-03     286.133E-03
            5544             701     296.976E-03     286.912E-03
            5544             702     304.942E-03     296.051E-03
            5544            5580     303.704E-03     295.924E-03
            5544            5584     295.600E-03     286.133E-03
            5545             619     202.450E-03     213.410E-03
            5545             620     176.274E-03     185.062E-03
            5545            5581     231.207E-03     238.031E-03
            5545            5585     215.326E-03     216.614E-03
            5546            5581     231.207E-03     238.031E-03
            5546            5582     273.497E-03     271.797E-03
            5546            5585     215.326E-03     216.614E-03
            5546            5586     264.988E-03     257.813E-03
            5547            5582     273.497E-03     271.797E-03
            5547            5583     290.598E-03     283.134E-03
            5547            5586     264.988E-03     257.813E-03
            5547            5587     281.461E-03     273.580E-03
            5548            5583     290.598E-03     283.134E-03
            5548            5584     295.600E-03     286.133E-03
            5548            5587     281.461E-03     273.580E-03
            5548            5588     289.384E-03     281.964E-03
            5549             700     291.392E-03     284.223E-03
            5549             701     296.976E-03     286.912E-03
            5549            5584     295.600E-03     286.133E-03
            5549            5588     289.384E-03     281.964E-03
            5550             620     176.274E-03     185.062E-03
            5550             621     217.423E-03     215.292E-03
            5550            5585     215.326E-03     216.614E-03
            5550            5589     237.894E-03     234.902E-03
            5551            5585     215.326E-03     216.614E-03
            5551            5586     264.988E-03     257.813E-03
            5551            5589     237.894E-03     234.902E-03
            5551            5590     262.159E-03     258.459E-03
            5552            5586     264.988E-03     257.813E-03
            5552            5587     281.461E-03     273.580E-03
            5552            5590     262.159E-03     258.459E-03
            5552            5591     272.554E-03     269.337E-03
            5553            5587     281.461E-03     273.580E-03
            5553            5588     289.384E-03     281.964E-03
            5553            5591     272.554E-03     269.337E-03
            5553            5592     279.277E-03     276.748E-03
            5554             699     279.347E-03     277.169E-03
            5554             700     291.392E-03     284.223E-03
            5554            5588     289.384E-03     281.964E-03
            5554            5592     279.277E-03     276.748E-03
            5555             621     217.423E-03     215.292E-03
            5555             622     238.222E-03     236.000E-03
            5555            5589     237.894E-03     234.902E-03
            5555            5593     254.907E-03     254.781E-03
            5556            5589     237.894E-03     234.902E-03
            5556            5590     262.159E-03     258.459E-03
            5556            5593     254.907E-03     254.781E-03
            5556            5594     272.620E-03     274.022E-03
            5557            5590     262.159E-03     258.459E-03
            5557            5591     272.554E-03     269.337E-03
            5557            5594     272.620E-03     274.022E-03
            5557            5595     274.332E-03     274.908E-03
            5558            5591     272.554E-03     269.337E-03
            5558            5592     279.277E-03     276.748E-03
            5558            5595     274.332E-03     274.908E-03
            5558            5596     273.678E-03     273.850E-03
            5559             698     272.282E-03     272.296E-03
            5559             699     279.347E-03     277.169E-03
            5559            5592     279.277E-03     276.748E-03
            5559            5596     273.678E-03     273.850E-03
            5560             622     238.222E-03     236.000E-03
            5560             623     192.865E-03     195.213E-03
            5560            5593     254.907E-03     254.781E-03
            5560            5597     231.851E-03     232.488E-03
            5561            5593     254.907E-03     254.781E-03
            5561            5594     272.620E-03     274.022E-03
            5561            5597     231.851E-03     232.488E-03
            5561            5598     277.551E-03     277.338E-03
            5562            5594     272.620E-03     274.022E-03
            5562            5595     274.332E-03     274.908E-03
            5562            5598     277.551E-03     277.338E-03
            5562            5599     281.233E-03     281.623E-03
            5563            5595     274.332E-03     274.908E-03
            5563            5596     273.678E-03     273.850E-03
            5563            5599     281.233E-03     281.623E-03
            5563            5600     277.754E-03     277.853E-03
            5564             697     277.263E-03     277.332E-03
            5564             698     272.282E-03     272.296E-03
            5564            5596     273.678E-03     273.850E-03
            5564            5600     277.754E-03     277.853E-03
            5565             623     192.865E-03     195.213E-03
            5565             624     188.496E-03     190.429E-03
            5565            5597     231.851E-03     232.488E-03
            5565            5601     224.292E-03     224.456E-03
            5566            5597     231.851E-03     232.488E-03
            5566            5598     277.551E-03     277.338E-03
            5566            5601     224.292E-03     224.456E-03
            5566            5602     267.992E-03     266.803E-03
            5567            5598     277.551E-03     277.338E-03
            5567            5599     281.233E-03     281.623E-03
            5567            5602     267.992E-03     266.803E-03
            5567            5603     278.297E-03     277.860E-03
            5568            5599     281.233E-03     281.623E-03
            5568            5600     277.754E-03     277.853E-03
            5568            5603     278.297E-03     277.860E-03
            5568            5604     280.324E-03     280.325E-03
            5569             696     279.932E-03     280.043E-03
            5569             697     277.263E-03     277.332E-03
            5569            5600     277.754E-03     277.853E-03
            5569            5604     280.324E-03     280.325E-03
            5570              26     99.2303E-03     98.9861E-03
            5570             624     188.496E-03     190.429E-03
            5570             839     113.209E-03     113.115E-03
            5570            5601     224.292E-03     224.456E-03
            5571             839     113.209E-03     113.115E-03
            5571             840     130.235E-03     129.881E-03
            5571            5601     224.292E-03     224.456E-03
            5571            5602     267.992E-03     266.803E-03
            5572             840     130.235E-03     129.881E-03
            5572             841     137.271E-03     136.857E-03
            5572            5602     267.992E-03     266.803E-03
            5572            5603     278.297E-03     277.860E-03
            5573             841     137.271E-03     136.857E-03
            5573             842     140.918E-03     140.912E-03
            5573            5603     278.297E-03     277.860E-03
            5573            5604     280.324E-03     280.325E-03
            5574              29     140.581E-03     140.635E-03
            5574             696     279.932E-03     280.043E-03
            5574             842     140.918E-03     140.912E-03
            5574            5604     280.324E-03     280.325E-03


  Minimum                            157.331E-06     161.982E-06
      At Element                            1741            1741
            Node                             187             187

  Maximum                                1.06448         1.02748
      At Element                            5353            5353
            Node                             528             528

           Total                     1.36185E+03     1.35119E+03


Field Output reported at element nodes for region: DO228-1.Region_3
   Computation algorithm: EXTRAPOLATE_COMPUTE_AVERAGE
   Averaged at nodes
   Averaging regions: ODB_REGIONS

   Element Label      Node Label         S.Mises         S.Mises
                                          @Loc 1          @Loc 2
-----------------------------------------------------------------
               1               1     25.0815E-03     28.6641E-03
               1              36     26.2109E-03     27.8369E-03
               1             167     53.6376E-03     53.6719E-03
               1             905     53.7822E-03     53.5314E-03
               2              36     26.2109E-03     27.8369E-03
               2              37     27.7010E-03     26.8569E-03
               2             905     53.7822E-03     53.5314E-03
               2             906     54.1329E-03     53.2597E-03
               3              37     27.7010E-03     26.8569E-03
               3              38     28.0710E-03     26.8364E-03
               3             906     54.1329E-03     53.2597E-03
               3             907     54.5724E-03     53.1340E-03
               4              38     28.0710E-03     26.8364E-03
               4              39     28.3190E-03     26.9284E-03
               4             907     54.5724E-03     53.1340E-03
               4             908     55.1219E-03     53.1875E-03
               5              39     28.3190E-03     26.9284E-03
               5              40     28.7209E-03     26.8848E-03
               5             908     55.1219E-03     53.1875E-03
               5             909     55.7508E-03     53.3420E-03
               6              40     28.7209E-03     26.8848E-03
               6              41     29.1293E-03     26.9700E-03
               6             909     55.7508E-03     53.3420E-03
               6             910     56.4647E-03     53.6088E-03
               7              41     29.1293E-03     26.9700E-03
               7              42     29.5341E-03     27.0450E-03
               7             910     56.4647E-03     53.6088E-03
               7             911     57.2338E-03     53.9411E-03
               8              42     29.5341E-03     27.0450E-03
               8              43     30.0285E-03     27.2193E-03
               8             911     57.2338E-03     53.9411E-03
               8             912     58.0858E-03     54.3614E-03
               9              43     30.0285E-03     27.2193E-03
               9              44     30.4253E-03     27.3002E-03
               9             912     58.0858E-03     54.3614E-03
               9             913     58.9398E-03     54.8115E-03
              10              44     30.4253E-03     27.3002E-03
              10              45     31.0114E-03     27.5946E-03
              10             913     58.9398E-03     54.8115E-03
              10             914     59.9036E-03     55.3749E-03
              11              45     31.0114E-03     27.5946E-03
              11              46     31.2578E-03     27.5548E-03
              11             914     59.9036E-03     55.3749E-03
              11             915     60.8791E-03     55.9196E-03
              12              46     31.2578E-03     27.5548E-03
              12              47     31.9838E-03     27.7349E-03
              12             915     60.8791E-03     55.9196E-03
              12             916     62.0369E-03     56.7165E-03
              13              47     31.9838E-03     27.7349E-03
              13              48     30.6332E-03     26.4314E-03
              13             916     62.0369E-03     56.7165E-03
              13             917     62.6396E-03     56.5528E-03
              14              48     30.6332E-03     26.4314E-03
              14              49     27.0921E-03     22.3424E-03
              14             917     62.6396E-03     56.5528E-03
              14             918     57.3792E-03     51.2661E-03
              15              49     27.0921E-03     22.3424E-03
              15              50     16.8618E-03     19.4528E-03
              15             918     57.3792E-03     51.2661E-03
              15             919     33.1364E-03     38.1650E-03
              16               2     7.81814E-03     18.7275E-03
              16              50     16.8618E-03     19.4528E-03
              16              51     13.9802E-03     29.5729E-03
              16             919     33.1364E-03     38.1650E-03
              17             166     56.4553E-03     48.8183E-03
              17             167     53.6376E-03     53.6719E-03
              17             905     53.7822E-03     53.5314E-03
              17             920     54.4437E-03     50.5997E-03
              18             905     53.7822E-03     53.5314E-03
              18             906     54.1329E-03     53.2597E-03
              18             920     54.4437E-03     50.5997E-03
              18             921     52.0052E-03     52.5075E-03
              19             906     54.1329E-03     53.2597E-03
              19             907     54.5724E-03     53.1340E-03
              19             921     52.0052E-03     52.5075E-03
              19             922     52.0013E-03     52.3943E-03
              20             907     54.5724E-03     53.1340E-03
              20             908     55.1219E-03     53.1875E-03
              20             922     52.0013E-03     52.3943E-03
              20             923     52.4810E-03     52.4489E-03
              21             908     55.1219E-03     53.1875E-03
              21             909     55.7508E-03     53.3420E-03
              21             923     52.4810E-03     52.4489E-03
              21             924     52.8035E-03     52.9954E-03
              22             909     55.7508E-03     53.3420E-03
              22             910     56.4647E-03     53.6088E-03
              22             924     52.8035E-03     52.9954E-03
              22             925     53.3235E-03     53.5027E-03
              23             910     56.4647E-03     53.6088E-03
              23             911     57.2338E-03     53.9411E-03
              23             925     53.3235E-03     53.5027E-03
              23             926     53.9537E-03     54.1390E-03
              24             911     57.2338E-03     53.9411E-03
              24             912     58.0858E-03     54.3614E-03
              24             926     53.9537E-03     54.1390E-03
              24             927     54.6101E-03     54.8246E-03
              25             912     58.0858E-03     54.3614E-03
              25             913     58.9398E-03     54.8115E-03
              25             927     54.6101E-03     54.8246E-03
              25             928     55.4392E-03     55.6655E-03
              26             913     58.9398E-03     54.8115E-03
              26             914     59.9036E-03     55.3749E-03
              26             928     55.4392E-03     55.6655E-03
              26             929     56.2540E-03     56.4870E-03
              27             914     59.9036E-03     55.3749E-03
              27             915     60.8791E-03     55.9196E-03
              27             929     56.2540E-03     56.4870E-03
              27             930     57.5368E-03     57.7231E-03
              28             915     60.8791E-03     55.9196E-03
              28             916     62.0369E-03     56.7165E-03
              28             930     57.5368E-03     57.7231E-03
              28             931     58.8112E-03     59.2750E-03
              29             916     62.0369E-03     56.7165E-03
              29             917     62.6396E-03     56.5528E-03
              29             931     58.8112E-03     59.2750E-03
              29             932     61.9694E-03     61.4759E-03
              30             917     62.6396E-03     56.5528E-03
              30             918     57.3792E-03     51.2661E-03
              30             932     61.9694E-03     61.4759E-03
              30             933     60.5857E-03     61.3969E-03
              31             918     57.3792E-03     51.2661E-03
              31             919     33.1364E-03     38.1650E-03
              31             933     60.5857E-03     61.3969E-03
              31             934     46.6518E-03     47.6449E-03
              32              51     13.9802E-03     29.5729E-03
              32              52     37.0025E-03     35.5724E-03
              32             919     33.1364E-03     38.1650E-03
              32             934     46.6518E-03     47.6449E-03
              33             165     50.9305E-03     50.4683E-03
              33             166     56.4553E-03     48.8183E-03
              33             920     54.4437E-03     50.5997E-03
              33             935     50.7122E-03     50.9013E-03
              34             920     54.4437E-03     50.5997E-03
              34             921     52.0052E-03     52.5075E-03
              34             935     50.7122E-03     50.9013E-03
              34             936     50.4053E-03     51.5695E-03
              35             921     52.0052E-03     52.5075E-03
              35             922     52.0013E-03     52.3943E-03
              35             936     50.4053E-03     51.5695E-03
              35             937     50.2843E-03     52.0275E-03
              36             922     52.0013E-03     52.3943E-03
              36             923     52.4810E-03     52.4489E-03
              36             937     50.2843E-03     52.0275E-03
              36             938     50.3106E-03     52.5981E-03
              37             923     52.4810E-03     52.4489E-03
              37             924     52.8035E-03     52.9954E-03
              37             938     50.3106E-03     52.5981E-03
              37             939     50.4719E-03     53.2926E-03
              38             924     52.8035E-03     52.9954E-03
              38             925     53.3235E-03     53.5027E-03
              38             939     50.4719E-03     53.2926E-03
              38             940     50.7683E-03     54.0953E-03
              39             925     53.3235E-03     53.5027E-03
              39             926     53.9537E-03     54.1390E-03
              39             940     50.7683E-03     54.0953E-03
              39             941     51.1496E-03     54.9667E-03
              40             926     53.9537E-03     54.1390E-03
              40             927     54.6101E-03     54.8246E-03
              40             941     51.1496E-03     54.9667E-03
              40             942     51.6936E-03     55.9826E-03
              41             927     54.6101E-03     54.8246E-03
              41             928     55.4392E-03     55.6655E-03
              41             942     51.6936E-03     55.9826E-03
              41             943     52.2883E-03     57.0206E-03
              42             928     55.4392E-03     55.6655E-03
              42             929     56.2540E-03     56.4870E-03
              42             943     52.2883E-03     57.0206E-03
              42             944     53.1896E-03     58.3076E-03
              43             929     56.2540E-03     56.4870E-03
              43             930     57.5368E-03     57.7231E-03
              43             944     53.1896E-03     58.3076E-03
              43             945     54.0399E-03     59.5654E-03
              44             930     57.5368E-03     57.7231E-03
              44             931     58.8112E-03     59.2750E-03
              44             945     54.0399E-03     59.5654E-03
              44             946     55.5963E-03     61.2668E-03
              45             931     58.8112E-03     59.2750E-03
              45             932     61.9694E-03     61.4759E-03
              45             946     55.5963E-03     61.2668E-03
              45             947     56.2216E-03     62.4330E-03
              46             932     61.9694E-03     61.4759E-03
              46             933     60.5857E-03     61.3969E-03
              46             947     56.2216E-03     62.4330E-03
              46             948     56.3221E-03     64.0012E-03
              47             933     60.5857E-03     61.3969E-03
              47             934     46.6518E-03     47.6449E-03
              47             948     56.3221E-03     64.0012E-03
              47             949     64.9252E-03     72.0435E-03
              48              52     37.0025E-03     35.5724E-03
              48              53     72.6836E-03     78.3905E-03
              48             934     46.6518E-03     47.6449E-03
              48             949     64.9252E-03     72.0435E-03
              49             164     60.2558E-03     70.8668E-03
              49             165     50.9305E-03     50.4683E-03
              49             935     50.7122E-03     50.9013E-03
              49             950     63.2925E-03     69.3314E-03
              50             935     50.7122E-03     50.9013E-03
              50             936     50.4053E-03     51.5695E-03
              50             950     63.2925E-03     69.3314E-03
              50             951     67.2719E-03     67.8061E-03
              51             936     50.4053E-03     51.5695E-03
              51             937     50.2843E-03     52.0275E-03
              51             951     67.2719E-03     67.8061E-03
              51             952     68.7863E-03     68.7712E-03
              52             937     50.2843E-03     52.0275E-03
              52             938     50.3106E-03     52.5981E-03
              52             952     68.7863E-03     68.7712E-03
              52             953     70.4292E-03     70.5660E-03
              53             938     50.3106E-03     52.5981E-03
              53             939     50.4719E-03     53.2926E-03
              53             953     70.4292E-03     70.5660E-03
              53             954     72.4035E-03     72.3918E-03
              54             939     50.4719E-03     53.2926E-03
              54             940     50.7683E-03     54.0953E-03
              54             954     72.4035E-03     72.3918E-03
              54             955     74.5597E-03     74.6136E-03
              55             940     50.7683E-03     54.0953E-03
              55             941     51.1496E-03     54.9667E-03
              55             955     74.5597E-03     74.6136E-03
              55             956     76.7439E-03     76.8302E-03
              56             941     51.1496E-03     54.9667E-03
              56             942     51.6936E-03     55.9826E-03
              56             956     76.7439E-03     76.8302E-03
              56             957     78.9840E-03     79.0217E-03
              57             942     51.6936E-03     55.9826E-03
              57             943     52.2883E-03     57.0206E-03
              57             957     78.9840E-03     79.0217E-03
              57             958     80.8905E-03     80.8701E-03
              58             943     52.2883E-03     57.0206E-03
              58             944     53.1896E-03     58.3076E-03
              58             958     80.8905E-03     80.8701E-03
              58             959     82.5816E-03     82.2851E-03
              59             944     53.1896E-03     58.3076E-03
              59             945     54.0399E-03     59.5654E-03
              59             959     82.5816E-03     82.2851E-03
              59             960     83.2774E-03     82.6627E-03
              60             945     54.0399E-03     59.5654E-03
              60             946     55.5963E-03     61.2668E-03
              60             960     83.2774E-03     82.6627E-03
              60             961     83.2987E-03     81.8368E-03
              61             946     55.5963E-03     61.2668E-03
              61             947     56.2216E-03     62.4330E-03
              61             961     83.2987E-03     81.8368E-03
              61             962     80.0415E-03     78.1459E-03
              62             947     56.2216E-03     62.4330E-03
              62             948     56.3221E-03     64.0012E-03
              62             962     80.0415E-03     78.1459E-03
              62             963     74.5902E-03     71.9474E-03
              63             948     56.3221E-03     64.0012E-03
              63             949     64.9252E-03     72.0435E-03
              63             963     74.5902E-03     71.9474E-03
              63             964     70.6496E-03     71.4442E-03
              64              53     72.6836E-03     78.3905E-03
              64              54     68.4840E-03     73.8748E-03
              64             949     64.9252E-03     72.0435E-03
              64             964     70.6496E-03     71.4442E-03
              65             163     76.7782E-03     85.1183E-03
              65             164     60.2558E-03     70.8668E-03
              65             950     63.2925E-03     69.3314E-03
              65             965     77.9600E-03     84.2662E-03
              66             950     63.2925E-03     69.3314E-03
              66             951     67.2719E-03     67.8061E-03
              66             965     77.9600E-03     84.2662E-03
              66             966     81.1438E-03     83.0727E-03
              67             951     67.2719E-03     67.8061E-03
              67             952     68.7863E-03     68.7712E-03
              67             966     81.1438E-03     83.0727E-03
              67             967     85.1386E-03     83.8564E-03
              68             952     68.7863E-03     68.7712E-03
              68             953     70.4292E-03     70.5660E-03
              68             967     85.1386E-03     83.8564E-03
              68             968     89.1404E-03     86.5123E-03
              69             953     70.4292E-03     70.5660E-03
              69             954     72.4035E-03     72.3918E-03
              69             968     89.1404E-03     86.5123E-03
              69             969     93.4941E-03     89.9396E-03
              70             954     72.4035E-03     72.3918E-03
              70             955     74.5597E-03     74.6136E-03
              70             969     93.4941E-03     89.9396E-03
              70             970     98.1900E-03     93.9334E-03
              71             955     74.5597E-03     74.6136E-03
              71             956     76.7439E-03     76.8302E-03
              71             970     98.1900E-03     93.9334E-03
              71             971     103.030E-03     98.1386E-03
              72             956     76.7439E-03     76.8302E-03
              72             957     78.9840E-03     79.0217E-03
              72             971     103.030E-03     98.1386E-03
              72             972     107.782E-03     102.274E-03
              73             957     78.9840E-03     79.0217E-03
              73             958     80.8905E-03     80.8701E-03
              73             972     107.782E-03     102.274E-03
              73             973     112.139E-03     105.919E-03
              74             958     80.8905E-03     80.8701E-03
              74             959     82.5816E-03     82.2851E-03
              74             973     112.139E-03     105.919E-03
              74             974     115.604E-03     108.624E-03
              75             959     82.5816E-03     82.2851E-03
              75             960     83.2774E-03     82.6627E-03
              75             974     115.604E-03     108.624E-03
              75             975     117.591E-03     109.685E-03
              76             960     83.2774E-03     82.6627E-03
              76             961     83.2987E-03     81.8368E-03
              76             975     117.591E-03     109.685E-03
              76             976     117.049E-03     108.111E-03
              77             961     83.2987E-03     81.8368E-03
              77             962     80.0415E-03     78.1459E-03
              77             976     117.049E-03     108.111E-03
              77             977     112.549E-03     102.591E-03
              78             962     80.0415E-03     78.1459E-03
              78             963     74.5902E-03     71.9474E-03
              78             977     112.549E-03     102.591E-03
              78             978     100.413E-03     89.9472E-03
              79             963     74.5902E-03     71.9474E-03
              79             964     70.6496E-03     71.4442E-03
              79             978     100.413E-03     89.9472E-03
              79             979     78.7785E-03     70.8584E-03
              80              54     68.4840E-03     73.8748E-03
              80              55     65.9392E-03     60.4408E-03
              80             964     70.6496E-03     71.4442E-03
              80             979     78.7785E-03     70.8584E-03
              81             162     76.0762E-03     74.9090E-03
              81             163     76.7782E-03     85.1183E-03
              81             965     77.9600E-03     84.2662E-03
              81             980     75.4149E-03     76.5961E-03
              82             965     77.9600E-03     84.2662E-03
              82             966     81.1438E-03     83.0727E-03
              82             980     75.4149E-03     76.5961E-03
              82             981     76.1825E-03     78.7769E-03
              83             966     81.1438E-03     83.0727E-03
              83             967     85.1386E-03     83.8564E-03
              83             981     76.1825E-03     78.7769E-03
              83             982     79.9786E-03     80.3492E-03
              84             967     85.1386E-03     83.8564E-03
              84             968     89.1404E-03     86.5123E-03
              84             982     79.9786E-03     80.3492E-03
              84             983     84.8159E-03     83.4148E-03
              85             968     89.1404E-03     86.5123E-03
              85             969     93.4941E-03     89.9396E-03
              85             983     84.8159E-03     83.4148E-03
              85             984     90.0789E-03     87.7687E-03
              86             969     93.4941E-03     89.9396E-03
              86             970     98.1900E-03     93.9334E-03
              86             984     90.0789E-03     87.7687E-03
              86             985     95.8758E-03     92.8787E-03
              87             970     98.1900E-03     93.9334E-03
              87             971     103.030E-03     98.1386E-03
              87             985     95.8758E-03     92.8787E-03
              87             986     101.985E-03     98.5334E-03
              88             971     103.030E-03     98.1386E-03
              88             972     107.782E-03     102.274E-03
              88             986     101.985E-03     98.5334E-03
              88             987     108.260E-03     104.381E-03
              89             972     107.782E-03     102.274E-03
              89             973     112.139E-03     105.919E-03
              89             987     108.260E-03     104.381E-03
              89             988     114.309E-03     110.111E-03
              90             973     112.139E-03     105.919E-03
              90             974     115.604E-03     108.624E-03
              90             988     114.309E-03     110.111E-03
              90             989     119.689E-03     115.180E-03
              91             974     115.604E-03     108.624E-03
              91             975     117.591E-03     109.685E-03
              91             989     119.689E-03     115.180E-03
              91             990     123.591E-03     118.963E-03
              92             975     117.591E-03     109.685E-03
              92             976     117.049E-03     108.111E-03
              92             990     123.591E-03     118.963E-03
              92             991     124.643E-03     120.245E-03
              93             976     117.049E-03     108.111E-03
              93             977     112.549E-03     102.591E-03
              93             991     124.643E-03     120.245E-03
              93             992     121.218E-03     117.628E-03
              94             977     112.549E-03     102.591E-03
              94             978     100.413E-03     89.9472E-03
              94             992     121.218E-03     117.628E-03
              94             993     108.804E-03     107.788E-03
              95             978     100.413E-03     89.9472E-03
              95             979     78.7785E-03     70.8584E-03
              95             993     108.804E-03     107.788E-03
              95             994     97.6965E-03     97.2806E-03
              96              55     65.9392E-03     60.4408E-03
              96              56     95.9277E-03     94.2221E-03
              96             979     78.7785E-03     70.8584E-03
              96             994     97.6965E-03     97.2806E-03
              97             161     70.6959E-03     67.8708E-03
              97             162     76.0762E-03     74.9090E-03
              97             980     75.4149E-03     76.5961E-03
              97             995     71.3625E-03     69.3664E-03
              98             980     75.4149E-03     76.5961E-03
              98             981     76.1825E-03     78.7769E-03
              98             995     71.3625E-03     69.3664E-03
              98             996     72.9513E-03     72.8387E-03
              99             981     76.1825E-03     78.7769E-03
              99             982     79.9786E-03     80.3492E-03
              99             996     72.9513E-03     72.8387E-03
              99             997     76.0238E-03     76.5510E-03
             100             982     79.9786E-03     80.3492E-03
             100             983     84.8159E-03     83.4148E-03
             100             997     76.0238E-03     76.5510E-03
             100             998     81.0458E-03     80.6790E-03
             101             983     84.8159E-03     83.4148E-03
             101             984     90.0789E-03     87.7687E-03
             101             998     81.0458E-03     80.6790E-03
             101             999     87.0588E-03     86.0049E-03
             102             984     90.0789E-03     87.7687E-03
             102             985     95.8758E-03     92.8787E-03
             102             999     87.0588E-03     86.0049E-03
             102            1000     93.7208E-03     92.2476E-03
             103             985     95.8758E-03     92.8787E-03
             103             986     101.985E-03     98.5334E-03
             103            1000     93.7208E-03     92.2476E-03
             103            1001     100.927E-03     99.1630E-03
             104             986     101.985E-03     98.5334E-03
             104             987     108.260E-03     104.381E-03
             104            1001     100.927E-03     99.1630E-03
             104            1002     108.375E-03     106.484E-03
             105             987     108.260E-03     104.381E-03
             105             988     114.309E-03     110.111E-03
             105            1002     108.375E-03     106.484E-03
             105            1003     115.811E-03     113.869E-03
             106             988     114.309E-03     110.111E-03
             106             989     119.689E-03     115.180E-03
             106            1003     115.811E-03     113.869E-03
             106            1004     122.634E-03     120.865E-03
             107             989     119.689E-03     115.180E-03
             107             990     123.591E-03     118.963E-03
             107            1004     122.634E-03     120.865E-03
             107            1005     127.970E-03     126.636E-03
             108             990     123.591E-03     118.963E-03
             108             991     124.643E-03     120.245E-03
             108            1005     127.970E-03     126.636E-03
             108            1006     130.667E-03     130.178E-03
             109             991     124.643E-03     120.245E-03
             109             992     121.218E-03     117.628E-03
             109            1006     130.667E-03     130.178E-03
             109            1007     128.306E-03     129.592E-03
             110             992     121.218E-03     117.628E-03
             110             993     108.804E-03     107.788E-03
             110            1007     128.306E-03     129.592E-03
             110            1008     121.923E-03     124.294E-03
             111             993     108.804E-03     107.788E-03
             111             994     97.6965E-03     97.2806E-03
             111            1008     121.923E-03     124.294E-03
             111            1009     120.955E-03     121.285E-03
             112              56     95.9277E-03     94.2221E-03
             112              57     123.501E-03     121.890E-03
             112             994     97.6965E-03     97.2806E-03
             112            1009     120.955E-03     121.285E-03
             113             160     66.5608E-03     63.7032E-03
             113             161     70.6959E-03     67.8708E-03
             113             995     71.3625E-03     69.3664E-03
             113            1010     67.0350E-03     64.6544E-03
             114             995     71.3625E-03     69.3664E-03
             114             996     72.9513E-03     72.8387E-03
             114            1010     67.0350E-03     64.6544E-03
             114            1011     68.9797E-03     67.6597E-03
             115             996     72.9513E-03     72.8387E-03
             115             997     76.0238E-03     76.5510E-03
             115            1011     68.9797E-03     67.6597E-03
             115            1012     72.5472E-03     72.3707E-03
             116             997     76.0238E-03     76.5510E-03
             116             998     81.0458E-03     80.6790E-03
             116            1012     72.5472E-03     72.3707E-03
             116            1013     77.5634E-03     77.8812E-03
             117             998     81.0458E-03     80.6790E-03
             117             999     87.0588E-03     86.0049E-03
             117            1013     77.5634E-03     77.8812E-03
             117            1014     83.9967E-03     84.1602E-03
             118             999     87.0588E-03     86.0049E-03
             118            1000     93.7208E-03     92.2476E-03
             118            1014     83.9967E-03     84.1602E-03
             118            1015     91.3023E-03     91.3868E-03
             119            1000     93.7208E-03     92.2476E-03
             119            1001     100.927E-03     99.1630E-03
             119            1015     91.3023E-03     91.3868E-03
             119            1016     99.2266E-03     99.2849E-03
             120            1001     100.927E-03     99.1630E-03
             120            1002     108.375E-03     106.484E-03
             120            1016     99.2266E-03     99.2849E-03
             120            1017     107.566E-03     107.697E-03
             121            1002     108.375E-03     106.484E-03
             121            1003     115.811E-03     113.869E-03
             121            1017     107.566E-03     107.697E-03
             121            1018     115.944E-03     116.303E-03
             122            1003     115.811E-03     113.869E-03
             122            1004     122.634E-03     120.865E-03
             122            1018     115.944E-03     116.303E-03
             122            1019     123.976E-03     124.714E-03
             123            1004     122.634E-03     120.865E-03
             123            1005     127.970E-03     126.636E-03
             123            1019     123.976E-03     124.714E-03
             123            1020     130.815E-03     132.245E-03
             124            1005     127.970E-03     126.636E-03
             124            1006     130.667E-03     130.178E-03
             124            1020     130.815E-03     132.245E-03
             124            1021     135.332E-03     137.766E-03
             125            1006     130.667E-03     130.178E-03
             125            1007     128.306E-03     129.592E-03
             125            1021     135.332E-03     137.766E-03
             125            1022     136.878E-03     140.184E-03
             126            1007     128.306E-03     129.592E-03
             126            1008     121.923E-03     124.294E-03
             126            1022     136.878E-03     140.184E-03
             126            1023     137.389E-03     140.483E-03
             127            1008     121.923E-03     124.294E-03
             127            1009     120.955E-03     121.285E-03
             127            1023     137.389E-03     140.483E-03
             127            1024     142.728E-03     143.800E-03
             128              57     123.501E-03     121.890E-03
             128              58     147.563E-03     147.127E-03
             128            1009     120.955E-03     121.285E-03
             128            1024     142.728E-03     143.800E-03
             129             159     62.0200E-03     57.9078E-03
             129             160     66.5608E-03     63.7032E-03
             129            1010     67.0350E-03     64.6544E-03
             129            1025     62.7173E-03     59.5483E-03
             130            1010     67.0350E-03     64.6544E-03
             130            1011     68.9797E-03     67.6597E-03
             130            1025     62.7173E-03     59.5483E-03
             130            1026     64.8067E-03     63.3781E-03
             131            1011     68.9797E-03     67.6597E-03
             131            1012     72.5472E-03     72.3707E-03
             131            1026     64.8067E-03     63.3781E-03
             131            1027     68.5595E-03     68.4470E-03
             132            1012     72.5472E-03     72.3707E-03
             132            1013     77.5634E-03     77.8812E-03
             132            1027     68.5595E-03     68.4470E-03
             132            1028     73.9543E-03     74.7848E-03
             133            1013     77.5634E-03     77.8812E-03
             133            1014     83.9967E-03     84.1602E-03
             133            1028     73.9543E-03     74.7848E-03
             133            1029     80.5743E-03     81.9928E-03
             134            1014     83.9967E-03     84.1602E-03
             134            1015     91.3023E-03     91.3868E-03
             134            1029     80.5743E-03     81.9928E-03
             134            1030     88.2623E-03     89.8978E-03
             135            1015     91.3023E-03     91.3868E-03
             135            1016     99.2266E-03     99.2849E-03
             135            1030     88.2623E-03     89.8978E-03
             135            1031     96.6474E-03     98.5050E-03
             136            1016     99.2266E-03     99.2849E-03
             136            1017     107.566E-03     107.697E-03
             136            1031     96.6474E-03     98.5050E-03
             136            1032     105.500E-03     107.598E-03
             137            1017     107.566E-03     107.697E-03
             137            1018     115.944E-03     116.303E-03
             137            1032     105.500E-03     107.598E-03
             137            1033     114.601E-03     117.060E-03
             138            1018     115.944E-03     116.303E-03
             138            1019     123.976E-03     124.714E-03
             138            1033     114.601E-03     117.060E-03
             138            1034     123.570E-03     126.511E-03
             139            1019     123.976E-03     124.714E-03
             139            1020     130.815E-03     132.245E-03
             139            1034     123.570E-03     126.511E-03
             139            1035     132.176E-03     135.662E-03
             140            1020     130.815E-03     132.245E-03
             140            1021     135.332E-03     137.766E-03
             140            1035     132.176E-03     135.662E-03
             140            1036     139.563E-03     143.730E-03
             141            1021     135.332E-03     137.766E-03
             141            1022     136.878E-03     140.184E-03
             141            1036     139.563E-03     143.730E-03
             141            1037     145.959E-03     150.229E-03
             142            1022     136.878E-03     140.184E-03
             142            1023     137.389E-03     140.483E-03
             142            1037     145.959E-03     150.229E-03
             142            1038     152.930E-03     156.094E-03
             143            1023     137.389E-03     140.483E-03
             143            1024     142.728E-03     143.800E-03
             143            1038     152.930E-03     156.094E-03
             143            1039     163.301E-03     165.094E-03
             144              58     147.563E-03     147.127E-03
             144              59     169.879E-03     171.181E-03
             144            1024     142.728E-03     143.800E-03
             144            1039     163.301E-03     165.094E-03
             145             158     57.1647E-03     53.8623E-03
             145             159     62.0200E-03     57.9078E-03
             145            1025     62.7173E-03     59.5483E-03
             145            1040     57.8490E-03     55.1510E-03
             146            1025     62.7173E-03     59.5483E-03
             146            1026     64.8067E-03     63.3781E-03
             146            1040     57.8490E-03     55.1510E-03
             146            1041     60.1840E-03     58.9694E-03
             147            1026     64.8067E-03     63.3781E-03
             147            1027     68.5595E-03     68.4470E-03
             147            1041     60.1840E-03     58.9694E-03
             147            1042     64.2050E-03     64.7338E-03
             148            1027     68.5595E-03     68.4470E-03
             148            1028     73.9543E-03     74.7848E-03
             148            1042     64.2050E-03     64.7338E-03
             148            1043     69.7047E-03     71.6264E-03
             149            1028     73.9543E-03     74.7848E-03
             149            1029     80.5743E-03     81.9928E-03
             149            1043     69.7047E-03     71.6264E-03
             149            1044     76.6097E-03     79.3320E-03
             150            1029     80.5743E-03     81.9928E-03
             150            1030     88.2623E-03     89.8978E-03
             150            1044     76.6097E-03     79.3320E-03
             150            1045     84.4865E-03     87.7193E-03
             151            1030     88.2623E-03     89.8978E-03
             151            1031     96.6474E-03     98.5050E-03
             151            1045     84.4865E-03     87.7193E-03
             151            1046     93.1093E-03     96.6932E-03
             152            1031     96.6474E-03     98.5050E-03
             152            1032     105.500E-03     107.598E-03
             152            1046     93.1093E-03     96.6932E-03
             152            1047     102.234E-03     106.196E-03
             153            1032     105.500E-03     107.598E-03
             153            1033     114.601E-03     117.060E-03
             153            1047     102.234E-03     106.196E-03
             153            1048     111.762E-03     116.083E-03
             154            1033     114.601E-03     117.060E-03
             154            1034     123.570E-03     126.511E-03
             154            1048     111.762E-03     116.083E-03
             154            1049     121.624E-03     126.395E-03
             155            1034     123.570E-03     126.511E-03
             155            1035     132.176E-03     135.662E-03
             155            1049     121.624E-03     126.395E-03
             155            1050     131.681E-03     136.859E-03
             156            1035     132.176E-03     135.662E-03
             156            1036     139.563E-03     143.730E-03
             156            1050     131.681E-03     136.859E-03
             156            1051     142.745E-03     147.852E-03
             157            1036     139.563E-03     143.730E-03
             157            1037     145.959E-03     150.229E-03
             157            1051     142.745E-03     147.852E-03
             157            1052     154.427E-03     159.242E-03
             158            1037     145.959E-03     150.229E-03
             158            1038     152.930E-03     156.094E-03
             158            1052     154.427E-03     159.242E-03
             158            1053     167.427E-03     171.327E-03
             159            1038     152.930E-03     156.094E-03
             159            1039     163.301E-03     165.094E-03
             159            1053     167.427E-03     171.327E-03
             159            1054     184.147E-03     185.631E-03
             160              59     169.879E-03     171.181E-03
             160              60     193.605E-03     193.418E-03
             160            1039     163.301E-03     165.094E-03
             160            1054     184.147E-03     185.631E-03
             161             157     51.9126E-03     48.5306E-03
             161             158     57.1647E-03     53.8623E-03
             161            1040     57.8490E-03     55.1510E-03
             161            1055     52.7382E-03     50.3064E-03
             162            1040     57.8490E-03     55.1510E-03
             162            1041     60.1840E-03     58.9694E-03
             162            1055     52.7382E-03     50.3064E-03
             162            1056     55.0588E-03     54.9225E-03
             163            1041     60.1840E-03     58.9694E-03
             163            1042     64.2050E-03     64.7338E-03
             163            1056     55.0588E-03     54.9225E-03
             163            1057     59.0499E-03     61.1688E-03
             164            1042     64.2050E-03     64.7338E-03
             164            1043     69.7047E-03     71.6264E-03
             164            1057     59.0499E-03     61.1688E-03
             164            1058     64.8856E-03     68.3433E-03
             165            1043     69.7047E-03     71.6264E-03
             165            1044     76.6097E-03     79.3320E-03
             165            1058     64.8856E-03     68.3433E-03
             165            1059     72.0096E-03     76.2814E-03
             166            1044     76.6097E-03     79.3320E-03
             166            1045     84.4865E-03     87.7193E-03
             166            1059     72.0096E-03     76.2814E-03
             166            1060     80.0451E-03     84.9185E-03
             167            1045     84.4865E-03     87.7193E-03
             167            1046     93.1093E-03     96.6932E-03
             167            1060     80.0451E-03     84.9185E-03
             167            1061     88.7321E-03     94.0497E-03
             168            1046     93.1093E-03     96.6932E-03
             168            1047     102.234E-03     106.196E-03
             168            1061     88.7321E-03     94.0497E-03
             168            1062     97.9965E-03     103.655E-03
             169            1047     102.234E-03     106.196E-03
             169            1048     111.762E-03     116.083E-03
             169            1062     97.9965E-03     103.655E-03
             169            1063     107.727E-03     113.767E-03
             170            1048     111.762E-03     116.083E-03
             170            1049     121.624E-03     126.395E-03
             170            1063     107.727E-03     113.767E-03
             170            1064     118.147E-03     124.443E-03
             171            1049     121.624E-03     126.395E-03
             171            1050     131.681E-03     136.859E-03
             171            1064     118.147E-03     124.443E-03
             171            1065     129.605E-03     136.136E-03
             172            1050     131.681E-03     136.859E-03
             172            1051     142.745E-03     147.852E-03
             172            1065     129.605E-03     136.136E-03
             172            1066     142.788E-03     149.179E-03
             173            1051     142.745E-03     147.852E-03
             173            1052     154.427E-03     159.242E-03
             173            1066     142.788E-03     149.179E-03
             173            1067     160.398E-03     165.522E-03
             174            1052     154.427E-03     159.242E-03
             174            1053     167.427E-03     171.327E-03
             174            1067     160.398E-03     165.522E-03
             174            1068     181.520E-03     185.095E-03
             175            1053     167.427E-03     171.327E-03
             175            1054     184.147E-03     185.631E-03
             175            1068     181.520E-03     185.095E-03
             175            1069     203.924E-03     207.558E-03
             176              60     193.605E-03     193.418E-03
             176              61     215.572E-03     219.934E-03
             176            1054     184.147E-03     185.631E-03
             176            1069     203.924E-03     207.558E-03
             177             156     46.5532E-03     44.0398E-03
             177             157     51.9126E-03     48.5306E-03
             177            1055     52.7382E-03     50.3064E-03
             177            1070     46.7999E-03     46.2993E-03
             178            1055     52.7382E-03     50.3064E-03
             178            1056     55.0588E-03     54.9225E-03
             178            1070     46.7999E-03     46.2993E-03
             178            1071     48.7230E-03     51.4503E-03
             179            1056     55.0588E-03     54.9225E-03
             179            1057     59.0499E-03     61.1688E-03
             179            1071     48.7230E-03     51.4503E-03
             179            1072     53.2840E-03     57.6153E-03
             180            1057     59.0499E-03     61.1688E-03
             180            1058     64.8856E-03     68.3433E-03
             180            1072     53.2840E-03     57.6153E-03
             180            1073     59.5873E-03     64.8286E-03
             181            1058     64.8856E-03     68.3433E-03
             181            1059     72.0096E-03     76.2814E-03
             181            1073     59.5873E-03     64.8286E-03
             181            1074     66.9328E-03     73.0209E-03
             182            1059     72.0096E-03     76.2814E-03
             182            1060     80.0451E-03     84.9185E-03
             182            1074     66.9328E-03     73.0209E-03
             182            1075     75.0800E-03     81.7211E-03
             183            1060     80.0451E-03     84.9185E-03
             183            1061     88.7321E-03     94.0497E-03
             183            1075     75.0800E-03     81.7211E-03
             183            1076     83.8524E-03     90.9040E-03
             184            1061     88.7321E-03     94.0497E-03
             184            1062     97.9965E-03     103.655E-03
             184            1076     83.8524E-03     90.9040E-03
             184            1077     93.1066E-03     100.463E-03
             185            1062     97.9965E-03     103.655E-03
             185            1063     107.727E-03     113.767E-03
             185            1077     93.1066E-03     100.463E-03
             185            1078     102.999E-03     110.544E-03
             186            1063     107.727E-03     113.767E-03
             186            1064     118.147E-03     124.443E-03
             186            1078     102.999E-03     110.544E-03
             186            1079     113.639E-03     121.355E-03
             187            1064     118.147E-03     124.443E-03
             187            1065     129.605E-03     136.136E-03
             187            1079     113.639E-03     121.355E-03
             187            1080     125.840E-03     133.509E-03
             188            1065     129.605E-03     136.136E-03
             188            1066     142.788E-03     149.179E-03
             188            1080     125.840E-03     133.509E-03
             188            1081     140.454E-03     148.040E-03
             189            1066     142.788E-03     149.179E-03
             189            1067     160.398E-03     165.522E-03
             189            1081     140.454E-03     148.040E-03
             189            1082     159.844E-03     166.765E-03
             190            1067     160.398E-03     165.522E-03
             190            1068     181.520E-03     185.095E-03
             190            1082     159.844E-03     166.765E-03
             190            1083     190.166E-03     194.504E-03
             191            1068     181.520E-03     185.095E-03
             191            1069     203.924E-03     207.558E-03
             191            1083     190.166E-03     194.504E-03
             191            1084     226.123E-03     226.588E-03
             192              61     215.572E-03     219.934E-03
             192              62     243.284E-03     241.730E-03
             192            1069     203.924E-03     207.558E-03
             192            1084     226.123E-03     226.588E-03
             193             155     38.2926E-03     41.1732E-03
             193             156     46.5532E-03     44.0398E-03
             193            1070     46.7999E-03     46.2993E-03
             193            1085     38.9654E-03     43.1350E-03
             194            1070     46.7999E-03     46.2993E-03
             194            1071     48.7230E-03     51.4503E-03
             194            1085     38.9654E-03     43.1350E-03
             194            1086     41.9806E-03     47.6017E-03
             195            1071     48.7230E-03     51.4503E-03
             195            1072     53.2840E-03     57.6153E-03
             195            1086     41.9806E-03     47.6017E-03
             195            1087     47.3391E-03     53.6821E-03
             196            1072     53.2840E-03     57.6153E-03
             196            1073     59.5873E-03     64.8286E-03
             196            1087     47.3391E-03     53.6821E-03
             196            1088     53.9502E-03     61.3040E-03
             197            1073     59.5873E-03     64.8286E-03
             197            1074     66.9328E-03     73.0209E-03
             197            1088     53.9502E-03     61.3040E-03
             197            1089     61.5608E-03     69.6338E-03
             198            1074     66.9328E-03     73.0209E-03
             198            1075     75.0800E-03     81.7211E-03
             198            1089     61.5608E-03     69.6338E-03
             198            1090     69.8849E-03     78.4932E-03
             199            1075     75.0800E-03     81.7211E-03
             199            1076     83.8524E-03     90.9040E-03
             199            1090     69.8849E-03     78.4932E-03
             199            1091     78.7417E-03     87.6616E-03
             200            1076     83.8524E-03     90.9040E-03
             200            1077     93.1066E-03     100.463E-03
             200            1091     78.7417E-03     87.6616E-03
             200            1092     88.1251E-03     97.2029E-03
             201            1077     93.1066E-03     100.463E-03
             201            1078     102.999E-03     110.544E-03
             201            1092     88.1251E-03     97.2029E-03
             201            1093     98.0715E-03     107.129E-03
             202            1078     102.999E-03     110.544E-03
             202            1079     113.639E-03     121.355E-03
             202            1093     98.0715E-03     107.129E-03
             202            1094     109.002E-03     117.933E-03
             203            1079     113.639E-03     121.355E-03
             203            1080     125.840E-03     133.509E-03
             203            1094     109.002E-03     117.933E-03
             203            1095     121.315E-03     129.990E-03
             204            1080     125.840E-03     133.509E-03
             204            1081     140.454E-03     148.040E-03
             204            1095     121.315E-03     129.990E-03
             204            1096     136.595E-03     145.007E-03
             205            1081     140.454E-03     148.040E-03
             205            1082     159.844E-03     166.765E-03
             205            1096     136.595E-03     145.007E-03
             205            1097     155.972E-03     164.341E-03
             206            1082     159.844E-03     166.765E-03
             206            1083     190.166E-03     194.504E-03
             206            1097     155.972E-03     164.341E-03
             206            1098     185.914E-03     194.747E-03
             207            1083     190.166E-03     194.504E-03
             207            1084     226.123E-03     226.588E-03
             207            1098     185.914E-03     194.747E-03
             207            1099     236.983E-03     244.090E-03
             208              62     243.284E-03     241.730E-03
             208              63     268.700E-03     273.574E-03
             208            1084     226.123E-03     226.588E-03
             208            1099     236.983E-03     244.090E-03
             209             154     67.1801E-03     80.4128E-03
             209             155     38.2926E-03     41.1732E-03
             209            1085     38.9654E-03     43.1350E-03
             209            1100     71.9422E-03     80.4757E-03
             210            1085     38.9654E-03     43.1350E-03
             210            1086     41.9806E-03     47.6017E-03
             210            1100     71.9422E-03     80.4757E-03
             210            1101     79.7553E-03     82.7048E-03
             211            1086     41.9806E-03     47.6017E-03
             211            1087     47.3391E-03     53.6821E-03
             211            1101     79.7553E-03     82.7048E-03
             211            1102     86.8131E-03     89.1616E-03
             212            1087     47.3391E-03     53.6821E-03
             212            1088     53.9502E-03     61.3040E-03
             212            1102     86.8131E-03     89.1616E-03
             212            1103     95.4769E-03     98.0423E-03
             213            1088     53.9502E-03     61.3040E-03
             213            1089     61.5608E-03     69.6338E-03
             213            1103     95.4769E-03     98.0423E-03
             213            1104     105.286E-03     107.924E-03
             214            1089     61.5608E-03     69.6338E-03
             214            1090     69.8849E-03     78.4932E-03
             214            1104     105.286E-03     107.924E-03
             214            1105     115.950E-03     118.630E-03
             215            1090     69.8849E-03     78.4932E-03
             215            1091     78.7417E-03     87.6616E-03
             215            1105     115.950E-03     118.630E-03
             215            1106     127.189E-03     129.637E-03
             216            1091     78.7417E-03     87.6616E-03
             216            1092     88.1251E-03     97.2029E-03
             216            1106     127.189E-03     129.637E-03
             216            1107     138.746E-03     140.810E-03
             217            1092     88.1251E-03     97.2029E-03
             217            1093     98.0715E-03     107.129E-03
             217            1107     138.746E-03     140.810E-03
             217            1108     150.493E-03     151.845E-03
             218            1093     98.0715E-03     107.129E-03
             218            1094     109.002E-03     117.933E-03
             218            1108     150.493E-03     151.845E-03
             218            1109     162.328E-03     162.789E-03
             219            1094     109.002E-03     117.933E-03
             219            1095     121.315E-03     129.990E-03
             219            1109     162.328E-03     162.789E-03
             219            1110     174.352E-03     173.519E-03
             220            1095     121.315E-03     129.990E-03
             220            1096     136.595E-03     145.007E-03
             220            1110     174.352E-03     173.519E-03
             220            1111     186.621E-03     184.451E-03
             221            1096     136.595E-03     145.007E-03
             221            1097     155.972E-03     164.341E-03
             221            1111     186.621E-03     184.451E-03
             221            1112     199.930E-03     196.260E-03
             222            1097     155.972E-03     164.341E-03
             222            1098     185.914E-03     194.747E-03
             222            1112     199.930E-03     196.260E-03
             222            1113     214.346E-03     210.077E-03
             223            1098     185.914E-03     194.747E-03
             223            1099     236.983E-03     244.090E-03
             223            1113     214.346E-03     210.077E-03
             223            1114     235.719E-03     236.153E-03
             224              63     268.700E-03     273.574E-03
             224              64     249.823E-03     254.526E-03
             224            1099     236.983E-03     244.090E-03
             224            1114     235.719E-03     236.153E-03
             225             153     102.727E-03     115.576E-03
             225             154     67.1801E-03     80.4128E-03
             225            1100     71.9422E-03     80.4757E-03
             225            1115     105.801E-03     115.166E-03
             226            1100     71.9422E-03     80.4757E-03
             226            1101     79.7553E-03     82.7048E-03
             226            1115     105.801E-03     115.166E-03
             226            1116     113.753E-03     116.654E-03
             227            1101     79.7553E-03     82.7048E-03
             227            1102     86.8131E-03     89.1616E-03
             227            1116     113.753E-03     116.654E-03
             227            1117     124.231E-03     123.205E-03
             228            1102     86.8131E-03     89.1616E-03
             228            1103     95.4769E-03     98.0423E-03
             228            1117     124.231E-03     123.205E-03
             228            1118     136.001E-03     133.636E-03
             229            1103     95.4769E-03     98.0423E-03
             229            1104     105.286E-03     107.924E-03
             229            1118     136.001E-03     133.636E-03
             229            1119     149.099E-03     146.011E-03
             230            1104     105.286E-03     107.924E-03
             230            1105     115.950E-03     118.630E-03
             230            1119     149.099E-03     146.011E-03
             230            1120     163.298E-03     159.619E-03
             231            1105     115.950E-03     118.630E-03
             231            1106     127.189E-03     129.637E-03
             231            1120     163.298E-03     159.619E-03
             231            1121     178.077E-03     173.844E-03
             232            1106     127.189E-03     129.637E-03
             232            1107     138.746E-03     140.810E-03
             232            1121     178.077E-03     173.844E-03
             232            1122     193.124E-03     188.143E-03
             233            1107     138.746E-03     140.810E-03
             233            1108     150.493E-03     151.845E-03
             233            1122     193.124E-03     188.143E-03
             233            1123     207.946E-03     202.098E-03
             234            1108     150.493E-03     151.845E-03
             234            1109     162.328E-03     162.789E-03
             234            1123     207.946E-03     202.098E-03
             234            1124     222.088E-03     215.138E-03
             235            1109     162.328E-03     162.789E-03
             235            1110     174.352E-03     173.519E-03
             235            1124     222.088E-03     215.138E-03
             235            1125     234.978E-03     226.753E-03
             236            1110     174.352E-03     173.519E-03
             236            1111     186.621E-03     184.451E-03
             236            1125     234.978E-03     226.753E-03
             236            1126     245.716E-03     236.191E-03
             237            1111     186.621E-03     184.451E-03
             237            1112     199.930E-03     196.260E-03
             237            1126     245.716E-03     236.191E-03
             237            1127     253.230E-03     242.509E-03
             238            1112     199.930E-03     196.260E-03
             238            1113     214.346E-03     210.077E-03
             238            1127     253.230E-03     242.509E-03
             238            1128     254.753E-03     244.071E-03
             239            1113     214.346E-03     210.077E-03
             239            1114     235.719E-03     236.153E-03
             239            1128     254.753E-03     244.071E-03
             239            1129     247.419E-03     236.821E-03
             240              64     249.823E-03     254.526E-03
             240              65     241.366E-03     230.334E-03
             240            1114     235.719E-03     236.153E-03
             240            1129     247.419E-03     236.821E-03
             241             152     97.4421E-03     98.1471E-03
             241             153     102.727E-03     115.576E-03
             241            1115     105.801E-03     115.166E-03
             241            1130     97.9648E-03     101.901E-03
             242            1115     105.801E-03     115.166E-03
             242            1116     113.753E-03     116.654E-03
             242            1130     97.9648E-03     101.901E-03
             242            1131     103.328E-03     108.659E-03
             243            1116     113.753E-03     116.654E-03
             243            1117     124.231E-03     123.205E-03
             243            1131     103.328E-03     108.659E-03
             243            1132     114.921E-03     116.750E-03
             244            1117     124.231E-03     123.205E-03
             244            1118     136.001E-03     133.636E-03
             244            1132     114.921E-03     116.750E-03
             244            1133     129.008E-03     128.619E-03
             245            1118     136.001E-03     133.636E-03
             245            1119     149.099E-03     146.011E-03
             245            1133     129.008E-03     128.619E-03
             245            1134     144.441E-03     143.028E-03
             246            1119     149.099E-03     146.011E-03
             246            1120     163.298E-03     159.619E-03
             246            1134     144.441E-03     143.028E-03
             246            1135     160.972E-03     158.920E-03
             247            1120     163.298E-03     159.619E-03
             247            1121     178.077E-03     173.844E-03
             247            1135     160.972E-03     158.920E-03
             247            1136     178.180E-03     175.702E-03
             248            1121     178.077E-03     173.844E-03
             248            1122     193.124E-03     188.143E-03
             248            1136     178.180E-03     175.702E-03
             248            1137     195.679E-03     192.869E-03
             249            1122     193.124E-03     188.143E-03
             249            1123     207.946E-03     202.098E-03
             249            1137     195.679E-03     192.869E-03
             249            1138     213.072E-03     209.952E-03
             250            1123     207.946E-03     202.098E-03
             250            1124     222.088E-03     215.138E-03
             250            1138     213.072E-03     209.952E-03
             250            1139     229.808E-03     226.509E-03
             251            1124     222.088E-03     215.138E-03
             251            1125     234.978E-03     226.753E-03
             251            1139     229.808E-03     226.509E-03
             251            1140     245.157E-03     241.905E-03
             252            1125     234.978E-03     226.753E-03
             252            1126     245.716E-03     236.191E-03
             252            1140     245.157E-03     241.905E-03
             252            1141     258.142E-03     255.370E-03
             253            1126     245.716E-03     236.191E-03
             253            1127     253.230E-03     242.509E-03
             253            1141     258.142E-03     255.370E-03
             253            1142     267.177E-03     265.870E-03
             254            1127     253.230E-03     242.509E-03
             254            1128     254.753E-03     244.071E-03
             254            1142     267.177E-03     265.870E-03
             254            1143     270.061E-03     271.002E-03
             255            1128     254.753E-03     244.071E-03
             255            1129     247.419E-03     236.821E-03
             255            1143     270.061E-03     271.002E-03
             255            1144     271.143E-03     271.701E-03
             256              65     241.366E-03     230.334E-03
             256              66     272.670E-03     271.578E-03
             256            1129     247.419E-03     236.821E-03
             256            1144     271.143E-03     271.701E-03
             257             151     86.4388E-03     85.1479E-03
             257             152     97.4421E-03     98.1471E-03
             257            1130     97.9648E-03     101.901E-03
             257            1145     88.9655E-03     89.1554E-03
             258            1130     97.9648E-03     101.901E-03
             258            1131     103.328E-03     108.659E-03
             258            1145     88.9655E-03     89.1554E-03
             258            1146     96.0213E-03     98.8741E-03
             259            1131     103.328E-03     108.659E-03
             259            1132     114.921E-03     116.750E-03
             259            1146     96.0213E-03     98.8741E-03
             259            1147     107.673E-03     110.771E-03
             260            1132     114.921E-03     116.750E-03
             260            1133     129.008E-03     128.619E-03
             260            1147     107.673E-03     110.771E-03
             260            1148     123.234E-03     124.702E-03
             261            1133     129.008E-03     128.619E-03
             261            1134     144.441E-03     143.028E-03
             261            1148     123.234E-03     124.702E-03
             261            1149     140.619E-03     141.117E-03
             262            1134     144.441E-03     143.028E-03
             262            1135     160.972E-03     158.920E-03
             262            1149     140.619E-03     141.117E-03
             262            1150     159.099E-03     159.077E-03
             263            1135     160.972E-03     158.920E-03
             263            1136     178.180E-03     175.702E-03
             263            1150     159.099E-03     159.077E-03
             263            1151     178.280E-03     178.042E-03
             264            1136     178.180E-03     175.702E-03
             264            1137     195.679E-03     192.869E-03
             264            1151     178.280E-03     178.042E-03
             264            1152     197.805E-03     197.551E-03
             265            1137     195.679E-03     192.869E-03
             265            1138     213.072E-03     209.952E-03
             265            1152     197.805E-03     197.551E-03
             265            1153     217.232E-03     217.203E-03
             266            1138     213.072E-03     209.952E-03
             266            1139     229.808E-03     226.509E-03
             266            1153     217.232E-03     217.203E-03
             266            1154     236.069E-03     236.492E-03
             267            1139     229.808E-03     226.509E-03
             267            1140     245.157E-03     241.905E-03
             267            1154     236.069E-03     236.492E-03
             267            1155     253.538E-03     254.795E-03
             268            1140     245.157E-03     241.905E-03
             268            1141     258.142E-03     255.370E-03
             268            1155     253.538E-03     254.795E-03
             268            1156     268.556E-03     271.199E-03
             269            1141     258.142E-03     255.370E-03
             269            1142     267.177E-03     265.870E-03
             269            1156     268.556E-03     271.199E-03
             269            1157     279.963E-03     284.247E-03
             270            1142     267.177E-03     265.870E-03
             270            1143     270.061E-03     271.002E-03
             270            1157     279.963E-03     284.247E-03
             270            1158     287.653E-03     292.774E-03
             271            1143     270.061E-03     271.002E-03
             271            1144     271.143E-03     271.701E-03
             271            1158     287.653E-03     292.774E-03
             271            1159     296.845E-03     299.237E-03
             272              66     272.670E-03     271.578E-03
             272              67     302.921E-03     302.647E-03
             272            1144     271.143E-03     271.701E-03
             272            1159     296.845E-03     299.237E-03
             273             150     77.7088E-03     76.4859E-03
             273             151     86.4388E-03     85.1479E-03
             273            1145     88.9655E-03     89.1554E-03
             273            1160     80.2939E-03     80.1141E-03
             274            1145     88.9655E-03     89.1554E-03
             274            1146     96.0213E-03     98.8741E-03
             274            1160     80.2939E-03     80.1141E-03
             274            1161     88.5127E-03     90.2144E-03
             275            1146     96.0213E-03     98.8741E-03
             275            1147     107.673E-03     110.771E-03
             275            1161     88.5127E-03     90.2144E-03
             275            1162     101.676E-03     104.572E-03
             276            1147     107.673E-03     110.771E-03
             276            1148     123.234E-03     124.702E-03
             276            1162     101.676E-03     104.572E-03
             276            1163     118.201E-03     121.078E-03
             277            1148     123.234E-03     124.702E-03
             277            1149     140.619E-03     141.117E-03
             277            1163     118.201E-03     121.078E-03
             277            1164     136.990E-03     139.295E-03
             278            1149     140.619E-03     141.117E-03
             278            1150     159.099E-03     159.077E-03
             278            1164     136.990E-03     139.295E-03
             278            1165     156.930E-03     158.999E-03
             279            1150     159.099E-03     159.077E-03
             279            1151     178.280E-03     178.042E-03
             279            1165     156.930E-03     158.999E-03
             279            1166     177.598E-03     179.660E-03
             280            1151     178.280E-03     178.042E-03
             280            1152     197.805E-03     197.551E-03
             280            1166     177.598E-03     179.660E-03
             280            1167     198.602E-03     200.948E-03
             281            1152     197.805E-03     197.551E-03
             281            1153     217.232E-03     217.203E-03
             281            1167     198.602E-03     200.948E-03
             281            1168     219.672E-03     222.513E-03
             282            1153     217.232E-03     217.203E-03
             282            1154     236.069E-03     236.492E-03
             282            1168     219.672E-03     222.513E-03
             282            1169     240.249E-03     243.919E-03
             283            1154     236.069E-03     236.492E-03
             283            1155     253.538E-03     254.795E-03
             283            1169     240.249E-03     243.919E-03
             283            1170     259.750E-03     264.488E-03
             284            1155     253.538E-03     254.795E-03
             284            1156     268.556E-03     271.199E-03
             284            1170     259.750E-03     264.488E-03
             284            1171     277.336E-03     283.259E-03
             285            1156     268.556E-03     271.199E-03
             285            1157     279.963E-03     284.247E-03
             285            1171     277.336E-03     283.259E-03
             285            1172     292.187E-03     299.025E-03
             286            1157     279.963E-03     284.247E-03
             286            1158     287.653E-03     292.774E-03
             286            1172     292.187E-03     299.025E-03
             286            1173     305.775E-03     311.474E-03
             287            1158     287.653E-03     292.774E-03
             287            1159     296.845E-03     299.237E-03
             287            1173     305.775E-03     311.474E-03
             287            1174     320.095E-03     322.664E-03
             288              67     302.921E-03     302.647E-03
             288              68     327.602E-03     328.394E-03
             288            1159     296.845E-03     299.237E-03
             288            1174     320.095E-03     322.664E-03
             289             149     68.7259E-03     65.9966E-03
             289             150     77.7088E-03     76.4859E-03
             289            1160     80.2939E-03     80.1141E-03
             289            1175     71.8933E-03     70.9615E-03
             290            1160     80.2939E-03     80.1141E-03
             290            1161     88.5127E-03     90.2144E-03
             290            1175     71.8933E-03     70.9615E-03
             290            1176     81.2027E-03     82.9490E-03
             291            1161     88.5127E-03     90.2144E-03
             291            1162     101.676E-03     104.572E-03
             291            1176     81.2027E-03     82.9490E-03
             291            1177     95.6183E-03     98.7218E-03
             292            1162     101.676E-03     104.572E-03
             292            1163     118.201E-03     121.078E-03
             292            1177     95.6183E-03     98.7218E-03
             292            1178     113.347E-03     117.122E-03
             293            1163     118.201E-03     121.078E-03
             293            1164     136.990E-03     139.295E-03
             293            1178     113.347E-03     117.122E-03
             293            1179     133.054E-03     136.977E-03
             294            1164     136.990E-03     139.295E-03
             294            1165     156.930E-03     158.999E-03
             294            1179     133.054E-03     136.977E-03
             294            1180     154.010E-03     157.973E-03
             295            1165     156.930E-03     158.999E-03
             295            1166     177.598E-03     179.660E-03
             295            1180     154.010E-03     157.973E-03
             295            1181     175.642E-03     179.849E-03
             296            1166     177.598E-03     179.660E-03
             296            1167     198.602E-03     200.948E-03
             296            1181     175.642E-03     179.849E-03
             296            1182     197.741E-03     202.375E-03
             297            1167     198.602E-03     200.948E-03
             297            1168     219.672E-03     222.513E-03
             297            1182     197.741E-03     202.375E-03
             297            1183     219.960E-03     225.283E-03
             298            1168     219.672E-03     222.513E-03
             298            1169     240.249E-03     243.919E-03
             298            1183     219.960E-03     225.283E-03
             298            1184     242.182E-03     248.310E-03
             299            1169     240.249E-03     243.919E-03
             299            1170     259.750E-03     264.488E-03
             299            1184     242.182E-03     248.310E-03
             299            1185     263.807E-03     270.920E-03
             300            1170     259.750E-03     264.488E-03
             300            1171     277.336E-03     283.259E-03
             300            1185     263.807E-03     270.920E-03
             300            1186     284.405E-03     292.214E-03
             301            1171     277.336E-03     283.259E-03
             301            1172     292.187E-03     299.025E-03
             301            1186     284.405E-03     292.214E-03
             301            1187     303.889E-03     311.388E-03
             302            1172     292.187E-03     299.025E-03
             302            1173     305.775E-03     311.474E-03
             302            1187     303.889E-03     311.388E-03
             302            1188     322.182E-03     328.339E-03
             303            1173     305.775E-03     311.474E-03
             303            1174     320.095E-03     322.664E-03
             303            1188     322.182E-03     328.339E-03
             303            1189     341.489E-03     344.471E-03
             304              68     327.602E-03     328.394E-03
             304              69     351.837E-03     352.583E-03
             304            1174     320.095E-03     322.664E-03
             304            1189     341.489E-03     344.471E-03
             305             148     59.5277E-03     57.5939E-03
             305             149     68.7259E-03     65.9966E-03
             305            1175     71.8933E-03     70.9615E-03
             305            1190     63.2322E-03     62.5776E-03
             306            1175     71.8933E-03     70.9615E-03
             306            1176     81.2027E-03     82.9490E-03
             306            1190     63.2322E-03     62.5776E-03
             306            1191     73.7851E-03     75.7115E-03
             307            1176     81.2027E-03     82.9490E-03
             307            1177     95.6183E-03     98.7218E-03
             307            1191     73.7851E-03     75.7115E-03
             307            1192     89.3874E-03     93.2111E-03
             308            1177     95.6183E-03     98.7218E-03
             308            1178     113.347E-03     117.122E-03
             308            1192     89.3874E-03     93.2111E-03
             308            1193     108.078E-03     112.819E-03
             309            1178     113.347E-03     117.122E-03
             309            1179     133.054E-03     136.977E-03
             309            1193     108.078E-03     112.819E-03
             309            1194     128.548E-03     133.842E-03
             310            1179     133.054E-03     136.977E-03
             310            1180     154.010E-03     157.973E-03
             310            1194     128.548E-03     133.842E-03
             310            1195     150.077E-03     155.723E-03
             311            1180     154.010E-03     157.973E-03
             311            1181     175.642E-03     179.849E-03
             311            1195     150.077E-03     155.723E-03
             311            1196     172.321E-03     178.353E-03
             312            1181     175.642E-03     179.849E-03
             312            1182     197.741E-03     202.375E-03
             312            1196     172.321E-03     178.353E-03
             312            1197     195.021E-03     201.572E-03
             313            1182     197.741E-03     202.375E-03
             313            1183     219.960E-03     225.283E-03
             313            1197     195.021E-03     201.572E-03
             313            1198     218.171E-03     225.376E-03
             314            1183     219.960E-03     225.283E-03
             314            1184     242.182E-03     248.310E-03
             314            1198     218.171E-03     225.376E-03
             314            1199     241.564E-03     249.553E-03
             315            1184     242.182E-03     248.310E-03
             315            1185     263.807E-03     270.920E-03
             315            1199     241.564E-03     249.553E-03
             315            1200     265.520E-03     274.044E-03
             316            1185     263.807E-03     270.920E-03
             316            1186     284.405E-03     292.214E-03
             316            1200     265.520E-03     274.044E-03
             316            1201     289.582E-03     298.395E-03
             317            1186     284.405E-03     292.214E-03
             317            1187     303.889E-03     311.388E-03
             317            1201     289.582E-03     298.395E-03
             317            1202     313.594E-03     321.774E-03
             318            1187     303.889E-03     311.388E-03
             318            1188     322.182E-03     328.339E-03
             318            1202     313.594E-03     321.774E-03
             318            1203     337.742E-03     343.680E-03
             319            1188     322.182E-03     328.339E-03
             319            1189     341.489E-03     344.471E-03
             319            1203     337.742E-03     343.680E-03
             319            1204     361.355E-03     365.268E-03
             320              69     351.837E-03     352.583E-03
             320              70     373.030E-03     376.391E-03
             320            1189     341.489E-03     344.471E-03
             320            1204     361.355E-03     365.268E-03
             321             147     50.2046E-03     47.8937E-03
             321             148     59.5277E-03     57.5939E-03
             321            1190     63.2322E-03     62.5776E-03
             321            1205     54.3408E-03     54.0775E-03
             322            1190     63.2322E-03     62.5776E-03
             322            1191     73.7851E-03     75.7115E-03
             322            1205     54.3408E-03     54.0775E-03
             322            1206     66.0083E-03     68.8639E-03
             323            1191     73.7851E-03     75.7115E-03
             323            1192     89.3874E-03     93.2111E-03
             323            1206     66.0083E-03     68.8639E-03
             323            1207     82.8370E-03     87.5681E-03
             324            1192     89.3874E-03     93.2111E-03
             324            1193     108.078E-03     112.819E-03
             324            1207     82.8370E-03     87.5681E-03
             324            1208     102.319E-03     108.275E-03
             325            1193     108.078E-03     112.819E-03
             325            1194     128.548E-03     133.842E-03
             325            1208     102.319E-03     108.275E-03
             325            1209     123.303E-03     129.932E-03
             326            1194     128.548E-03     133.842E-03
             326            1195     150.077E-03     155.723E-03
             326            1209     123.303E-03     129.932E-03
             326            1210     145.173E-03     152.311E-03
             327            1195     150.077E-03     155.723E-03
             327            1196     172.321E-03     178.353E-03
             327            1210     145.173E-03     152.311E-03
             327            1211     167.660E-03     175.218E-03
             328            1196     172.321E-03     178.353E-03
             328            1197     195.021E-03     201.572E-03
             328            1211     167.660E-03     175.218E-03
             328            1212     190.671E-03     198.731E-03
             329            1197     195.021E-03     201.572E-03
             329            1198     218.171E-03     225.376E-03
             329            1212     190.671E-03     198.731E-03
             329            1213     214.241E-03     222.833E-03
             330            1198     218.171E-03     225.376E-03
             330            1199     241.564E-03     249.553E-03
             330            1213     214.241E-03     222.833E-03
             330            1214     238.665E-03     247.814E-03
             331            1199     241.564E-03     249.553E-03
             331            1200     265.520E-03     274.044E-03
             331            1214     238.665E-03     247.814E-03
             331            1215     264.080E-03     273.677E-03
             332            1200     265.520E-03     274.044E-03
             332            1201     289.582E-03     298.395E-03
             332            1215     264.080E-03     273.677E-03
             332            1216     291.818E-03     301.050E-03
             333            1201     289.582E-03     298.395E-03
             333            1202     313.594E-03     321.774E-03
             333            1216     291.818E-03     301.050E-03
             333            1217     321.178E-03     329.620E-03
             334            1202     313.594E-03     321.774E-03
             334            1203     337.742E-03     343.680E-03
             334            1217     321.178E-03     329.620E-03
             334            1218     351.075E-03     358.109E-03
             335            1203     337.742E-03     343.680E-03
             335            1204     361.355E-03     365.268E-03
             335            1218     351.075E-03     358.109E-03
             335            1219     381.537E-03     384.747E-03
             336              70     373.030E-03     376.391E-03
             336              71     396.690E-03     397.145E-03
             336            1204     361.355E-03     365.268E-03
             336            1219     381.537E-03     384.747E-03
             337             146     39.8769E-03     38.7463E-03
             337             147     50.2046E-03     47.8937E-03
             337            1205     54.3408E-03     54.0775E-03
             337            1220     44.8361E-03     45.6436E-03
             338            1205     54.3408E-03     54.0775E-03
             338            1206     66.0083E-03     68.8639E-03
             338            1220     44.8361E-03     45.6436E-03
             338            1221     58.0114E-03     62.1496E-03
             339            1206     66.0083E-03     68.8639E-03
             339            1207     82.8370E-03     87.5681E-03
             339            1221     58.0114E-03     62.1496E-03
             339            1222     75.9440E-03     82.1663E-03
             340            1207     82.8370E-03     87.5681E-03
             340            1208     102.319E-03     108.275E-03
             340            1222     75.9440E-03     82.1663E-03
             340            1223     96.1493E-03     103.524E-03
             341            1208     102.319E-03     108.275E-03
             341            1209     123.303E-03     129.932E-03
             341            1223     96.1493E-03     103.524E-03
             341            1224     117.468E-03     125.571E-03
             342            1209     123.303E-03     129.932E-03
             342            1210     145.173E-03     152.311E-03
             342            1224     117.468E-03     125.571E-03
             342            1225     139.481E-03     148.015E-03
             343            1210     145.173E-03     152.311E-03
             343            1211     167.660E-03     175.218E-03
             343            1225     139.481E-03     148.015E-03
             343            1226     161.968E-03     170.876E-03
             344            1211     167.660E-03     175.218E-03
             344            1212     190.671E-03     198.731E-03
             344            1226     161.968E-03     170.876E-03
             344            1227     184.995E-03     194.189E-03
             345            1212     190.671E-03     198.731E-03
             345            1213     214.241E-03     222.833E-03
             345            1227     184.995E-03     194.189E-03
             345            1228     208.660E-03     218.215E-03
             346            1213     214.241E-03     222.833E-03
             346            1214     238.665E-03     247.814E-03
             346            1228     208.660E-03     218.215E-03
             346            1229     233.413E-03     243.212E-03
             347            1214     238.665E-03     247.814E-03
             347            1215     264.080E-03     273.677E-03
             347            1229     233.413E-03     243.212E-03
             347            1230     259.973E-03     269.977E-03
             348            1215     264.080E-03     273.677E-03
             348            1216     291.818E-03     301.050E-03
             348            1230     259.973E-03     269.977E-03
             348            1231     289.155E-03     299.057E-03
             349            1216     291.818E-03     301.050E-03
             349            1217     321.178E-03     329.620E-03
             349            1231     289.155E-03     299.057E-03
             349            1232     324.309E-03     332.680E-03
             350            1217     321.178E-03     329.620E-03
             350            1218     351.075E-03     358.109E-03
             350            1232     324.309E-03     332.680E-03
             350            1233     363.114E-03     369.488E-03
             351            1218     351.075E-03     358.109E-03
             351            1219     381.537E-03     384.747E-03
             351            1233     363.114E-03     369.488E-03
             351            1234     399.709E-03     405.904E-03
             352              71     396.690E-03     397.145E-03
             352              72     417.217E-03     424.047E-03
             352            1219     381.537E-03     384.747E-03
             352            1234     399.709E-03     405.904E-03
             353             145     29.0648E-03     29.0034E-03
             353             146     39.8769E-03     38.7463E-03
             353            1220     44.8361E-03     45.6436E-03
             353            1235     34.9180E-03     37.4688E-03
             354            1220     44.8361E-03     45.6436E-03
             354            1221     58.0114E-03     62.1496E-03
             354            1235     34.9180E-03     37.4688E-03
             354            1236     49.8229E-03     56.1682E-03
             355            1221     58.0114E-03     62.1496E-03
             355            1222     75.9440E-03     82.1663E-03
             355            1236     49.8229E-03     56.1682E-03
             355            1237     69.0434E-03     77.2566E-03
             356            1222     75.9440E-03     82.1663E-03
             356            1223     96.1493E-03     103.524E-03
             356            1237     69.0434E-03     77.2566E-03
             356            1238     89.8414E-03     99.0469E-03
             357            1223     96.1493E-03     103.524E-03
             357            1224     117.468E-03     125.571E-03
             357            1238     89.8414E-03     99.0469E-03
             357            1239     111.396E-03     121.128E-03
             358            1224     117.468E-03     125.571E-03
             358            1225     139.481E-03     148.015E-03
             358            1239     111.396E-03     121.128E-03
             358            1240     133.357E-03     143.403E-03
             359            1225     139.481E-03     148.015E-03
             359            1226     161.968E-03     170.876E-03
             359            1240     133.357E-03     143.403E-03
             359            1241     155.733E-03     165.890E-03
             360            1226     161.968E-03     170.876E-03
             360            1227     184.995E-03     194.189E-03
             360            1241     155.733E-03     165.890E-03
             360            1242     178.512E-03     188.708E-03
             361            1227     184.995E-03     194.189E-03
             361            1228     208.660E-03     218.215E-03
             361            1242     178.512E-03     188.708E-03
             361            1243     202.055E-03     212.153E-03
             362            1228     208.660E-03     218.215E-03
             362            1229     233.413E-03     243.212E-03
             362            1243     202.055E-03     212.153E-03
             362            1244     226.628E-03     236.661E-03
             363            1229     233.413E-03     243.212E-03
             363            1230     259.973E-03     269.977E-03
             363            1244     226.628E-03     236.661E-03
             363            1245     253.300E-03     263.079E-03
             364            1230     259.973E-03     269.977E-03
             364            1231     289.155E-03     299.057E-03
             364            1245     253.300E-03     263.079E-03
             364            1246     283.158E-03     292.813E-03
             365            1231     289.155E-03     299.057E-03
             365            1232     324.309E-03     332.680E-03
             365            1246     283.158E-03     292.813E-03
             365            1247     318.701E-03     327.907E-03
             366            1232     324.309E-03     332.680E-03
             366            1233     363.114E-03     369.488E-03
             366            1247     318.701E-03     327.907E-03
             366            1248     367.400E-03     373.784E-03
             367            1233     363.114E-03     369.488E-03
             367            1234     399.709E-03     405.904E-03
             367            1248     367.400E-03     373.784E-03
             367            1249     420.165E-03     421.342E-03
             368              72     417.217E-03     424.047E-03
             368              73     444.120E-03     442.272E-03
             368            1234     399.709E-03     405.904E-03
             368            1249     420.165E-03     421.342E-03
             369             144     16.8379E-03     20.8187E-03
             369             145     29.0648E-03     29.0034E-03
             369            1235     34.9180E-03     37.4688E-03
             369            1250     24.5947E-03     30.8724E-03
             370            1235     34.9180E-03     37.4688E-03
             370            1236     49.8229E-03     56.1682E-03
             370            1250     24.5947E-03     30.8724E-03
             370            1251     42.2861E-03     51.7510E-03
             371            1236     49.8229E-03     56.1682E-03
             371            1237     69.0434E-03     77.2566E-03
             371            1251     42.2861E-03     51.7510E-03
             371            1252     62.7428E-03     73.4584E-03
             372            1237     69.0434E-03     77.2566E-03
             372            1238     89.8414E-03     99.0469E-03
             372            1252     62.7428E-03     73.4584E-03
             372            1253     83.9849E-03     95.3391E-03
             373            1238     89.8414E-03     99.0469E-03
             373            1239     111.396E-03     121.128E-03
             373            1253     83.9849E-03     95.3391E-03
             373            1254     105.529E-03     117.224E-03
             374            1239     111.396E-03     121.128E-03
             374            1240     133.357E-03     143.403E-03
             374            1254     105.529E-03     117.224E-03
             374            1255     127.360E-03     139.116E-03
             375            1240     133.357E-03     143.403E-03
             375            1241     155.733E-03     165.890E-03
             375            1255     127.360E-03     139.116E-03
             375            1256     149.439E-03     161.028E-03
             376            1241     155.733E-03     165.890E-03
             376            1242     178.512E-03     188.708E-03
             376            1256     149.439E-03     161.028E-03
             376            1257     171.976E-03     183.178E-03
             377            1242     178.512E-03     188.708E-03
             377            1243     202.055E-03     212.153E-03
             377            1257     171.976E-03     183.178E-03
             377            1258     195.115E-03     205.709E-03
             378            1243     202.055E-03     212.153E-03
             378            1244     226.628E-03     236.661E-03
             378            1258     195.115E-03     205.709E-03
             378            1259     219.490E-03     229.307E-03
             379            1244     226.628E-03     236.661E-03
             379            1245     253.300E-03     263.079E-03
             379            1259     219.490E-03     229.307E-03
             379            1260     245.514E-03     254.451E-03
             380            1245     253.300E-03     263.079E-03
             380            1246     283.158E-03     292.813E-03
             380            1260     245.514E-03     254.451E-03
             380            1261     275.092E-03     283.212E-03
             381            1246     283.158E-03     292.813E-03
             381            1247     318.701E-03     327.907E-03
             381            1261     275.092E-03     283.212E-03
             381            1262     309.270E-03     317.025E-03
             382            1247     318.701E-03     327.907E-03
             382            1248     367.400E-03     373.784E-03
             382            1262     309.270E-03     317.025E-03
             382            1263     355.576E-03     364.115E-03
             383            1248     367.400E-03     373.784E-03
             383            1249     420.165E-03     421.342E-03
             383            1263     355.576E-03     364.115E-03
             383            1264     425.827E-03     431.819E-03
             384              73     444.120E-03     442.272E-03
             384              74     467.696E-03     470.320E-03
             384            1249     420.165E-03     421.342E-03
             384            1264     425.827E-03     431.819E-03
             385             143     69.6480E-03     84.9014E-03
             385             144     16.8379E-03     20.8187E-03
             385            1250     24.5947E-03     30.8724E-03
             385            1265     79.4101E-03     90.1818E-03
             386            1250     24.5947E-03     30.8724E-03
             386            1251     42.2861E-03     51.7510E-03
             386            1265     79.4101E-03     90.1818E-03
             386            1266     97.8109E-03     103.267E-03
             387            1251     42.2861E-03     51.7510E-03
             387            1252     62.7428E-03     73.4584E-03
             387            1266     97.8109E-03     103.267E-03
             387            1267     116.331E-03     121.173E-03
             388            1252     62.7428E-03     73.4584E-03
             388            1253     83.9849E-03     95.3391E-03
             388            1267     116.331E-03     121.173E-03
             388            1268     136.580E-03     141.663E-03
             389            1253     83.9849E-03     95.3391E-03
             389            1254     105.529E-03     117.224E-03
             389            1268     136.580E-03     141.663E-03
             389            1269     158.162E-03     163.235E-03
             390            1254     105.529E-03     117.224E-03
             390            1255     127.360E-03     139.116E-03
             390            1269     158.162E-03     163.235E-03
             390            1270     180.651E-03     185.585E-03
             391            1255     127.360E-03     139.116E-03
             391            1256     149.439E-03     161.028E-03
             391            1270     180.651E-03     185.585E-03
             391            1271     203.822E-03     208.194E-03
             392            1256     149.439E-03     161.028E-03
             392            1257     171.976E-03     183.178E-03
             392            1271     203.822E-03     208.194E-03
             392            1272     227.361E-03     230.920E-03
             393            1257     171.976E-03     183.178E-03
             393            1258     195.115E-03     205.709E-03
             393            1272     227.361E-03     230.920E-03
             393            1273     251.278E-03     253.475E-03
             394            1258     195.115E-03     205.709E-03
             394            1259     219.490E-03     229.307E-03
             394            1273     251.278E-03     253.475E-03
             394            1274     275.362E-03     275.973E-03
             395            1259     219.490E-03     229.307E-03
             395            1260     245.514E-03     254.451E-03
             395            1274     275.362E-03     275.973E-03
             395            1275     300.013E-03     298.369E-03
             396            1260     245.514E-03     254.451E-03
             396            1261     275.092E-03     283.212E-03
             396            1275     300.013E-03     298.369E-03
             396            1276     325.033E-03     321.209E-03
             397            1261     275.092E-03     283.212E-03
             397            1262     309.270E-03     317.025E-03
             397            1276     325.033E-03     321.209E-03
             397            1277     351.919E-03     345.677E-03
             398            1262     309.270E-03     317.025E-03
             398            1263     355.576E-03     364.115E-03
             398            1277     351.919E-03     345.677E-03
             398            1278     380.370E-03     373.160E-03
             399            1263     355.576E-03     364.115E-03
             399            1264     425.827E-03     431.819E-03
             399            1278     380.370E-03     373.160E-03
             399            1279     419.408E-03     420.100E-03
             400              74     467.696E-03     470.320E-03
             400              75     444.701E-03     452.356E-03
             400            1264     425.827E-03     431.819E-03
             400            1279     419.408E-03     420.100E-03
             401             142     127.446E-03     144.572E-03
             401             143     69.6480E-03     84.9014E-03
             401            1265     79.4101E-03     90.1818E-03
             401            1280     132.890E-03     145.240E-03
             402            1265     79.4101E-03     90.1818E-03
             402            1266     97.8109E-03     103.267E-03
             402            1280     132.890E-03     145.240E-03
             402            1281     146.872E-03     151.013E-03
             403            1266     97.8109E-03     103.267E-03
             403            1267     116.331E-03     121.173E-03
             403            1281     146.872E-03     151.013E-03
             403            1282     165.496E-03     165.352E-03
             404            1267     116.331E-03     121.173E-03
             404            1268     136.580E-03     141.663E-03
             404            1282     165.496E-03     165.352E-03
             404            1283     186.777E-03     185.536E-03
             405            1268     136.580E-03     141.663E-03
             405            1269     158.162E-03     163.235E-03
             405            1283     186.777E-03     185.536E-03
             405            1284     210.277E-03     208.585E-03
             406            1269     158.162E-03     163.235E-03
             406            1270     180.651E-03     185.585E-03
             406            1284     210.277E-03     208.585E-03
             406            1285     235.482E-03     233.331E-03
             407            1270     180.651E-03     185.585E-03
             407            1271     203.822E-03     208.194E-03
             407            1285     235.482E-03     233.331E-03
             407            1286     261.601E-03     258.897E-03
             408            1271     203.822E-03     208.194E-03
             408            1272     227.361E-03     230.920E-03
             408            1286     261.601E-03     258.897E-03
             408            1287     288.233E-03     284.620E-03
             409            1272     227.361E-03     230.920E-03
             409            1273     251.278E-03     253.475E-03
             409            1287     288.233E-03     284.620E-03
             409            1288     314.787E-03     310.023E-03
             410            1273     251.278E-03     253.475E-03
             410            1274     275.362E-03     275.973E-03
             410            1288     314.787E-03     310.023E-03
             410            1289     340.849E-03     334.571E-03
             411            1274     275.362E-03     275.973E-03
             411            1275     300.013E-03     298.369E-03
             411            1289     340.849E-03     334.571E-03
             411            1290     365.814E-03     357.778E-03
             412            1275     300.013E-03     298.369E-03
             412            1276     325.033E-03     321.209E-03
             412            1290     365.814E-03     357.778E-03
             412            1291     389.048E-03     379.235E-03
             413            1276     325.033E-03     321.209E-03
             413            1277     351.919E-03     345.677E-03
             413            1291     389.048E-03     379.235E-03
             413            1292     409.488E-03     398.148E-03
             414            1277     351.919E-03     345.677E-03
             414            1278     380.370E-03     373.160E-03
             414            1292     409.488E-03     398.148E-03
             414            1293     425.604E-03     414.551E-03
             415            1278     380.370E-03     373.160E-03
             415            1279     419.408E-03     420.100E-03
             415            1293     425.604E-03     414.551E-03
             415            1294     435.671E-03     423.776E-03
             416              75     444.701E-03     452.356E-03
             416              76     438.874E-03     425.309E-03
             416            1279     419.408E-03     420.100E-03
             416            1294     435.671E-03     423.776E-03
             417             141     116.971E-03     119.568E-03
             417             142     127.446E-03     144.572E-03
             417            1280     132.890E-03     145.240E-03
             417            1295     119.365E-03     126.085E-03
             418            1280     132.890E-03     145.240E-03
             418            1281     146.872E-03     151.013E-03
             418            1295     119.365E-03     126.085E-03
             418            1296     131.032E-03     139.250E-03
             419            1281     146.872E-03     151.013E-03
             419            1282     165.496E-03     165.352E-03
             419            1296     131.032E-03     139.250E-03
             419            1297     152.378E-03     156.116E-03
             420            1282     165.496E-03     165.352E-03
             420            1283     186.777E-03     185.536E-03
             420            1297     152.378E-03     156.116E-03
             420            1298     177.499E-03     178.837E-03
             421            1283     186.777E-03     185.536E-03
             421            1284     210.277E-03     208.585E-03
             421            1298     177.499E-03     178.837E-03
             421            1299     204.640E-03     204.985E-03
             422            1284     210.277E-03     208.585E-03
             422            1285     235.482E-03     233.331E-03
             422            1299     204.640E-03     204.985E-03
             422            1300     233.240E-03     233.031E-03
             423            1285     235.482E-03     233.331E-03
             423            1286     261.601E-03     258.897E-03
             423            1300     233.240E-03     233.031E-03
             423            1301     262.740E-03     262.141E-03
             424            1286     261.601E-03     258.897E-03
             424            1287     288.233E-03     284.620E-03
             424            1301     262.740E-03     262.141E-03
             424            1302     292.659E-03     291.746E-03
             425            1287     288.233E-03     284.620E-03
             425            1288     314.787E-03     310.023E-03
             425            1302     292.659E-03     291.746E-03
             425            1303     322.605E-03     321.355E-03
             426            1288     314.787E-03     310.023E-03
             426            1289     340.849E-03     334.571E-03
             426            1303     322.605E-03     321.355E-03
             426            1304     352.019E-03     350.600E-03
             427            1289     340.849E-03     334.571E-03
             427            1290     365.814E-03     357.778E-03
             427            1304     352.019E-03     350.600E-03
             427            1305     380.268E-03     378.935E-03
             428            1290     365.814E-03     357.778E-03
             428            1291     389.048E-03     379.235E-03
             428            1305     380.268E-03     378.935E-03
             428            1306     406.550E-03     405.859E-03
             429            1291     389.048E-03     379.235E-03
             429            1292     409.488E-03     398.148E-03
             429            1306     406.550E-03     405.859E-03
             429            1307     429.481E-03     430.612E-03
             430            1292     409.488E-03     398.148E-03
             430            1293     425.604E-03     414.551E-03
             430            1307     429.481E-03     430.612E-03
             430            1308     448.391E-03     451.545E-03
             431            1293     425.604E-03     414.551E-03
             431            1294     435.671E-03     423.776E-03
             431            1308     448.391E-03     451.545E-03
             431            1309     464.229E-03     465.559E-03
             432              76     438.874E-03     425.309E-03
             432              77     471.661E-03     470.267E-03
             432            1294     435.671E-03     423.776E-03
             432            1309     464.229E-03     465.559E-03
             433             140     99.8733E-03     99.9327E-03
             433             141     116.971E-03     119.568E-03
             433            1295     119.365E-03     126.085E-03
             433            1310     105.083E-03     107.545E-03
             434            1295     119.365E-03     126.085E-03
             434            1296     131.032E-03     139.250E-03
             434            1310     105.083E-03     107.545E-03
             434            1311     119.653E-03     125.806E-03
             435            1296     131.032E-03     139.250E-03
             435            1297     152.378E-03     156.116E-03
             435            1311     119.653E-03     125.806E-03
             435            1312     142.180E-03     148.234E-03
             436            1297     152.378E-03     156.116E-03
             436            1298     177.499E-03     178.837E-03
             436            1312     142.180E-03     148.234E-03
             436            1313     170.115E-03     174.010E-03
             437            1298     177.499E-03     178.837E-03
             437            1299     204.640E-03     204.985E-03
             437            1313     170.115E-03     174.010E-03
             437            1314     200.258E-03     203.074E-03
             438            1299     204.640E-03     204.985E-03
             438            1300     233.240E-03     233.031E-03
             438            1314     200.258E-03     203.074E-03
             438            1315     231.683E-03     233.958E-03
             439            1300     233.240E-03     233.031E-03
             439            1301     262.740E-03     262.141E-03
             439            1315     231.683E-03     233.958E-03
             439            1316     263.885E-03     266.033E-03
             440            1301     262.740E-03     262.141E-03
             440            1302     292.659E-03     291.746E-03
             440            1316     263.885E-03     266.033E-03
             440            1317     296.509E-03     298.756E-03
             441            1302     292.659E-03     291.746E-03
             441            1303     322.605E-03     321.355E-03
             441            1317     296.509E-03     298.756E-03
             441            1318     329.129E-03     331.797E-03
             442            1303     322.605E-03     321.355E-03
             442            1304     352.019E-03     350.600E-03
             442            1318     329.129E-03     331.797E-03
             442            1319     361.295E-03     364.657E-03
             443            1304     352.019E-03     350.600E-03
             443            1305     380.268E-03     378.935E-03
             443            1319     361.295E-03     364.657E-03
             443            1320     392.387E-03     396.878E-03
             444            1305     380.268E-03     378.935E-03
             444            1306     406.550E-03     405.859E-03
             444            1320     392.387E-03     396.878E-03
             444            1321     421.288E-03     427.553E-03
             445            1306     406.550E-03     405.859E-03
             445            1307     429.481E-03     430.612E-03
             445            1321     421.288E-03     427.553E-03
             445            1322     447.556E-03     455.439E-03
             446            1307     429.481E-03     430.612E-03
             446            1308     448.391E-03     451.545E-03
             446            1322     447.556E-03     455.439E-03
             446            1323     470.056E-03     478.366E-03
             447            1308     448.391E-03     451.545E-03
             447            1309     464.229E-03     465.559E-03
             447            1323     470.056E-03     478.366E-03
             447            1324     491.499E-03     496.449E-03
             448              77     471.661E-03     470.267E-03
             448              78     502.880E-03     504.751E-03
             448            1309     464.229E-03     465.559E-03
             448            1324     491.499E-03     496.449E-03
             449             139     85.8155E-03     86.4893E-03
             449             140     99.8733E-03     99.9327E-03
             449            1310     105.083E-03     107.545E-03
             449            1325     91.6457E-03     94.0575E-03
             450            1310     105.083E-03     107.545E-03
             450            1311     119.653E-03     125.806E-03
             450            1325     91.6457E-03     94.0575E-03
             450            1326     108.752E-03     113.955E-03
             451            1311     119.653E-03     125.806E-03
             451            1312     142.180E-03     148.234E-03
             451            1326     108.752E-03     113.955E-03
             451            1327     134.068E-03     140.516E-03
             452            1312     142.180E-03     148.234E-03
             452            1313     170.115E-03     174.010E-03
             452            1327     134.068E-03     140.516E-03
             452            1328     163.900E-03     169.909E-03
             453            1313     170.115E-03     174.010E-03
             453            1314     200.258E-03     203.074E-03
             453            1328     163.900E-03     169.909E-03
             453            1329     196.278E-03     201.405E-03
             454            1314     200.258E-03     203.074E-03
             454            1315     231.683E-03     233.958E-03
             454            1329     196.278E-03     201.405E-03
             454            1330     229.774E-03     234.622E-03
             455            1315     231.683E-03     233.958E-03
             455            1316     263.885E-03     266.033E-03
             455            1330     229.774E-03     234.622E-03
             455            1331     263.998E-03     268.899E-03
             456            1316     263.885E-03     266.033E-03
             456            1317     296.509E-03     298.756E-03
             456            1331     263.998E-03     268.899E-03
             456            1332     298.576E-03     303.965E-03
             457            1317     296.509E-03     298.756E-03
             457            1318     329.129E-03     331.797E-03
             457            1332     298.576E-03     303.965E-03
             457            1333     333.303E-03     339.471E-03
             458            1318     329.129E-03     331.797E-03
             458            1319     361.295E-03     364.657E-03
             458            1333     333.303E-03     339.471E-03
             458            1334     367.728E-03     375.079E-03
             459            1319     361.295E-03     364.657E-03
             459            1320     392.387E-03     396.878E-03
             459            1334     367.728E-03     375.079E-03
             459            1335     401.262E-03     410.079E-03
             460            1320     392.387E-03     396.878E-03
             460            1321     421.288E-03     427.553E-03
             460            1335     401.262E-03     410.079E-03
             460            1336     433.349E-03     443.499E-03
             461            1321     421.288E-03     427.553E-03
             461            1322     447.556E-03     455.439E-03
             461            1336     433.349E-03     443.499E-03
             461            1337     462.725E-03     473.721E-03
             462            1322     447.556E-03     455.439E-03
             462            1323     470.056E-03     478.366E-03
             462            1337     462.725E-03     473.721E-03
             462            1338     490.057E-03     499.279E-03
             463            1323     470.056E-03     478.366E-03
             463            1324     491.499E-03     496.449E-03
             463            1338     490.057E-03     499.279E-03
             463            1339     516.125E-03     520.442E-03
             464              78     502.880E-03     504.751E-03
             464              79     528.719E-03     530.076E-03
             464            1324     491.499E-03     496.449E-03
             464            1339     516.125E-03     520.442E-03
             465             138     71.7949E-03     70.6383E-03
             465             139     85.8155E-03     86.4893E-03
             465            1325     91.6457E-03     94.0575E-03
             465            1340     78.9486E-03     80.7862E-03
             466            1325     91.6457E-03     94.0575E-03
             466            1326     108.752E-03     113.955E-03
             466            1340     78.9486E-03     80.7862E-03
             466            1341     98.6100E-03     104.387E-03
             467            1326     108.752E-03     113.955E-03
             467            1327     134.068E-03     140.516E-03
             467            1341     98.6100E-03     104.387E-03
             467            1342     126.416E-03     133.426E-03
             468            1327     134.068E-03     140.516E-03
             468            1328     163.900E-03     169.909E-03
             468            1342     126.416E-03     133.426E-03
             468            1343     158.231E-03     165.541E-03
             469            1328     163.900E-03     169.909E-03
             469            1329     196.278E-03     201.405E-03
             469            1343     158.231E-03     165.541E-03
             469            1344     192.008E-03     199.155E-03
             470            1329     196.278E-03     201.405E-03
             470            1330     229.774E-03     234.622E-03
             470            1344     192.008E-03     199.155E-03
             470            1345     226.920E-03     233.968E-03
             471            1330     229.774E-03     234.622E-03
             471            1331     263.998E-03     268.899E-03
             471            1345     226.920E-03     233.968E-03
             471            1346     262.407E-03     269.769E-03
             472            1331     263.998E-03     268.899E-03
             472            1332     298.576E-03     303.965E-03
             472            1346     262.407E-03     269.769E-03
             472            1347     298.352E-03     306.347E-03
             473            1332     298.576E-03     303.965E-03
             473            1333     333.303E-03     339.471E-03
             473            1347     298.352E-03     306.347E-03
             473            1348     334.501E-03     343.512E-03
             474            1333     333.303E-03     339.471E-03
             474            1334     367.728E-03     375.079E-03
             474            1348     334.501E-03     343.512E-03
             474            1349     370.816E-03     381.020E-03
             475            1334     367.728E-03     375.079E-03
             475            1335     401.262E-03     410.079E-03
             475            1349     370.816E-03     381.020E-03
             475            1350     406.817E-03     418.329E-03
             476            1335     401.262E-03     410.079E-03
             476            1336     433.349E-03     443.499E-03
             476            1350     406.817E-03     418.329E-03
             476            1351     441.940E-03     454.303E-03
             477            1336     433.349E-03     443.499E-03
             477            1337     462.725E-03     473.721E-03
             477            1351     441.940E-03     454.303E-03
             477            1352     475.757E-03     487.501E-03
             478            1337     462.725E-03     473.721E-03
             478            1338     490.057E-03     499.279E-03
             478            1352     475.757E-03     487.501E-03
             478            1353     507.352E-03     516.845E-03
             479            1338     490.057E-03     499.279E-03
             479            1339     516.125E-03     520.442E-03
             479            1353     507.352E-03     516.845E-03
             479            1354     537.842E-03     542.862E-03
             480              79     528.719E-03     530.076E-03
             480              80     553.156E-03     555.219E-03
             480            1339     516.125E-03     520.442E-03
             480            1354     537.842E-03     542.862E-03
             481             137     57.6338E-03     58.1010E-03
             481             138     71.7949E-03     70.6383E-03
             481            1340     78.9486E-03     80.7862E-03
             481            1355     66.2824E-03     69.0635E-03
             482            1340     78.9486E-03     80.7862E-03
             482            1341     98.6100E-03     104.387E-03
             482            1355     66.2824E-03     69.0635E-03
             482            1356     88.9391E-03     95.3155E-03
             483            1341     98.6100E-03     104.387E-03
             483            1342     126.416E-03     133.426E-03
             483            1356     88.9391E-03     95.3155E-03
             483            1357     119.064E-03     127.064E-03
             484            1342     126.416E-03     133.426E-03
             484            1343     158.231E-03     165.541E-03
             484            1357     119.064E-03     127.064E-03
             484            1358     152.358E-03     160.800E-03
             485            1343     158.231E-03     165.541E-03
             485            1344     192.008E-03     199.155E-03
             485            1358     152.358E-03     160.800E-03
             485            1359     187.160E-03     195.797E-03
             486            1344     192.008E-03     199.155E-03
             486            1345     226.920E-03     233.968E-03
             486            1359     187.160E-03     195.797E-03
             486            1360     222.775E-03     231.604E-03
             487            1345     226.920E-03     233.968E-03
             487            1346     262.407E-03     269.769E-03
             487            1360     222.775E-03     231.604E-03
             487            1361     258.952E-03     268.215E-03
             488            1346     262.407E-03     269.769E-03
             488            1347     298.352E-03     306.347E-03
             488            1361     258.952E-03     268.215E-03
             488            1362     295.549E-03     305.521E-03
             489            1347     298.352E-03     306.347E-03
             489            1348     334.501E-03     343.512E-03
             489            1362     295.549E-03     305.521E-03
             489            1363     332.668E-03     343.605E-03
             490            1348     334.501E-03     343.512E-03
             490            1349     370.816E-03     381.020E-03
             490            1363     332.668E-03     343.605E-03
             490            1364     370.185E-03     382.281E-03
             491            1349     370.816E-03     381.020E-03
             491            1350     406.817E-03     418.329E-03
             491            1364     370.185E-03     382.281E-03
             491            1365     408.545E-03     421.484E-03
             492            1350     406.817E-03     418.329E-03
             492            1351     441.940E-03     454.303E-03
             492            1365     408.545E-03     421.484E-03
             492            1366     447.141E-03     460.515E-03
             493            1351     441.940E-03     454.303E-03
             493            1352     475.757E-03     487.501E-03
             493            1366     447.141E-03     460.515E-03
             493            1367     485.462E-03     497.890E-03
             494            1352     475.757E-03     487.501E-03
             494            1353     507.352E-03     516.845E-03
             494            1367     485.462E-03     497.890E-03
             494            1368     522.876E-03     532.150E-03
             495            1353     507.352E-03     516.845E-03
             495            1354     537.842E-03     542.862E-03
             495            1368     522.876E-03     532.150E-03
             495            1369     557.695E-03     563.643E-03
             496              80     553.156E-03     555.219E-03
             496              81     574.379E-03     579.050E-03
             496            1354     537.842E-03     542.862E-03
             496            1369     557.695E-03     563.643E-03
             497             136     43.4107E-03     44.2487E-03
             497             137     57.6338E-03     58.1010E-03
             497            1355     66.2824E-03     69.0635E-03
             497            1370     53.9154E-03     57.7285E-03
             498            1355     66.2824E-03     69.0635E-03
             498            1356     88.9391E-03     95.3155E-03
             498            1370     53.9154E-03     57.7285E-03
             498            1371     79.7250E-03     87.4272E-03
             499            1356     88.9391E-03     95.3155E-03
             499            1357     119.064E-03     127.064E-03
             499            1371     79.7250E-03     87.4272E-03
             499            1372     111.916E-03     120.941E-03
             500            1357     119.064E-03     127.064E-03
             500            1358     152.358E-03     160.800E-03
             500            1372     111.916E-03     120.941E-03
             500            1373     146.265E-03     155.811E-03
             501            1358     152.358E-03     160.800E-03
             501            1359     187.160E-03     195.797E-03
             501            1373     146.265E-03     155.811E-03
             501            1374     181.571E-03     191.386E-03
             502            1359     187.160E-03     195.797E-03
             502            1360     222.775E-03     231.604E-03
             502            1374     181.571E-03     191.386E-03
             502            1375     217.392E-03     227.596E-03
             503            1360     222.775E-03     231.604E-03
             503            1361     258.952E-03     268.215E-03
             503            1375     217.392E-03     227.596E-03
             503            1376     253.670E-03     264.288E-03
             504            1361     258.952E-03     268.215E-03
             504            1362     295.549E-03     305.521E-03
             504            1376     253.670E-03     264.288E-03
             504            1377     290.408E-03     301.683E-03
             505            1362     295.549E-03     305.521E-03
             505            1363     332.668E-03     343.605E-03
             505            1377     290.408E-03     301.683E-03
             505            1378     327.746E-03     339.793E-03
             506            1363     332.668E-03     343.605E-03
             506            1364     370.185E-03     382.281E-03
             506            1378     327.746E-03     339.793E-03
             506            1379     366.112E-03     379.029E-03
             507            1364     370.185E-03     382.281E-03
             507            1365     408.545E-03     421.484E-03
             507            1379     366.112E-03     379.029E-03
             507            1380     405.632E-03     419.358E-03
             508            1365     408.545E-03     421.484E-03
             508            1366     447.141E-03     460.515E-03
             508            1380     405.632E-03     419.358E-03
             508            1381     447.903E-03     461.380E-03
             509            1366     447.141E-03     460.515E-03
             509            1367     485.462E-03     497.890E-03
             509            1381     447.903E-03     461.380E-03
             509            1382     491.729E-03     504.338E-03
             510            1367     485.462E-03     497.890E-03
             510            1368     522.876E-03     532.150E-03
             510            1382     491.729E-03     504.338E-03
             510            1383     535.251E-03     545.809E-03
             511            1368     522.876E-03     532.150E-03
             511            1369     557.695E-03     563.643E-03
             511            1383     535.251E-03     545.809E-03
             511            1384     577.530E-03     582.473E-03
             512              81     574.379E-03     579.050E-03
             512              82     597.895E-03     598.892E-03
             512            1369     557.695E-03     563.643E-03
             512            1384     577.530E-03     582.473E-03
             513             135     28.9141E-03     32.3773E-03
             513             136     43.4107E-03     44.2487E-03
             513            1370     53.9154E-03     57.7285E-03
             513            1385     41.8805E-03     48.1248E-03
             514            1370     53.9154E-03     57.7285E-03
             514            1371     79.7250E-03     87.4272E-03
             514            1385     41.8805E-03     48.1248E-03
             514            1386     71.4406E-03     80.9534E-03
             515            1371     79.7250E-03     87.4272E-03
             515            1372     111.916E-03     120.941E-03
             515            1386     71.4406E-03     80.9534E-03
             515            1387     105.349E-03     115.447E-03
             516            1372     111.916E-03     120.941E-03
             516            1373     146.265E-03     155.811E-03
             516            1387     105.349E-03     115.447E-03
             516            1388     140.225E-03     150.746E-03
             517            1373     146.265E-03     155.811E-03
             517            1374     181.571E-03     191.386E-03
             517            1388     140.225E-03     150.746E-03
             517            1389     175.453E-03     186.461E-03
             518            1374     181.571E-03     191.386E-03
             518            1375     217.392E-03     227.596E-03
             518            1389     175.453E-03     186.461E-03
             518            1390     211.061E-03     222.344E-03
             519            1375     217.392E-03     227.596E-03
             519            1376     253.670E-03     264.288E-03
             519            1390     211.061E-03     222.344E-03
             519            1391     246.952E-03     258.600E-03
             520            1376     253.670E-03     264.288E-03
             520            1377     290.408E-03     301.683E-03
             520            1391     246.952E-03     258.600E-03
             520            1392     283.331E-03     295.295E-03
             521            1377     290.408E-03     301.683E-03
             521            1378     327.746E-03     339.793E-03
             521            1392     283.331E-03     295.295E-03
             521            1393     320.368E-03     332.821E-03
             522            1378     327.746E-03     339.793E-03
             522            1379     366.112E-03     379.029E-03
             522            1393     320.368E-03     332.821E-03
             522            1394     358.589E-03     371.470E-03
             523            1379     366.112E-03     379.029E-03
             523            1380     405.632E-03     419.358E-03
             523            1394     358.589E-03     371.470E-03
             523            1395     398.878E-03     412.203E-03
             524            1380     405.632E-03     419.358E-03
             524            1381     447.903E-03     461.380E-03
             524            1395     398.878E-03     412.203E-03
             524            1396     441.998E-03     455.557E-03
             525            1381     447.903E-03     461.380E-03
             525            1382     491.729E-03     504.338E-03
             525            1396     441.998E-03     455.557E-03
             525            1397     491.953E-03     503.927E-03
             526            1382     491.729E-03     504.338E-03
             526            1383     535.251E-03     545.809E-03
             526            1397     491.953E-03     503.927E-03
             526            1398     545.366E-03     554.930E-03
             527            1383     535.251E-03     545.809E-03
             527            1384     577.530E-03     582.473E-03
             527            1398     545.366E-03     554.930E-03
             527            1399     594.294E-03     603.018E-03
             528              82     597.895E-03     598.892E-03
             528              83     617.322E-03     626.236E-03
             528            1384     577.530E-03     582.473E-03
             528            1399     594.294E-03     603.018E-03
             529             134     15.9511E-03     26.6484E-03
             529             135     28.9141E-03     32.3773E-03
             529            1385     41.8805E-03     48.1248E-03
             529            1400     32.2311E-03     42.9322E-03
             530            1385     41.8805E-03     48.1248E-03
             530            1386     71.4406E-03     80.9534E-03
             530            1400     32.2311E-03     42.9322E-03
             530            1401     65.7624E-03     76.3724E-03
             531            1386     71.4406E-03     80.9534E-03
             531            1387     105.349E-03     115.447E-03
             531            1401     65.7624E-03     76.3724E-03
             531            1402     100.190E-03     111.276E-03
             532            1387     105.349E-03     115.447E-03
             532            1388     140.225E-03     150.746E-03
             532            1402     100.190E-03     111.276E-03
             532            1403     134.654E-03     146.519E-03
             533            1388     140.225E-03     150.746E-03
             533            1389     175.453E-03     186.461E-03
             533            1403     134.654E-03     146.519E-03
             533            1404     169.397E-03     181.633E-03
             534            1389     175.453E-03     186.461E-03
             534            1390     211.061E-03     222.344E-03
             534            1404     169.397E-03     181.633E-03
             534            1405     204.283E-03     216.764E-03
             535            1390     211.061E-03     222.344E-03
             535            1391     246.952E-03     258.600E-03
             535            1405     204.283E-03     216.764E-03
             535            1406     239.481E-03     251.971E-03
             536            1391     246.952E-03     258.600E-03
             536            1392     283.331E-03     295.295E-03
             536            1406     239.481E-03     251.971E-03
             536            1407     275.025E-03     287.467E-03
             537            1392     283.331E-03     295.295E-03
             537            1393     320.368E-03     332.821E-03
             537            1407     275.025E-03     287.467E-03
             537            1408     311.360E-03     323.588E-03
             538            1393     320.368E-03     332.821E-03
             538            1394     358.589E-03     371.470E-03
             538            1408     311.360E-03     323.588E-03
             538            1409     348.782E-03     360.882E-03
             539            1394     358.589E-03     371.470E-03
             539            1395     398.878E-03     412.203E-03
             539            1409     348.782E-03     360.882E-03
             539            1410     388.478E-03     400.292E-03
             540            1395     398.878E-03     412.203E-03
             540            1396     441.998E-03     455.557E-03
             540            1410     388.478E-03     400.292E-03
             540            1411     431.690E-03     443.478E-03
             541            1396     441.998E-03     455.557E-03
             541            1397     491.953E-03     503.927E-03
             541            1411     431.690E-03     443.478E-03
             541            1412     481.089E-03     492.724E-03
             542            1397     491.953E-03     503.927E-03
             542            1398     545.366E-03     554.930E-03
             542            1412     481.089E-03     492.724E-03
             542            1413     545.580E-03     554.151E-03
             543            1398     545.366E-03     554.930E-03
             543            1399     594.294E-03     603.018E-03
             543            1413     545.580E-03     554.151E-03
             543            1414     613.190E-03     615.062E-03
             544              83     617.322E-03     626.236E-03
             544              84     643.328E-03     641.039E-03
             544            1399     594.294E-03     603.018E-03
             544            1414     613.190E-03     615.062E-03
             545             133     16.3901E-03     28.4526E-03
             545             134     15.9511E-03     26.6484E-03
             545            1400     32.2311E-03     42.9322E-03
             545            1415     32.5312E-03     43.4100E-03
             546            1400     32.2311E-03     42.9322E-03
             546            1401     65.7624E-03     76.3724E-03
             546            1415     32.5312E-03     43.4100E-03
             546            1416     64.6928E-03     75.5477E-03
             547            1401     65.7624E-03     76.3724E-03
             547            1402     100.190E-03     111.276E-03
             547            1416     64.6928E-03     75.5477E-03
             547            1417     97.2703E-03     109.822E-03
             548            1402     100.190E-03     111.276E-03
             548            1403     134.654E-03     146.519E-03
             548            1417     97.2703E-03     109.822E-03
             548            1418     130.555E-03     144.008E-03
             549            1403     134.654E-03     146.519E-03
             549            1404     169.397E-03     181.633E-03
             549            1418     130.555E-03     144.008E-03
             549            1419     164.085E-03     178.010E-03
             550            1404     169.397E-03     181.633E-03
             550            1405     204.283E-03     216.764E-03
             550            1419     164.085E-03     178.010E-03
             550            1420     197.918E-03     211.875E-03
             551            1405     204.283E-03     216.764E-03
             551            1406     239.481E-03     251.971E-03
             551            1420     197.918E-03     211.875E-03
             551            1421     231.986E-03     245.629E-03
             552            1406     239.481E-03     251.971E-03
             552            1407     275.025E-03     287.467E-03
             552            1421     231.986E-03     245.629E-03
             552            1422     266.542E-03     279.515E-03
             553            1407     275.025E-03     287.467E-03
             553            1408     311.360E-03     323.588E-03
             553            1422     266.542E-03     279.515E-03
             553            1423     301.709E-03     313.687E-03
             554            1408     311.360E-03     323.588E-03
             554            1409     348.782E-03     360.882E-03
             554            1423     301.709E-03     313.687E-03
             554            1424     338.203E-03     348.907E-03
             555            1409     348.782E-03     360.882E-03
             555            1410     388.478E-03     400.292E-03
             555            1424     338.203E-03     348.907E-03
             555            1425     376.421E-03     385.682E-03
             556            1410     388.478E-03     400.292E-03
             556            1411     431.690E-03     443.478E-03
             556            1425     376.421E-03     385.682E-03
             556            1426     418.532E-03     426.426E-03
             557            1411     431.690E-03     443.478E-03
             557            1412     481.089E-03     492.724E-03
             557            1426     418.532E-03     426.426E-03
             557            1427     465.570E-03     472.690E-03
             558            1412     481.089E-03     492.724E-03
             558            1413     545.580E-03     554.151E-03
             558            1427     465.570E-03     472.690E-03
             558            1428     526.260E-03     534.357E-03
             559            1413     545.580E-03     554.151E-03
             559            1414     613.190E-03     615.062E-03
             559            1428     526.260E-03     534.357E-03
             559            1429     613.943E-03     618.643E-03
             560              84     643.328E-03     641.039E-03
             560              85     665.237E-03     665.422E-03
             560            1414     613.190E-03     615.062E-03
             560            1429     613.943E-03     618.643E-03
             561             132     86.3189E-03     103.384E-03
             561             133     16.3901E-03     28.4526E-03
             561            1415     32.5312E-03     43.4100E-03
             561            1430     99.8617E-03     111.335E-03
             562            1415     32.5312E-03     43.4100E-03
             562            1416     64.6928E-03     75.5477E-03
             562            1430     99.8617E-03     111.335E-03
             562            1431     126.353E-03     131.989E-03
             563            1416     64.6928E-03     75.5477E-03
             563            1417     97.2703E-03     109.822E-03
             563            1431     126.353E-03     131.989E-03
             563            1432     154.174E-03     160.042E-03
             564            1417     97.2703E-03     109.822E-03
             564            1418     130.555E-03     144.008E-03
             564            1432     154.174E-03     160.042E-03
             564            1433     184.886E-03     191.596E-03
             565            1418     130.555E-03     144.008E-03
             565            1419     164.085E-03     178.010E-03
             565            1433     184.886E-03     191.596E-03
             565            1434     217.507E-03     224.515E-03
             566            1419     164.085E-03     178.010E-03
             566            1420     197.918E-03     211.875E-03
             566            1434     217.507E-03     224.515E-03
             566            1435     251.363E-03     258.337E-03
             567            1420     197.918E-03     211.875E-03
             567            1421     231.986E-03     245.629E-03
             567            1435     251.363E-03     258.337E-03
             567            1436     286.085E-03     292.421E-03
             568            1421     231.986E-03     245.629E-03
             568            1422     266.542E-03     279.515E-03
             568            1436     286.085E-03     292.421E-03
             568            1437     321.214E-03     326.514E-03
             569            1422     266.542E-03     279.515E-03
             569            1423     301.709E-03     313.687E-03
             569            1437     321.214E-03     326.514E-03
             569            1438     356.889E-03     360.385E-03
             570            1423     301.709E-03     313.687E-03
             570            1424     338.203E-03     348.907E-03
             570            1438     356.889E-03     360.385E-03
             570            1439     392.635E-03     393.964E-03
             571            1424     338.203E-03     348.907E-03
             571            1425     376.421E-03     385.682E-03
             571            1439     392.635E-03     393.964E-03
             571            1440     429.282E-03     427.426E-03
             572            1425     376.421E-03     385.682E-03
             572            1426     418.532E-03     426.426E-03
             572            1440     429.282E-03     427.426E-03
             572            1441     466.159E-03     461.212E-03
             573            1426     418.532E-03     426.426E-03
             573            1427     465.570E-03     472.690E-03
             573            1441     466.159E-03     461.212E-03
             573            1442     505.669E-03     497.129E-03
             574            1427     465.570E-03     472.690E-03
             574            1428     526.260E-03     534.357E-03
             574            1442     505.669E-03     497.129E-03
             574            1443     547.019E-03     536.957E-03
             575            1428     526.260E-03     534.357E-03
             575            1429     613.943E-03     618.643E-03
             575            1443     547.019E-03     536.957E-03
             575            1444     602.585E-03     603.646E-03
             576              85     665.237E-03     665.422E-03
             576              86     638.529E-03     649.276E-03
             576            1429     613.943E-03     618.643E-03
             576            1444     602.585E-03     603.646E-03
             577             131     145.159E-03     165.813E-03
             577             132     86.3189E-03     103.384E-03
             577            1430     99.8617E-03     111.335E-03
             577            1445     153.446E-03     168.167E-03
             578            1430     99.8617E-03     111.335E-03
             578            1431     126.353E-03     131.989E-03
             578            1445     153.446E-03     168.167E-03
             578            1446     174.479E-03     179.723E-03
             579            1431     126.353E-03     131.989E-03
             579            1432     154.174E-03     160.042E-03
             579            1446     174.479E-03     179.723E-03
             579            1447     202.388E-03     203.446E-03
             580            1432     154.174E-03     160.042E-03
             580            1433     184.886E-03     191.596E-03
             580            1447     202.388E-03     203.446E-03
             580            1448     234.257E-03     234.587E-03
             581            1433     184.886E-03     191.596E-03
             581            1434     217.507E-03     224.515E-03
             581            1448     234.257E-03     234.587E-03
             581            1449     269.090E-03     269.245E-03
             582            1434     217.507E-03     224.515E-03
             582            1435     251.363E-03     258.337E-03
             582            1449     269.090E-03     269.245E-03
             582            1450     305.979E-03     305.901E-03
             583            1435     251.363E-03     258.337E-03
             583            1436     286.085E-03     292.421E-03
             583            1450     305.979E-03     305.901E-03
             583            1451     344.036E-03     343.406E-03
             584            1436     286.085E-03     292.421E-03
             584            1437     321.214E-03     326.514E-03
             584            1451     344.036E-03     343.406E-03
             584            1452     382.718E-03     381.190E-03
             585            1437     321.214E-03     326.514E-03
             585            1438     356.889E-03     360.385E-03
             585            1452     382.718E-03     381.190E-03
             585            1453     421.424E-03     418.520E-03
             586            1438     356.889E-03     360.385E-03
             586            1439     392.635E-03     393.964E-03
             586            1453     421.424E-03     418.520E-03
             586            1454     459.826E-03     455.093E-03
             587            1439     392.635E-03     393.964E-03
             587            1440     429.282E-03     427.426E-03
             587            1454     459.826E-03     455.093E-03
             587            1455     497.090E-03     490.190E-03
             588            1440     429.282E-03     427.426E-03
             588            1441     466.159E-03     461.212E-03
             588            1455     497.090E-03     490.190E-03
             588            1456     533.115E-03     523.754E-03
             589            1441     466.159E-03     461.212E-03
             589            1442     505.669E-03     497.129E-03
             589            1456     533.115E-03     523.754E-03
             589            1457     566.289E-03     555.086E-03
             590            1442     505.669E-03     497.129E-03
             590            1443     547.019E-03     536.957E-03
             590            1457     566.289E-03     555.086E-03
             590            1458     596.644E-03     585.613E-03
             591            1443     547.019E-03     536.957E-03
             591            1444     602.585E-03     603.646E-03
             591            1458     596.644E-03     585.613E-03
             591            1459     623.649E-03     610.855E-03
             592              86     638.529E-03     649.276E-03
             592              87     635.627E-03     620.296E-03
             592            1444     602.585E-03     603.646E-03
             592            1459     623.649E-03     610.855E-03
             593             130     128.775E-03     133.019E-03
             593             131     145.159E-03     165.813E-03
             593            1445     153.446E-03     168.167E-03
             593            1460     133.734E-03     142.917E-03
             594            1445     153.446E-03     168.167E-03
             594            1446     174.479E-03     179.723E-03
             594            1460     133.734E-03     142.917E-03
             594            1461     153.154E-03     163.993E-03
             595            1446     174.479E-03     179.723E-03
             595            1447     202.388E-03     203.446E-03
             595            1461     153.154E-03     163.993E-03
             595            1462     185.497E-03     191.175E-03
             596            1447     202.388E-03     203.446E-03
             596            1448     234.257E-03     234.587E-03
             596            1462     185.497E-03     191.175E-03
             596            1463     222.516E-03     225.853E-03
             597            1448     234.257E-03     234.587E-03
             597            1449     269.090E-03     269.245E-03
             597            1463     222.516E-03     225.853E-03
             597            1464     261.891E-03     264.422E-03
             598            1449     269.090E-03     269.245E-03
             598            1450     305.979E-03     305.901E-03
             598            1464     261.891E-03     264.422E-03
             598            1465     302.974E-03     305.043E-03
             599            1450     305.979E-03     305.901E-03
             599            1451     344.036E-03     343.406E-03
             599            1465     302.974E-03     305.043E-03
             599            1466     345.019E-03     346.854E-03
             600            1451     344.036E-03     343.406E-03
             600            1452     382.718E-03     381.190E-03
             600            1466     345.019E-03     346.854E-03
             600            1467     387.681E-03     389.209E-03
             601            1452     382.718E-03     381.190E-03
             601            1453     421.424E-03     418.520E-03
             601            1467     387.681E-03     389.209E-03
             601            1468     430.496E-03     431.783E-03
             602            1453     421.424E-03     418.520E-03
             602            1454     459.826E-03     455.093E-03
             602            1468     430.496E-03     431.783E-03
             602            1469     472.984E-03     474.138E-03
             603            1454     459.826E-03     455.093E-03
             603            1455     497.090E-03     490.190E-03
             603            1469     472.984E-03     474.138E-03
             603            1470     514.668E-03     515.929E-03
             604            1455     497.090E-03     490.190E-03
             604            1456     533.115E-03     523.754E-03
             604            1470     514.668E-03     515.929E-03
             604            1471     554.506E-03     556.737E-03
             605            1456     533.115E-03     523.754E-03
             605            1457     566.289E-03     555.086E-03
             605            1471     554.506E-03     556.737E-03
             605            1472     591.765E-03     595.869E-03
             606            1457     566.289E-03     555.086E-03
             606            1458     596.644E-03     585.613E-03
             606            1472     591.765E-03     595.869E-03
             606            1473     626.354E-03     632.495E-03
             607            1458     596.644E-03     585.613E-03
             607            1459     623.649E-03     610.855E-03
             607            1473     626.354E-03     632.495E-03
             607            1474     656.942E-03     659.420E-03
             608              87     635.627E-03     620.296E-03
             608              88     670.913E-03     668.780E-03
             608            1459     623.649E-03     610.855E-03
             608            1474     656.942E-03     659.420E-03
             609             129     104.681E-03     106.259E-03
             609             130     128.775E-03     133.019E-03
             609            1460     133.734E-03     142.917E-03
             609            1475     113.443E-03     118.353E-03
             610            1460     133.734E-03     142.917E-03
             610            1461     153.154E-03     163.993E-03
             610            1475     113.443E-03     118.353E-03
             610            1476     137.385E-03     146.798E-03
             611            1461     153.154E-03     163.993E-03
             611            1462     185.497E-03     191.175E-03
             611            1476     137.385E-03     146.798E-03
             611            1477     172.231E-03     181.151E-03
             612            1462     185.497E-03     191.175E-03
             612            1463     222.516E-03     225.853E-03
             612            1477     172.231E-03     181.151E-03
             612            1478     213.142E-03     219.602E-03
             613            1463     222.516E-03     225.853E-03
             613            1464     261.891E-03     264.422E-03
             613            1478     213.142E-03     219.602E-03
             613            1479     256.304E-03     261.645E-03
             614            1464     261.891E-03     264.422E-03
             614            1465     302.974E-03     305.043E-03
             614            1479     256.304E-03     261.645E-03
             614            1480     300.665E-03     305.582E-03
             615            1465     302.974E-03     305.043E-03
             615            1466     345.019E-03     346.854E-03
             615            1480     300.665E-03     305.582E-03
             615            1481     345.915E-03     350.783E-03
             616            1466     345.019E-03     346.854E-03
             616            1467     387.681E-03     389.209E-03
             616            1481     345.915E-03     350.783E-03
             616            1482     391.601E-03     396.810E-03
             617            1467     387.681E-03     389.209E-03
             617            1468     430.496E-03     431.783E-03
             617            1482     391.601E-03     396.810E-03
             617            1483     437.624E-03     443.427E-03
             618            1468     430.496E-03     431.783E-03
             618            1469     472.984E-03     474.138E-03
             618            1483     437.624E-03     443.427E-03
             618            1484     483.415E-03     490.316E-03
             619            1469     472.984E-03     474.138E-03
             619            1470     514.668E-03     515.929E-03
             619            1484     483.415E-03     490.316E-03
             619            1485     528.619E-03     537.051E-03
             620            1470     514.668E-03     515.929E-03
             620            1471     554.506E-03     556.737E-03
             620            1485     528.619E-03     537.051E-03
             620            1486     572.176E-03     582.734E-03
             621            1471     554.506E-03     556.737E-03
             621            1472     591.765E-03     595.869E-03
             621            1486     572.176E-03     582.734E-03
             621            1487     613.545E-03     626.163E-03
             622            1472     591.765E-03     595.869E-03
             622            1473     626.354E-03     632.495E-03
             622            1487     613.545E-03     626.163E-03
             622            1488     651.526E-03     663.646E-03
             623            1473     626.354E-03     632.495E-03
             623            1474     656.942E-03     659.420E-03
             623            1488     651.526E-03     663.646E-03
             623            1489     685.491E-03     693.809E-03
             624              88     670.913E-03     668.780E-03
             624              89     701.843E-03     707.532E-03
             624            1474     656.942E-03     659.420E-03
             624            1489     685.491E-03     693.809E-03
             625             128     84.1415E-03     86.7992E-03
             625             129     104.681E-03     106.259E-03
             625            1475     113.443E-03     118.353E-03
             625            1490     94.5956E-03     99.7862E-03
             626            1475     113.443E-03     118.353E-03
             626            1476     137.385E-03     146.798E-03
             626            1490     94.5956E-03     99.7862E-03
             626            1491     122.929E-03     131.901E-03
             627            1476     137.385E-03     146.798E-03
             627            1477     172.231E-03     181.151E-03
             627            1491     122.929E-03     131.901E-03
             627            1492     161.805E-03     171.838E-03
             628            1477     172.231E-03     181.151E-03
             628            1478     213.142E-03     219.602E-03
             628            1492     161.805E-03     171.838E-03
             628            1493     205.413E-03     214.480E-03
             629            1478     213.142E-03     219.602E-03
             629            1479     256.304E-03     261.645E-03
             629            1493     205.413E-03     214.480E-03
             629            1494     251.197E-03     259.246E-03
             630            1479     256.304E-03     261.645E-03
             630            1480     300.665E-03     305.582E-03
             630            1494     251.197E-03     259.246E-03
             630            1495     297.946E-03     305.684E-03
             631            1480     300.665E-03     305.582E-03
             631            1481     345.915E-03     350.783E-03
             631            1495     297.946E-03     305.684E-03
             631            1496     345.280E-03     353.227E-03
             632            1481     345.915E-03     350.783E-03
             632            1482     391.601E-03     396.810E-03
             632            1496     345.280E-03     353.227E-03
             632            1497     393.171E-03     401.790E-03
             633            1482     391.601E-03     396.810E-03
             633            1483     437.624E-03     443.427E-03
             633            1497     393.171E-03     401.790E-03
             633            1498     441.249E-03     451.112E-03
             634            1483     437.624E-03     443.427E-03
             634            1484     483.415E-03     490.316E-03
             634            1498     441.249E-03     451.112E-03
             634            1499     489.730E-03     501.125E-03
             635            1484     483.415E-03     490.316E-03
             635            1485     528.619E-03     537.051E-03
             635            1499     489.730E-03     501.125E-03
             635            1500     537.702E-03     551.279E-03
             636            1485     528.619E-03     537.051E-03
             636            1486     572.176E-03     582.734E-03
             636            1500     537.702E-03     551.279E-03
             636            1501     585.034E-03     600.425E-03
             637            1486     572.176E-03     582.734E-03
             637            1487     613.545E-03     626.163E-03
             637            1501     585.034E-03     600.425E-03
             637            1502     630.270E-03     646.245E-03
             638            1487     613.545E-03     626.163E-03
             638            1488     651.526E-03     663.646E-03
             638            1502     630.270E-03     646.245E-03
             638            1503     671.764E-03     686.210E-03
             639            1488     651.526E-03     663.646E-03
             639            1489     685.491E-03     693.809E-03
             639            1503     671.764E-03     686.210E-03
             639            1504     711.405E-03     717.862E-03
             640              89     701.843E-03     707.532E-03
             640              90     730.895E-03     731.162E-03
             640            1489     685.491E-03     693.809E-03
             640            1504     711.405E-03     717.862E-03
             641             127     63.7780E-03     65.2156E-03
             641             128     84.1415E-03     86.7992E-03
             641            1490     94.5956E-03     99.7862E-03
             641            1505     76.8136E-03     82.6119E-03
             642            1490     94.5956E-03     99.7862E-03
             642            1491     122.929E-03     131.901E-03
             642            1505     76.8136E-03     82.6119E-03
             642            1506     110.070E-03     120.503E-03
             643            1491     122.929E-03     131.901E-03
             643            1492     161.805E-03     171.838E-03
             643            1506     110.070E-03     120.503E-03
             643            1507     152.755E-03     163.648E-03
             644            1492     161.805E-03     171.838E-03
             644            1493     205.413E-03     214.480E-03
             644            1507     152.755E-03     163.648E-03
             644            1508     198.601E-03     209.448E-03
             645            1493     205.413E-03     214.480E-03
             645            1494     251.197E-03     259.246E-03
             645            1508     198.601E-03     209.448E-03
             645            1509     245.944E-03     256.248E-03
             646            1494     251.197E-03     259.246E-03
             646            1495     297.946E-03     305.684E-03
             646            1509     245.944E-03     256.248E-03
             646            1510     294.023E-03     304.160E-03
             647            1495     297.946E-03     305.684E-03
             647            1496     345.280E-03     353.227E-03
             647            1510     294.023E-03     304.160E-03
             647            1511     342.570E-03     353.102E-03
             648            1496     345.280E-03     353.227E-03
             648            1497     393.171E-03     401.790E-03
             648            1511     342.570E-03     353.102E-03
             648            1512     391.478E-03     402.890E-03
             649            1497     393.171E-03     401.790E-03
             649            1498     441.249E-03     451.112E-03
             649            1512     391.478E-03     402.890E-03
             649            1513     441.002E-03     453.719E-03
             650            1498     441.249E-03     451.112E-03
             650            1499     489.730E-03     501.125E-03
             650            1513     441.002E-03     453.719E-03
             650            1514     490.757E-03     505.375E-03
             651            1499     489.730E-03     501.125E-03
             651            1500     537.702E-03     551.279E-03
             651            1514     490.757E-03     505.375E-03
             651            1515     541.521E-03     557.792E-03
             652            1500     537.702E-03     551.279E-03
             652            1501     585.034E-03     600.425E-03
             652            1515     541.521E-03     557.792E-03
             652            1516     592.092E-03     609.924E-03
             653            1501     585.034E-03     600.425E-03
             653            1502     630.270E-03     646.245E-03
             653            1516     592.092E-03     609.924E-03
             653            1517     641.693E-03     659.349E-03
             654            1502     630.270E-03     646.245E-03
             654            1503     671.764E-03     686.210E-03
             654            1517     641.693E-03     659.349E-03
             654            1518     689.440E-03     702.794E-03
             655            1503     671.764E-03     686.210E-03
             655            1504     711.405E-03     717.862E-03
             655            1518     689.440E-03     702.794E-03
             655            1519     731.891E-03     740.848E-03
             656              90     730.895E-03     731.162E-03
             656              91     751.676E-03     759.233E-03
             656            1504     711.405E-03     717.862E-03
             656            1519     731.891E-03     740.848E-03
             657             126     43.0268E-03     49.1423E-03
             657             127     63.7780E-03     65.2156E-03
             657            1505     76.8136E-03     82.6119E-03
             657            1520     60.2578E-03     68.4322E-03
             658            1505     76.8136E-03     82.6119E-03
             658            1506     110.070E-03     120.503E-03
             658            1520     60.2578E-03     68.4322E-03
             658            1521     99.3975E-03     110.923E-03
             659            1506     110.070E-03     120.503E-03
             659            1507     152.755E-03     163.648E-03
             659            1521     99.3975E-03     110.923E-03
             659            1522     144.774E-03     157.296E-03
             660            1507     152.755E-03     163.648E-03
             660            1508     198.601E-03     209.448E-03
             660            1522     144.774E-03     157.296E-03
             660            1523     192.207E-03     204.273E-03
             661            1508     198.601E-03     209.448E-03
             661            1509     245.944E-03     256.248E-03
             661            1523     192.207E-03     204.273E-03
             661            1524     240.277E-03     252.233E-03
             662            1509     245.944E-03     256.248E-03
             662            1510     294.023E-03     304.160E-03
             662            1524     240.277E-03     252.233E-03
             662            1525     288.719E-03     300.774E-03
             663            1510     294.023E-03     304.160E-03
             663            1511     342.570E-03     353.102E-03
             663            1525     288.719E-03     300.774E-03
             663            1526     337.505E-03     349.955E-03
             664            1511     342.570E-03     353.102E-03
             664            1512     391.478E-03     402.890E-03
             664            1526     337.505E-03     349.955E-03
             664            1527     386.700E-03     399.973E-03
             665            1512     391.478E-03     402.890E-03
             665            1513     441.002E-03     453.719E-03
             665            1527     386.700E-03     399.973E-03
             665            1528     436.351E-03     450.843E-03
             666            1513     441.002E-03     453.719E-03
             666            1514     490.757E-03     505.375E-03
             666            1528     436.351E-03     450.843E-03
             666            1529     487.044E-03     502.999E-03
             667            1514     490.757E-03     505.375E-03
             667            1515     541.521E-03     557.792E-03
             667            1529     487.044E-03     502.999E-03
             667            1530     538.616E-03     556.297E-03
             668            1515     541.521E-03     557.792E-03
             668            1516     592.092E-03     609.924E-03
             668            1530     538.616E-03     556.297E-03
             668            1531     592.844E-03     611.080E-03
             669            1516     592.092E-03     609.924E-03
             669            1517     641.693E-03     659.349E-03
             669            1531     592.844E-03     611.080E-03
             669            1532     648.193E-03     665.757E-03
             670            1517     641.693E-03     659.349E-03
             670            1518     689.440E-03     702.794E-03
             670            1532     648.193E-03     665.757E-03
             670            1533     701.734E-03     717.017E-03
             671            1518     689.440E-03     702.794E-03
             671            1519     731.891E-03     740.848E-03
             671            1533     701.734E-03     717.017E-03
             671            1534     753.081E-03     759.897E-03
             672              91     751.676E-03     759.233E-03
             672              92     777.788E-03     778.198E-03
             672            1519     731.891E-03     740.848E-03
             672            1534     753.081E-03     759.897E-03
             673             125     26.6403E-03     34.6798E-03
             673             126     43.0268E-03     49.1423E-03
             673            1520     60.2578E-03     68.4322E-03
             673            1535     47.0418E-03     58.4470E-03
             674            1520     60.2578E-03     68.4322E-03
             674            1521     99.3975E-03     110.923E-03
             674            1535     47.0418E-03     58.4470E-03
             674            1536     91.1229E-03     105.231E-03
             675            1521     99.3975E-03     110.923E-03
             675            1522     144.774E-03     157.296E-03
             675            1536     91.1229E-03     105.231E-03
             675            1537     138.655E-03     151.961E-03
             676            1522     144.774E-03     157.296E-03
             676            1523     192.207E-03     204.273E-03
             676            1537     138.655E-03     151.961E-03
             676            1538     186.379E-03     199.614E-03
             677            1523     192.207E-03     204.273E-03
             677            1524     240.277E-03     252.233E-03
             677            1538     186.379E-03     199.614E-03
             677            1539     234.221E-03     247.569E-03
             678            1524     240.277E-03     252.233E-03
             678            1525     288.719E-03     300.774E-03
             678            1539     234.221E-03     247.569E-03
             678            1540     282.251E-03     295.792E-03
             679            1525     288.719E-03     300.774E-03
             679            1526     337.505E-03     349.955E-03
             679            1540     282.251E-03     295.792E-03
             679            1541     330.481E-03     344.345E-03
             680            1526     337.505E-03     349.955E-03
             680            1527     386.700E-03     399.973E-03
             680            1541     330.481E-03     344.345E-03
             680            1542     379.061E-03     393.392E-03
             681            1527     386.700E-03     399.973E-03
             681            1528     436.351E-03     450.843E-03
             681            1542     379.061E-03     393.392E-03
             681            1543     428.199E-03     443.281E-03
             682            1528     436.351E-03     450.843E-03
             682            1529     487.044E-03     502.999E-03
             682            1543     428.199E-03     443.281E-03
             682            1544     478.319E-03     494.292E-03
             683            1529     487.044E-03     502.999E-03
             683            1530     538.616E-03     556.297E-03
             683            1544     478.319E-03     494.292E-03
             683            1545     530.343E-03     547.359E-03
             684            1530     538.616E-03     556.297E-03
             684            1531     592.844E-03     611.080E-03
             684            1545     530.343E-03     547.359E-03
             684            1546     584.973E-03     602.808E-03
             685            1531     592.844E-03     611.080E-03
             685            1532     648.193E-03     665.757E-03
             685            1546     584.973E-03     602.808E-03
             685            1547     646.471E-03     663.062E-03
             686            1532     648.193E-03     665.757E-03
             686            1533     701.734E-03     717.017E-03
             686            1547     646.471E-03     663.062E-03
             686            1548     711.157E-03     724.540E-03
             687            1533     701.734E-03     717.017E-03
             687            1534     753.081E-03     759.897E-03
             687            1548     711.157E-03     724.540E-03
             687            1549     769.027E-03     780.553E-03
             688              92     777.788E-03     778.198E-03
             688              93     795.711E-03     807.135E-03
             688            1534     753.081E-03     759.897E-03
             688            1549     769.027E-03     780.553E-03
             689             124     20.7252E-03     37.4850E-03
             689             125     26.6403E-03     34.6798E-03
             689            1535     47.0418E-03     58.4470E-03
             689            1550     42.7703E-03     58.8222E-03
             690            1535     47.0418E-03     58.4470E-03
             690            1536     91.1229E-03     105.231E-03
             690            1550     42.7703E-03     58.8222E-03
             690            1551     88.3420E-03     102.818E-03
             691            1536     91.1229E-03     105.231E-03
             691            1537     138.655E-03     151.961E-03
             691            1551     88.3420E-03     102.818E-03
             691            1552     135.138E-03     149.040E-03
             692            1537     138.655E-03     151.961E-03
             692            1538     186.379E-03     199.614E-03
             692            1552     135.138E-03     149.040E-03
             692            1553     181.690E-03     196.148E-03
             693            1538     186.379E-03     199.614E-03
             693            1539     234.221E-03     247.569E-03
             693            1553     181.690E-03     196.148E-03
             693            1554     228.369E-03     243.218E-03
             694            1539     234.221E-03     247.569E-03
             694            1540     282.251E-03     295.792E-03
             694            1554     228.369E-03     243.218E-03
             694            1555     275.196E-03     290.212E-03
             695            1540     282.251E-03     295.792E-03
             695            1541     330.481E-03     344.345E-03
             695            1555     275.196E-03     290.212E-03
             695            1556     322.221E-03     337.278E-03
             696            1541     330.481E-03     344.345E-03
             696            1542     379.061E-03     393.392E-03
             696            1556     322.221E-03     337.278E-03
             696            1557     369.492E-03     384.491E-03
             697            1542     379.061E-03     393.392E-03
             697            1543     428.199E-03     443.281E-03
             697            1557     369.492E-03     384.491E-03
             697            1558     417.402E-03     432.233E-03
             698            1543     428.199E-03     443.281E-03
             698            1544     478.319E-03     494.292E-03
             698            1558     417.402E-03     432.233E-03
             698            1559     466.163E-03     480.966E-03
             699            1544     478.319E-03     494.292E-03
             699            1545     530.343E-03     547.359E-03
             699            1559     466.163E-03     480.966E-03
             699            1560     517.039E-03     531.636E-03
             700            1545     530.343E-03     547.359E-03
             700            1546     584.973E-03     602.808E-03
             700            1560     517.039E-03     531.636E-03
             700            1561     571.147E-03     585.998E-03
             701            1546     584.973E-03     602.808E-03
             701            1547     646.471E-03     663.062E-03
             701            1561     571.147E-03     585.998E-03
             701            1562     631.551E-03     646.366E-03
             702            1547     646.471E-03     663.062E-03
             702            1548     711.157E-03     724.540E-03
             702            1562     631.551E-03     646.366E-03
             702            1563     708.109E-03     719.553E-03
             703            1548     711.157E-03     724.540E-03
             703            1549     769.027E-03     780.553E-03
             703            1563     708.109E-03     719.553E-03
             703            1564     786.906E-03     789.729E-03
             704              93     795.711E-03     807.135E-03
             704              94     821.789E-03     818.789E-03
             704            1549     769.027E-03     780.553E-03
             704            1564     786.906E-03     789.729E-03
             705             123     34.1507E-03     50.8115E-03
             705             124     20.7252E-03     37.4850E-03
             705            1550     42.7703E-03     58.8222E-03
             705            1565     53.1547E-03     67.2082E-03
             706            1550     42.7703E-03     58.8222E-03
             706            1551     88.3420E-03     102.818E-03
             706            1565     53.1547E-03     67.2082E-03
             706            1566     92.8640E-03     105.542E-03
             707            1551     88.3420E-03     102.818E-03
             707            1552     135.138E-03     149.040E-03
             707            1566     92.8640E-03     105.542E-03
             707            1567     135.297E-03     150.057E-03
             708            1552     135.138E-03     149.040E-03
             708            1553     181.690E-03     196.148E-03
             708            1567     135.297E-03     150.057E-03
             708            1568     179.173E-03     195.246E-03
             709            1553     181.690E-03     196.148E-03
             709            1554     228.369E-03     243.218E-03
             709            1568     179.173E-03     195.246E-03
             709            1569     223.690E-03     240.434E-03
             710            1554     228.369E-03     243.218E-03
             710            1555     275.196E-03     290.212E-03
             710            1569     223.690E-03     240.434E-03
             710            1570     268.583E-03     285.509E-03
             711            1555     275.196E-03     290.212E-03
             711            1556     322.221E-03     337.278E-03
             711            1570     268.583E-03     285.509E-03
             711            1571     313.732E-03     330.309E-03
             712            1556     322.221E-03     337.278E-03
             712            1557     369.492E-03     384.491E-03
             712            1571     313.732E-03     330.309E-03
             712            1572     359.281E-03     375.097E-03
             713            1557     369.492E-03     384.491E-03
             713            1558     417.402E-03     432.233E-03
             713            1572     359.281E-03     375.097E-03
             713            1573     405.254E-03     419.837E-03
             714            1558     417.402E-03     432.233E-03
             714            1559     466.163E-03     480.966E-03
             714            1573     405.254E-03     419.837E-03
             714            1574     452.432E-03     465.332E-03
             715            1559     466.163E-03     480.966E-03
             715            1560     517.039E-03     531.636E-03
             715            1574     452.432E-03     465.332E-03
             715            1575     501.008E-03     511.949E-03
             716            1560     517.039E-03     531.636E-03
             716            1561     571.147E-03     585.998E-03
             716            1575     501.008E-03     511.949E-03
             716            1576     553.520E-03     562.327E-03
             717            1561     571.147E-03     585.998E-03
             717            1562     631.551E-03     646.366E-03
             717            1576     553.520E-03     562.327E-03
             717            1577     610.717E-03     618.127E-03
             718            1562     631.551E-03     646.366E-03
             718            1563     708.109E-03     719.553E-03
             718            1577     610.717E-03     618.127E-03
             718            1578     682.566E-03     690.645E-03
             719            1563     708.109E-03     719.553E-03
             719            1564     786.906E-03     789.729E-03
             719            1578     682.566E-03     690.645E-03
             719            1579     783.742E-03     787.318E-03
             720              94     821.789E-03     818.789E-03
             720              95     842.201E-03     840.269E-03
             720            1564     786.906E-03     789.729E-03
             720            1579     783.742E-03     787.318E-03
             721             122     86.8589E-03     101.860E-03
             721             123     34.1507E-03     50.8115E-03
             721            1565     53.1547E-03     67.2082E-03
             721            1580     103.364E-03     113.428E-03
             722            1565     53.1547E-03     67.2082E-03
             722            1566     92.8640E-03     105.542E-03
             722            1580     103.364E-03     113.428E-03
             722            1581     137.928E-03     143.534E-03
             723            1566     92.8640E-03     105.542E-03
             723            1567     135.297E-03     150.057E-03
             723            1581     137.928E-03     143.534E-03
             723            1582     177.127E-03     183.688E-03
             724            1567     135.297E-03     150.057E-03
             724            1568     179.173E-03     195.246E-03
             724            1582     177.127E-03     183.688E-03
             724            1583     220.452E-03     228.089E-03
             725            1568     179.173E-03     195.246E-03
             725            1569     223.690E-03     240.434E-03
             725            1583     220.452E-03     228.089E-03
             725            1584     265.886E-03     273.837E-03
             726            1569     223.690E-03     240.434E-03
             726            1570     268.583E-03     285.509E-03
             726            1584     265.886E-03     273.837E-03
             726            1585     312.433E-03     320.458E-03
             727            1570     268.583E-03     285.509E-03
             727            1571     313.732E-03     330.309E-03
             727            1585     312.433E-03     320.458E-03
             727            1586     359.631E-03     367.228E-03
             728            1571     313.732E-03     330.309E-03
             728            1572     359.281E-03     375.097E-03
             728            1586     359.631E-03     367.228E-03
             728            1587     406.978E-03     414.087E-03
             729            1572     359.281E-03     375.097E-03
             729            1573     405.254E-03     419.837E-03
             729            1587     406.978E-03     414.087E-03
             729            1588     454.670E-03     460.534E-03
             730            1573     405.254E-03     419.837E-03
             730            1574     452.432E-03     465.332E-03
             730            1588     454.670E-03     460.534E-03
             730            1589     502.283E-03     506.690E-03
             731            1574     452.432E-03     465.332E-03
             731            1575     501.008E-03     511.949E-03
             731            1589     502.283E-03     506.690E-03
             731            1590     550.713E-03     552.355E-03
             732            1575     501.008E-03     511.949E-03
             732            1576     553.520E-03     562.327E-03
             732            1590     550.713E-03     552.355E-03
             732            1591     598.870E-03     597.416E-03
             733            1576     553.520E-03     562.327E-03
             733            1577     610.717E-03     618.127E-03
             733            1591     598.870E-03     597.416E-03
             733            1592     649.676E-03     643.641E-03
             734            1577     610.717E-03     618.127E-03
             734            1578     682.566E-03     690.645E-03
             734            1592     649.676E-03     643.641E-03
             734            1593     700.467E-03     691.988E-03
             735            1578     682.566E-03     690.645E-03
             735            1579     783.742E-03     787.318E-03
             735            1593     700.467E-03     691.988E-03
             735            1594     767.156E-03     771.689E-03
             736              95     842.201E-03     840.269E-03
             736              96     810.767E-03     826.418E-03
             736            1579     783.742E-03     787.318E-03
             736            1594     767.156E-03     771.689E-03
             737             121     117.767E-03     135.646E-03
             737             122     86.8589E-03     101.860E-03
             737            1580     103.364E-03     113.428E-03
             737            1595     131.363E-03     143.033E-03
             738            1580     103.364E-03     113.428E-03
             738            1581     137.928E-03     143.534E-03
             738            1595     131.363E-03     143.033E-03
             738            1596     164.596E-03     167.762E-03
             739            1581     137.928E-03     143.534E-03
             739            1582     177.127E-03     183.688E-03
             739            1596     164.596E-03     167.762E-03
             739            1597     206.968E-03     207.653E-03
             740            1582     177.127E-03     183.688E-03
             740            1583     220.452E-03     228.089E-03
             740            1597     206.968E-03     207.653E-03
             740            1598     253.901E-03     254.287E-03
             741            1583     220.452E-03     228.089E-03
             741            1584     265.886E-03     273.837E-03
             741            1598     253.901E-03     254.287E-03
             741            1599     303.409E-03     303.682E-03
             742            1584     265.886E-03     273.837E-03
             742            1585     312.433E-03     320.458E-03
             742            1599     303.409E-03     303.682E-03
             742            1600     354.406E-03     354.701E-03
             743            1585     312.433E-03     320.458E-03
             743            1586     359.631E-03     367.228E-03
             743            1600     354.406E-03     354.701E-03
             743            1601     406.168E-03     406.393E-03
             744            1586     359.631E-03     367.228E-03
             744            1587     406.978E-03     414.087E-03
             744            1601     406.168E-03     406.393E-03
             744            1602     458.191E-03     458.425E-03
             745            1587     406.978E-03     414.087E-03
             745            1588     454.670E-03     460.534E-03
             745            1602     458.191E-03     458.425E-03
             745            1603     510.352E-03     510.306E-03
             746            1588     454.670E-03     460.534E-03
             746            1589     502.283E-03     506.690E-03
             746            1603     510.352E-03     510.306E-03
             746            1604     562.189E-03     561.852E-03
             747            1589     502.283E-03     506.690E-03
             747            1590     550.713E-03     552.355E-03
             747            1604     562.189E-03     561.852E-03
             747            1605     613.675E-03     612.286E-03
             748            1590     550.713E-03     552.355E-03
             748            1591     598.870E-03     597.416E-03
             748            1605     613.675E-03     612.286E-03
             748            1606     664.133E-03     661.342E-03
             749            1591     598.870E-03     597.416E-03
             749            1592     649.676E-03     643.641E-03
             749            1606     664.133E-03     661.342E-03
             749            1607     710.877E-03     706.828E-03
             750            1592     649.676E-03     643.641E-03
             750            1593     700.467E-03     691.988E-03
             750            1607     710.877E-03     706.828E-03
             750            1608     754.152E-03     749.125E-03
             751            1593     700.467E-03     691.988E-03
             751            1594     767.156E-03     771.689E-03
             751            1608     754.152E-03     749.125E-03
             751            1609     791.226E-03     783.889E-03
             752              96     810.767E-03     826.418E-03
             752              97     807.174E-03     797.508E-03
             752            1594     767.156E-03     771.689E-03
             752            1609     791.226E-03     783.889E-03
             753             120     91.7498E-03     96.1654E-03
             753             121     117.767E-03     135.646E-03
             753            1595     131.363E-03     143.033E-03
             753            1610     104.071E-03     112.714E-03
             754            1595     131.363E-03     143.033E-03
             754            1596     164.596E-03     167.762E-03
             754            1610     104.071E-03     112.714E-03
             754            1611     139.205E-03     149.237E-03
             755            1596     164.596E-03     167.762E-03
             755            1597     206.968E-03     207.653E-03
             755            1611     139.205E-03     149.237E-03
             755            1612     187.344E-03     193.540E-03
             756            1597     206.968E-03     207.653E-03
             756            1598     253.901E-03     254.287E-03
             756            1612     187.344E-03     193.540E-03
             756            1613     238.750E-03     243.845E-03
             757            1598     253.901E-03     254.287E-03
             757            1599     303.409E-03     303.682E-03
             757            1613     238.750E-03     243.845E-03
             757            1614     291.546E-03     296.602E-03
             758            1599     303.409E-03     303.682E-03
             758            1600     354.406E-03     354.701E-03
             758            1614     291.546E-03     296.602E-03
             758            1615     345.341E-03     350.478E-03
             759            1600     354.406E-03     354.701E-03
             759            1601     406.168E-03     406.393E-03
             759            1615     345.341E-03     350.478E-03
             759            1616     399.704E-03     405.001E-03
             760            1601     406.168E-03     406.393E-03
             760            1602     458.191E-03     458.425E-03
             760            1616     399.704E-03     405.001E-03
             760            1617     454.617E-03     459.938E-03
             761            1602     458.191E-03     458.425E-03
             761            1603     510.352E-03     510.306E-03
             761            1617     454.617E-03     459.938E-03
             761            1618     509.844E-03     515.309E-03
             762            1603     510.352E-03     510.306E-03
             762            1604     562.189E-03     561.852E-03
             762            1618     509.844E-03     515.309E-03
             762            1619     565.590E-03     571.264E-03
             763            1604     562.189E-03     561.852E-03
             763            1605     613.675E-03     612.286E-03
             763            1619     565.590E-03     571.264E-03
             763            1620     621.332E-03     627.867E-03
             764            1605     613.675E-03     612.286E-03
             764            1606     664.133E-03     661.342E-03
             764            1620     621.332E-03     627.867E-03
             764            1621     677.921E-03     685.867E-03
             765            1606     664.133E-03     661.342E-03
             765            1607     710.877E-03     706.828E-03
             765            1621     677.921E-03     685.867E-03
             765            1622     732.953E-03     744.038E-03
             766            1607     710.877E-03     706.828E-03
             766            1608     754.152E-03     749.125E-03
             766            1622     732.953E-03     744.038E-03
             766            1623     784.934E-03     799.704E-03
             767            1608     754.152E-03     749.125E-03
             767            1609     791.226E-03     783.889E-03
             767            1623     784.934E-03     799.704E-03
             767            1624     829.462E-03     836.207E-03
             768              97     807.174E-03     797.508E-03
             768              98     848.043E-03     845.725E-03
             768            1609     791.226E-03     783.889E-03
             768            1624     829.462E-03     836.207E-03
             769             119     59.4173E-03     61.9828E-03
             769             120     91.7498E-03     96.1654E-03
             769            1610     104.071E-03     112.714E-03
             769            1625     77.2546E-03     85.4342E-03
             770            1610     104.071E-03     112.714E-03
             770            1611     139.205E-03     149.237E-03
             770            1625     77.2546E-03     85.4342E-03
             770            1626     120.125E-03     133.514E-03
             771            1611     139.205E-03     149.237E-03
             771            1612     187.344E-03     193.540E-03
             771            1626     120.125E-03     133.514E-03
             771            1627     172.284E-03     183.967E-03
             772            1612     187.344E-03     193.540E-03
             772            1613     238.750E-03     243.845E-03
             772            1627     172.284E-03     183.967E-03
             772            1628     226.894E-03     237.291E-03
             773            1613     238.750E-03     243.845E-03
             773            1614     291.546E-03     296.602E-03
             773            1628     226.894E-03     237.291E-03
             773            1629     282.016E-03     292.368E-03
             774            1614     291.546E-03     296.602E-03
             774            1615     345.341E-03     350.478E-03
             774            1629     282.016E-03     292.368E-03
             774            1630     337.534E-03     348.006E-03
             775            1615     345.341E-03     350.478E-03
             775            1616     399.704E-03     405.001E-03
             775            1630     337.534E-03     348.006E-03
             775            1631     393.527E-03     404.100E-03
             776            1616     399.704E-03     405.001E-03
             776            1617     454.617E-03     459.938E-03
             776            1631     393.527E-03     404.100E-03
             776            1632     449.867E-03     460.583E-03
             777            1617     454.617E-03     459.938E-03
             777            1618     509.844E-03     515.309E-03
             777            1632     449.867E-03     460.583E-03
             777            1633     506.673E-03     517.623E-03
             778            1618     509.844E-03     515.309E-03
             778            1619     565.590E-03     571.264E-03
             778            1633     506.673E-03     517.623E-03
             778            1634     563.823E-03     575.440E-03
             779            1619     565.590E-03     571.264E-03
             779            1620     621.332E-03     627.867E-03
             779            1634     563.823E-03     575.440E-03
             779            1635     621.824E-03     634.966E-03
             780            1620     621.332E-03     627.867E-03
             780            1621     677.921E-03     685.867E-03
             780            1635     621.824E-03     634.966E-03
             780            1636     679.908E-03     696.250E-03
             781            1621     677.921E-03     685.867E-03
             781            1622     732.953E-03     744.038E-03
             781            1636     679.908E-03     696.250E-03
             781            1637     742.869E-03     761.944E-03
             782            1622     732.953E-03     744.038E-03
             782            1623     784.934E-03     799.704E-03
             782            1637     742.869E-03     761.944E-03
             782            1638     804.840E-03     824.584E-03
             783            1623     784.934E-03     799.704E-03
             783            1624     829.462E-03     836.207E-03
             783            1638     804.840E-03     824.584E-03
             783            1639     854.224E-03     873.972E-03
             784              98     848.043E-03     845.725E-03
             784              99     875.941E-03     895.425E-03
             784            1624     829.462E-03     836.207E-03
             784            1639     854.224E-03     873.972E-03
             785             118     30.1507E-03     49.3037E-03
             785             119     59.4173E-03     61.9828E-03
             785            1625     77.2546E-03     85.4342E-03
             785            1640     55.4417E-03     72.4907E-03
             786            1625     77.2546E-03     85.4342E-03
             786            1626     120.125E-03     133.514E-03
             786            1640     55.4417E-03     72.4907E-03
             786            1641     107.917E-03     123.415E-03
             787            1626     120.125E-03     133.514E-03
             787            1627     172.284E-03     183.967E-03
             787            1641     107.917E-03     123.415E-03
             787            1642     162.831E-03     179.007E-03
             788            1627     172.284E-03     183.967E-03
             788            1628     226.894E-03     237.291E-03
             788            1642     162.831E-03     179.007E-03
             788            1643     218.547E-03     234.586E-03
             789            1628     226.894E-03     237.291E-03
             789            1629     282.016E-03     292.368E-03
             789            1643     218.547E-03     234.586E-03
             789            1644     274.521E-03     290.515E-03
             790            1629     282.016E-03     292.368E-03
             790            1630     337.534E-03     348.006E-03
             790            1644     274.521E-03     290.515E-03
             790            1645     330.630E-03     346.708E-03
             791            1630     337.534E-03     348.006E-03
             791            1631     393.527E-03     404.100E-03
             791            1645     330.630E-03     346.708E-03
             791            1646     386.858E-03     403.003E-03
             792            1631     393.527E-03     404.100E-03
             792            1632     449.867E-03     460.583E-03
             792            1646     386.858E-03     403.003E-03
             792            1647     443.244E-03     459.414E-03
             793            1632     449.867E-03     460.583E-03
             793            1633     506.673E-03     517.623E-03
             793            1647     443.244E-03     459.414E-03
             793            1648     499.807E-03     516.077E-03
             794            1633     506.673E-03     517.623E-03
             794            1634     563.823E-03     575.440E-03
             794            1648     499.807E-03     516.077E-03
             794            1649     556.569E-03     573.202E-03
             795            1634     563.823E-03     575.440E-03
             795            1635     621.824E-03     634.966E-03
             795            1649     556.569E-03     573.202E-03
             795            1650     613.727E-03     631.254E-03
             796            1635     621.824E-03     634.966E-03
             796            1636     679.908E-03     696.250E-03
             796            1650     613.727E-03     631.254E-03
             796            1651     672.128E-03     691.569E-03
             797            1636     679.908E-03     696.250E-03
             797            1637     742.869E-03     761.944E-03
             797            1651     672.128E-03     691.569E-03
             797            1652     732.959E-03     754.966E-03
             798            1637     742.869E-03     761.944E-03
             798            1638     804.840E-03     824.584E-03
             798            1652     732.959E-03     754.966E-03
             798            1653     806.021E-03     826.725E-03
             799            1638     804.840E-03     824.584E-03
             799            1639     854.224E-03     873.972E-03
             799            1653     806.021E-03     826.725E-03
             799            1654     879.088E-03     886.467E-03
             800              99     875.941E-03     895.425E-03
             800             100     910.202E-03     907.016E-03
             800            1639     854.224E-03     873.972E-03
             800            1654     879.088E-03     886.467E-03
             801             117     26.4207E-03     45.0212E-03
             801             118     30.1507E-03     49.3037E-03
             801            1640     55.4417E-03     72.4907E-03
             801            1655     52.4709E-03     70.5848E-03
             802            1640     55.4417E-03     72.4907E-03
             802            1641     107.917E-03     123.415E-03
             802            1655     52.4709E-03     70.5848E-03
             802            1656     105.208E-03     123.909E-03
             803            1641     107.917E-03     123.415E-03
             803            1642     162.831E-03     179.007E-03
             803            1656     105.208E-03     123.909E-03
             803            1657     159.270E-03     179.896E-03
             804            1642     162.831E-03     179.007E-03
             804            1643     218.547E-03     234.586E-03
             804            1657     159.270E-03     179.896E-03
             804            1658     214.164E-03     235.885E-03
             805            1643     218.547E-03     234.586E-03
             805            1644     274.521E-03     290.515E-03
             805            1658     214.164E-03     235.885E-03
             805            1659     269.499E-03     291.337E-03
             806            1644     274.521E-03     290.515E-03
             806            1645     330.630E-03     346.708E-03
             806            1659     269.499E-03     291.337E-03
             806            1660     324.899E-03     346.780E-03
             807            1645     330.630E-03     346.708E-03
             807            1646     386.858E-03     403.003E-03
             807            1660     324.899E-03     346.780E-03
             807            1661     380.152E-03     401.959E-03
             808            1646     386.858E-03     403.003E-03
             808            1647     443.244E-03     459.414E-03
             808            1661     380.152E-03     401.959E-03
             808            1662     435.214E-03     456.981E-03
             809            1647     443.244E-03     459.414E-03
             809            1648     499.807E-03     516.077E-03
             809            1662     435.214E-03     456.981E-03
             809            1663     489.996E-03     511.546E-03
             810            1648     499.807E-03     516.077E-03
             810            1649     556.569E-03     573.202E-03
             810            1663     489.996E-03     511.546E-03
             810            1664     544.671E-03     565.893E-03
             811            1649     556.569E-03     573.202E-03
             811            1650     613.727E-03     631.254E-03
             811            1664     544.671E-03     565.893E-03
             811            1665     599.191E-03     619.638E-03
             812            1650     613.727E-03     631.254E-03
             812            1651     672.128E-03     691.569E-03
             812            1665     599.191E-03     619.638E-03
             812            1666     655.210E-03     674.265E-03
             813            1651     672.128E-03     691.569E-03
             813            1652     732.959E-03     754.966E-03
             813            1666     655.210E-03     674.265E-03
             813            1667     712.493E-03     730.175E-03
             814            1652     732.959E-03     754.966E-03
             814            1653     806.021E-03     826.725E-03
             814            1667     712.493E-03     730.175E-03
             814            1668     781.343E-03     797.592E-03
             815            1653     806.021E-03     826.725E-03
             815            1654     879.088E-03     886.467E-03
             815            1668     781.343E-03     797.592E-03
             815            1669     876.643E-03     885.528E-03
             816             100     910.202E-03     907.016E-03
             816             101     931.588E-03     933.697E-03
             816            1654     879.088E-03     886.467E-03
             816            1669     876.643E-03     885.528E-03
             817               4     76.8713E-03     89.6774E-03
             817             116     97.6926E-03     109.094E-03
             817             117     26.4207E-03     45.0212E-03
             817            1655     52.4709E-03     70.5848E-03
             818             115     141.797E-03     152.855E-03
             818             116     97.6926E-03     109.094E-03
             818            1655     52.4709E-03     70.5848E-03
             818            1656     105.208E-03     123.909E-03
             819             114     191.131E-03     203.636E-03
             819             115     141.797E-03     152.855E-03
             819            1656     105.208E-03     123.909E-03
             819            1657     159.270E-03     179.896E-03
             820             113     244.423E-03     257.511E-03
             820             114     191.131E-03     203.636E-03
             820            1657     159.270E-03     179.896E-03
             820            1658     214.164E-03     235.885E-03
             821             112     299.768E-03     312.763E-03
             821             113     244.423E-03     257.511E-03
             821            1658     214.164E-03     235.885E-03
             821            1659     269.499E-03     291.337E-03
             822             111     355.774E-03     368.558E-03
             822             112     299.768E-03     312.763E-03
             822            1659     269.499E-03     291.337E-03
             822            1660     324.899E-03     346.780E-03
             823             110     412.227E-03     424.707E-03
             823             111     355.774E-03     368.558E-03
             823            1660     324.899E-03     346.780E-03
             823            1661     380.152E-03     401.959E-03
             824             109     468.307E-03     480.638E-03
             824             110     412.227E-03     424.707E-03
             824            1661     380.152E-03     401.959E-03
             824            1662     435.214E-03     456.981E-03
             825             108     524.354E-03     536.260E-03
             825             109     468.307E-03     480.638E-03
             825            1662     435.214E-03     456.981E-03
             825            1663     489.996E-03     511.546E-03
             826             107     579.354E-03     590.855E-03
             826             108     524.354E-03     536.260E-03
             826            1663     489.996E-03     511.546E-03
             826            1664     544.671E-03     565.893E-03
             827             106     634.684E-03     644.276E-03
             827             107     579.354E-03     590.855E-03
             827            1664     544.671E-03     565.893E-03
             827            1665     599.191E-03     619.638E-03
             828             105     688.444E-03     695.748E-03
             828             106     634.684E-03     644.276E-03
             828            1665     599.191E-03     619.638E-03
             828            1666     655.210E-03     674.265E-03
             829             104     743.336E-03     745.289E-03
             829             105     688.444E-03     695.748E-03
             829            1666     655.210E-03     674.265E-03
             829            1667     712.493E-03     730.175E-03
             830             103     796.239E-03     793.258E-03
             830             104     743.336E-03     745.289E-03
             830            1667     712.493E-03     730.175E-03
             830            1668     781.343E-03     797.592E-03
             831             102     862.256E-03     872.392E-03
             831             103     796.239E-03     793.258E-03
             831            1668     781.343E-03     797.592E-03
             831            1669     876.643E-03     885.528E-03
             832               3     905.348E-03     928.313E-03
             832             101     931.588E-03     933.697E-03
             832             102     862.256E-03     872.392E-03
             832            1669     876.643E-03     885.528E-03
            1777               4     76.8713E-03     89.6774E-03
            1777             116     97.6926E-03     109.094E-03
            1777             466     100.473E-03     116.011E-03
            1777            2431     120.299E-03     131.054E-03
            1778             115     141.797E-03     152.855E-03
            1778             116     97.6926E-03     109.094E-03
            1778            2431     120.299E-03     131.054E-03
            1778            2432     162.699E-03     167.906E-03
            1779             114     191.131E-03     203.636E-03
            1779             115     141.797E-03     152.855E-03
            1779            2432     162.699E-03     167.906E-03
            1779            2433     212.084E-03     216.200E-03
            1780             113     244.423E-03     257.511E-03
            1780             114     191.131E-03     203.636E-03
            1780            2433     212.084E-03     216.200E-03
            1780            2434     267.172E-03     270.828E-03
            1781             112     299.768E-03     312.763E-03
            1781             113     244.423E-03     257.511E-03
            1781            2434     267.172E-03     270.828E-03
            1781            2435     324.510E-03     328.034E-03
            1782             111     355.774E-03     368.558E-03
            1782             112     299.768E-03     312.763E-03
            1782            2435     324.510E-03     328.034E-03
            1782            2436     383.293E-03     386.657E-03
            1783             110     412.227E-03     424.707E-03
            1783             111     355.774E-03     368.558E-03
            1783            2436     383.293E-03     386.657E-03
            1783            2437     442.731E-03     445.865E-03
            1784             109     468.307E-03     480.638E-03
            1784             110     412.227E-03     424.707E-03
            1784            2437     442.731E-03     445.865E-03
            1784            2438     502.551E-03     505.432E-03
            1785             108     524.354E-03     536.260E-03
            1785             109     468.307E-03     480.638E-03
            1785            2438     502.551E-03     505.432E-03
            1785            2439     562.199E-03     564.905E-03
            1786             107     579.354E-03     590.855E-03
            1786             108     524.354E-03     536.260E-03
            1786            2439     562.199E-03     564.905E-03
            1786            2440     622.048E-03     624.197E-03
            1787             106     634.684E-03     644.276E-03
            1787             107     579.354E-03     590.855E-03
            1787            2440     622.048E-03     624.197E-03
            1787            2441     680.948E-03     682.873E-03
            1788             105     688.444E-03     695.748E-03
            1788             106     634.684E-03     644.276E-03
            1788            2441     680.948E-03     682.873E-03
            1788            2442     740.296E-03     740.673E-03
            1789             104     743.336E-03     745.289E-03
            1789             105     688.444E-03     695.748E-03
            1789            2442     740.296E-03     740.673E-03
            1789            2443     796.812E-03     795.823E-03
            1790             103     796.239E-03     793.258E-03
            1790             104     743.336E-03     745.289E-03
            1790            2443     796.812E-03     795.823E-03
            1790            2444     846.973E-03     847.950E-03
            1791             102     862.256E-03     872.392E-03
            1791             103     796.239E-03     793.258E-03
            1791            2444     846.973E-03     847.950E-03
            1791            2445     892.875E-03     886.806E-03
            1792               3     905.348E-03     928.313E-03
            1792             102     862.256E-03     872.392E-03
            1792             433     914.378E-03     899.824E-03
            1792            2445     892.875E-03     886.806E-03
            1793             465     65.2552E-03     72.7558E-03
            1793             466     100.473E-03     116.011E-03
            1793            2431     120.299E-03     131.054E-03
            1793            2446     86.6863E-03     98.1684E-03
            1794            2431     120.299E-03     131.054E-03
            1794            2432     162.699E-03     167.906E-03
            1794            2446     86.6863E-03     98.1684E-03
            1794            2447     135.882E-03     148.107E-03
            1795            2432     162.699E-03     167.906E-03
            1795            2433     212.084E-03     216.200E-03
            1795            2447     135.882E-03     148.107E-03
            1795            2448     192.926E-03     201.383E-03
            1796            2433     212.084E-03     216.200E-03
            1796            2434     267.172E-03     270.828E-03
            1796            2448     192.926E-03     201.383E-03
            1796            2449     251.759E-03     260.049E-03
            1797            2434     267.172E-03     270.828E-03
            1797            2435     324.510E-03     328.034E-03
            1797            2449     251.759E-03     260.049E-03
            1797            2450     311.713E-03     320.358E-03
            1798            2435     324.510E-03     328.034E-03
            1798            2436     383.293E-03     386.657E-03
            1798            2450     311.713E-03     320.358E-03
            1798            2451     372.687E-03     381.462E-03
            1799            2436     383.293E-03     386.657E-03
            1799            2437     442.731E-03     445.865E-03
            1799            2451     372.687E-03     381.462E-03
            1799            2452     434.168E-03     443.020E-03
            1800            2437     442.731E-03     445.865E-03
            1800            2438     502.551E-03     505.432E-03
            1800            2452     434.168E-03     443.020E-03
            1800            2453     496.058E-03     504.866E-03
            1801            2438     502.551E-03     505.432E-03
            1801            2439     562.199E-03     564.905E-03
            1801            2453     496.058E-03     504.866E-03
            1801            2454     558.366E-03     567.030E-03
            1802            2439     562.199E-03     564.905E-03
            1802            2440     622.048E-03     624.197E-03
            1802            2454     558.366E-03     567.030E-03
            1802            2455     620.935E-03     629.655E-03
            1803            2440     622.048E-03     624.197E-03
            1803            2441     680.948E-03     682.873E-03
            1803            2455     620.935E-03     629.655E-03
            1803            2456     684.210E-03     693.179E-03
            1804            2441     680.948E-03     682.873E-03
            1804            2442     740.296E-03     740.673E-03
            1804            2456     684.210E-03     693.179E-03
            1804            2457     747.340E-03     758.048E-03
            1805            2442     740.296E-03     740.673E-03
            1805            2443     796.812E-03     795.823E-03
            1805            2457     747.340E-03     758.048E-03
            1805            2458     812.908E-03     826.432E-03
            1806            2443     796.812E-03     795.823E-03
            1806            2444     846.973E-03     847.950E-03
            1806            2458     812.908E-03     826.432E-03
            1806            2459     879.220E-03     895.021E-03
            1807            2444     846.973E-03     847.950E-03
            1807            2445     892.875E-03     886.806E-03
            1807            2459     879.220E-03     895.021E-03
            1807            2460     929.702E-03     944.265E-03
            1808             433     914.378E-03     899.824E-03
            1808             434     948.341E-03     960.499E-03
            1808            2445     892.875E-03     886.806E-03
            1808            2460     929.702E-03     944.265E-03
            1809             464     30.3954E-03     39.7414E-03
            1809             465     65.2552E-03     72.7558E-03
            1809            2446     86.6863E-03     98.1684E-03
            1809            2461     58.0577E-03     70.4360E-03
            1810            2446     86.6863E-03     98.1684E-03
            1810            2447     135.882E-03     148.107E-03
            1810            2461     58.0577E-03     70.4360E-03
            1810            2462     117.379E-03     131.998E-03
            1811            2447     135.882E-03     148.107E-03
            1811            2448     192.926E-03     201.383E-03
            1811            2462     117.379E-03     131.998E-03
            1811            2463     179.373E-03     193.158E-03
            1812            2448     192.926E-03     201.383E-03
            1812            2449     251.759E-03     260.049E-03
            1812            2463     179.373E-03     193.158E-03
            1812            2464     240.545E-03     254.481E-03
            1813            2449     251.759E-03     260.049E-03
            1813            2450     311.713E-03     320.358E-03
            1813            2464     240.545E-03     254.481E-03
            1813            2465     302.340E-03     316.651E-03
            1814            2450     311.713E-03     320.358E-03
            1814            2451     372.687E-03     381.462E-03
            1814            2465     302.340E-03     316.651E-03
            1814            2466     364.382E-03     378.987E-03
            1815            2451     372.687E-03     381.462E-03
            1815            2452     434.168E-03     443.020E-03
            1815            2466     364.382E-03     378.987E-03
            1815            2467     426.779E-03     441.594E-03
            1816            2452     434.168E-03     443.020E-03
            1816            2453     496.058E-03     504.866E-03
            1816            2467     426.779E-03     441.594E-03
            1816            2468     489.400E-03     504.301E-03
            1817            2453     496.058E-03     504.866E-03
            1817            2454     558.366E-03     567.030E-03
            1817            2468     489.400E-03     504.301E-03
            1817            2469     552.380E-03     567.322E-03
            1818            2454     558.366E-03     567.030E-03
            1818            2455     620.935E-03     629.655E-03
            1818            2469     552.380E-03     567.322E-03
            1818            2470     615.492E-03     630.688E-03
            1819            2455     620.935E-03     629.655E-03
            1819            2456     684.210E-03     693.179E-03
            1819            2470     615.492E-03     630.688E-03
            1819            2471     679.285E-03     694.868E-03
            1820            2456     684.210E-03     693.179E-03
            1820            2457     747.340E-03     758.048E-03
            1820            2471     679.285E-03     694.868E-03
            1820            2472     743.098E-03     760.945E-03
            1821            2457     747.340E-03     758.048E-03
            1821            2458     812.908E-03     826.432E-03
            1821            2472     743.098E-03     760.945E-03
            1821            2473     809.268E-03     830.509E-03
            1822            2458     812.908E-03     826.432E-03
            1822            2459     879.220E-03     895.021E-03
            1822            2473     809.268E-03     830.509E-03
            1822            2474     886.063E-03     907.469E-03
            1823            2459     879.220E-03     895.021E-03
            1823            2460     929.702E-03     944.265E-03
            1823            2474     886.063E-03     907.469E-03
            1823            2475     957.097E-03     969.998E-03
            1824             434     948.341E-03     960.499E-03
            1824             435     986.046E-03     991.597E-03
            1824            2460     929.702E-03     944.265E-03
            1824            2475     957.097E-03     969.998E-03
            1825             463     17.8466E-03     36.3469E-03
            1825             464     30.3954E-03     39.7414E-03
            1825            2461     58.0577E-03     70.4360E-03
            1825            2476     48.2521E-03     64.2250E-03
            1826            2461     58.0577E-03     70.4360E-03
            1826            2462     117.379E-03     131.998E-03
            1826            2476     48.2521E-03     64.2250E-03
            1826            2477     109.918E-03     126.233E-03
            1827            2462     117.379E-03     131.998E-03
            1827            2463     179.373E-03     193.158E-03
            1827            2477     109.918E-03     126.233E-03
            1827            2478     172.141E-03     191.702E-03
            1828            2463     179.373E-03     193.158E-03
            1828            2464     240.545E-03     254.481E-03
            1828            2478     172.141E-03     191.702E-03
            1828            2479     234.307E-03     254.306E-03
            1829            2464     240.545E-03     254.481E-03
            1829            2465     302.340E-03     316.651E-03
            1829            2479     234.307E-03     254.306E-03
            1829            2480     296.409E-03     316.691E-03
            1830            2465     302.340E-03     316.651E-03
            1830            2466     364.382E-03     378.987E-03
            1830            2480     296.409E-03     316.691E-03
            1830            2481     358.452E-03     379.054E-03
            1831            2466     364.382E-03     378.987E-03
            1831            2467     426.779E-03     441.594E-03
            1831            2481     358.452E-03     379.054E-03
            1831            2482     420.449E-03     441.264E-03
            1832            2467     426.779E-03     441.594E-03
            1832            2468     489.400E-03     504.301E-03
            1832            2482     420.449E-03     441.264E-03
            1832            2483     482.386E-03     503.494E-03
            1833            2468     489.400E-03     504.301E-03
            1833            2469     552.380E-03     567.322E-03
            1833            2483     482.386E-03     503.494E-03
            1833            2484     543.930E-03     565.355E-03
            1834            2469     552.380E-03     567.322E-03
            1834            2470     615.492E-03     630.688E-03
            1834            2484     543.930E-03     565.355E-03
            1834            2485     605.561E-03     627.066E-03
            1835            2470     615.492E-03     630.688E-03
            1835            2471     679.285E-03     694.868E-03
            1835            2485     605.561E-03     627.066E-03
            1835            2486     666.309E-03     688.129E-03
            1836            2471     679.285E-03     694.868E-03
            1836            2472     743.098E-03     760.945E-03
            1836            2486     666.309E-03     688.129E-03
            1836            2487     728.339E-03     749.488E-03
            1837            2472     743.098E-03     760.945E-03
            1837            2473     809.268E-03     830.509E-03
            1837            2487     728.339E-03     749.488E-03
            1837            2488     790.304E-03     810.892E-03
            1838            2473     809.268E-03     830.509E-03
            1838            2474     886.063E-03     907.469E-03
            1838            2488     790.304E-03     810.892E-03
            1838            2489     860.399E-03     881.931E-03
            1839            2474     886.063E-03     907.469E-03
            1839            2475     957.097E-03     969.998E-03
            1839            2489     860.399E-03     881.931E-03
            1839            2490     957.696E-03     968.412E-03
            1840             435     986.046E-03     991.597E-03
            1840             436         1.01441         1.01385
            1840            2475     957.097E-03     969.998E-03
            1840            2490     957.696E-03     968.412E-03
            1841             462     19.0047E-03     32.1920E-03
            1841             463     17.8466E-03     36.3469E-03
            1841            2476     48.2521E-03     64.2250E-03
            1841            2491     47.5703E-03     61.3911E-03
            1842            2476     48.2521E-03     64.2250E-03
            1842            2477     109.918E-03     126.233E-03
            1842            2491     47.5703E-03     61.3911E-03
            1842            2492     107.075E-03     122.603E-03
            1843            2477     109.918E-03     126.233E-03
            1843            2478     172.141E-03     191.702E-03
            1843            2492     107.075E-03     122.603E-03
            1843            2493     169.344E-03     186.288E-03
            1844            2478     172.141E-03     191.702E-03
            1844            2479     234.307E-03     254.306E-03
            1844            2493     169.344E-03     186.288E-03
            1844            2494     231.662E-03     249.171E-03
            1845            2479     234.307E-03     254.306E-03
            1845            2480     296.409E-03     316.691E-03
            1845            2494     231.662E-03     249.171E-03
            1845            2495     293.937E-03     311.599E-03
            1846            2480     296.409E-03     316.691E-03
            1846            2481     358.452E-03     379.054E-03
            1846            2495     293.937E-03     311.599E-03
            1846            2496     356.190E-03     373.921E-03
            1847            2481     358.452E-03     379.054E-03
            1847            2482     420.449E-03     441.264E-03
            1847            2496     356.190E-03     373.921E-03
            1847            2497     418.354E-03     436.227E-03
            1848            2482     420.449E-03     441.264E-03
            1848            2483     482.386E-03     503.494E-03
            1848            2497     418.354E-03     436.227E-03
            1848            2498     480.229E-03     498.331E-03
            1849            2483     482.386E-03     503.494E-03
            1849            2484     543.930E-03     565.355E-03
            1849            2498     480.229E-03     498.331E-03
            1849            2499     542.006E-03     560.253E-03
            1850            2484     543.930E-03     565.355E-03
            1850            2485     605.561E-03     627.066E-03
            1850            2499     542.006E-03     560.253E-03
            1850            2500     603.182E-03     621.685E-03
            1851            2485     605.561E-03     627.066E-03
            1851            2486     666.309E-03     688.129E-03
            1851            2500     603.182E-03     621.685E-03
            1851            2501     664.482E-03     682.562E-03
            1852            2486     666.309E-03     688.129E-03
            1852            2487     728.339E-03     749.488E-03
            1852            2501     664.482E-03     682.562E-03
            1852            2502     725.082E-03     742.612E-03
            1853            2487     728.339E-03     749.488E-03
            1853            2488     790.304E-03     810.892E-03
            1853            2502     725.082E-03     742.612E-03
            1853            2503     787.269E-03     802.468E-03
            1854            2488     790.304E-03     810.892E-03
            1854            2489     860.399E-03     881.931E-03
            1854            2503     787.269E-03     802.468E-03
            1854            2504     850.393E-03     863.378E-03
            1855            2489     860.399E-03     881.931E-03
            1855            2490     957.696E-03     968.412E-03
            1855            2504     850.393E-03     863.378E-03
            1855            2505     930.164E-03     951.693E-03
            1856             436         1.01441         1.01385
            1856             437     979.625E-03         1.00937
            1856            2490     957.696E-03     968.412E-03
            1856            2505     930.164E-03     951.693E-03
            1857              18     13.6545E-03     22.3066E-03
            1857             461     41.5164E-03     55.3864E-03
            1857             462     19.0047E-03     32.1920E-03
            1857            2491     47.5703E-03     61.3911E-03
            1858             460     99.8263E-03     120.377E-03
            1858             461     41.5164E-03     55.3864E-03
            1858            2491     47.5703E-03     61.3911E-03
            1858            2492     107.075E-03     122.603E-03
            1859             459     161.097E-03     183.435E-03
            1859             460     99.8263E-03     120.377E-03
            1859            2492     107.075E-03     122.603E-03
            1859            2493     169.344E-03     186.288E-03
            1860             458     222.726E-03     245.728E-03
            1860             459     161.097E-03     183.435E-03
            1860            2493     169.344E-03     186.288E-03
            1860            2494     231.662E-03     249.171E-03
            1861             457     284.478E-03     307.648E-03
            1861             458     222.726E-03     245.728E-03
            1861            2494     231.662E-03     249.171E-03
            1861            2495     293.937E-03     311.599E-03
            1862             456     346.103E-03     369.318E-03
            1862             457     284.478E-03     307.648E-03
            1862            2495     293.937E-03     311.599E-03
            1862            2496     356.190E-03     373.921E-03
            1863             455     407.722E-03     430.780E-03
            1863             456     346.103E-03     369.318E-03
            1863            2496     356.190E-03     373.921E-03
            1863            2497     418.354E-03     436.227E-03
            1864             454     468.973E-03     492.081E-03
            1864             455     407.722E-03     430.780E-03
            1864            2497     418.354E-03     436.227E-03
            1864            2498     480.229E-03     498.331E-03
            1865             453     530.159E-03     552.990E-03
            1865             454     468.973E-03     492.081E-03
            1865            2498     480.229E-03     498.331E-03
            1865            2499     542.006E-03     560.253E-03
            1866             452     590.911E-03     613.549E-03
            1866             453     530.159E-03     552.990E-03
            1866            2499     542.006E-03     560.253E-03
            1866            2500     603.182E-03     621.685E-03
            1867             451     652.121E-03     673.604E-03
            1867             452     590.911E-03     613.549E-03
            1867            2500     603.182E-03     621.685E-03
            1867            2501     664.482E-03     682.562E-03
            1868             450     713.417E-03     733.469E-03
            1868             451     652.121E-03     673.604E-03
            1868            2501     664.482E-03     682.562E-03
            1868            2502     725.082E-03     742.612E-03
            1869             449     778.123E-03     795.194E-03
            1869             450     713.417E-03     733.469E-03
            1869            2502     725.082E-03     742.612E-03
            1869            2503     787.269E-03     802.468E-03
            1870             448     846.182E-03     861.720E-03
            1870             449     778.123E-03     795.194E-03
            1870            2503     787.269E-03     802.468E-03
            1870            2504     850.393E-03     863.378E-03
            1871             447     939.725E-03     965.402E-03
            1871             448     846.182E-03     861.720E-03
            1871            2504     850.393E-03     863.378E-03
            1871            2505     930.164E-03     951.693E-03
            1872              16     999.954E-03         1.03409
            1872             437     979.625E-03         1.00937
            1872             447     939.725E-03     965.402E-03
            1872            2505     930.164E-03     951.693E-03
            2905              18     13.6545E-03     22.3066E-03
            2905             461     41.5164E-03     55.3864E-03
            2905             552     25.6611E-03     27.4563E-03
            2905            3423     48.5315E-03     60.3878E-03
            2906             460     99.8263E-03     120.377E-03
            2906             461     41.5164E-03     55.3864E-03
            2906            3423     48.5315E-03     60.3878E-03
            2906            3424     100.450E-03     124.575E-03
            2907             459     161.097E-03     183.435E-03
            2907             460     99.8263E-03     120.377E-03
            2907            3424     100.450E-03     124.575E-03
            2907            3425     159.350E-03     186.936E-03
            2908             458     222.726E-03     245.728E-03
            2908             459     161.097E-03     183.435E-03
            2908            3425     159.350E-03     186.936E-03
            2908            3426     219.418E-03     248.701E-03
            2909             457     284.478E-03     307.648E-03
            2909             458     222.726E-03     245.728E-03
            2909            3426     219.418E-03     248.701E-03
            2909            3427     280.180E-03     309.732E-03
            2910             456     346.103E-03     369.318E-03
            2910             457     284.478E-03     307.648E-03
            2910            3427     280.180E-03     309.732E-03
            2910            3428     341.092E-03     370.720E-03
            2911             455     407.722E-03     430.780E-03
            2911             456     346.103E-03     369.318E-03
            2911            3428     341.092E-03     370.720E-03
            2911            3429     401.929E-03     431.505E-03
            2912             454     468.973E-03     492.081E-03
            2912             455     407.722E-03     430.780E-03
            2912            3429     401.929E-03     431.505E-03
            2912            3430     462.652E-03     492.195E-03
            2913             453     530.159E-03     552.990E-03
            2913             454     468.973E-03     492.081E-03
            2913            3430     462.652E-03     492.195E-03
            2913            3431     523.096E-03     552.456E-03
            2914             452     590.911E-03     613.549E-03
            2914             453     530.159E-03     552.990E-03
            2914            3431     523.096E-03     552.456E-03
            2914            3432     583.571E-03     612.609E-03
            2915             451     652.121E-03     673.604E-03
            2915             452     590.911E-03     613.549E-03
            2915            3432     583.571E-03     612.609E-03
            2915            3433     643.937E-03     672.260E-03
            2916             450     713.417E-03     733.469E-03
            2916             451     652.121E-03     673.604E-03
            2916            3433     643.937E-03     672.260E-03
            2916            3434     706.568E-03     733.449E-03
            2917             449     778.123E-03     795.194E-03
            2917             450     713.417E-03     733.469E-03
            2917            3434     706.568E-03     733.449E-03
            2917            3435     771.775E-03     797.157E-03
            2918             448     846.182E-03     861.720E-03
            2918             449     778.123E-03     795.194E-03
            2918            3435     771.775E-03     797.157E-03
            2918            3436     853.728E-03     877.409E-03
            2919             447     939.725E-03     965.402E-03
            2919             448     846.182E-03     861.720E-03
            2919            3436     853.728E-03     877.409E-03
            2919            3437     973.998E-03     988.283E-03
            2920              16     999.954E-03         1.03409
            2920             447     939.725E-03     965.402E-03
            2920             528         1.04498         1.05066
            2920            3437     973.998E-03     988.283E-03
            2921             551     57.6681E-03     56.8082E-03
            2921             552     25.6611E-03     27.4563E-03
            2921            3423     48.5315E-03     60.3878E-03
            2921            3438     74.3134E-03     79.6622E-03
            2922            3423     48.5315E-03     60.3878E-03
            2922            3424     100.450E-03     124.575E-03
            2922            3438     74.3134E-03     79.6622E-03
            2922            3439     117.397E-03     132.129E-03
            2923            3424     100.450E-03     124.575E-03
            2923            3425     159.350E-03     186.936E-03
            2923            3439     117.397E-03     132.129E-03
            2923            3440     172.500E-03     191.366E-03
            2924            3425     159.350E-03     186.936E-03
            2924            3426     219.418E-03     248.701E-03
            2924            3440     172.500E-03     191.366E-03
            2924            3441     231.051E-03     250.781E-03
            2925            3426     219.418E-03     248.701E-03
            2925            3427     280.180E-03     309.732E-03
            2925            3441     231.051E-03     250.781E-03
            2925            3442     291.186E-03     311.146E-03
            2926            3427     280.180E-03     309.732E-03
            2926            3428     341.092E-03     370.720E-03
            2926            3442     291.186E-03     311.146E-03
            2926            3443     351.993E-03     372.155E-03
            2927            3428     341.092E-03     370.720E-03
            2927            3429     401.929E-03     431.505E-03
            2927            3443     351.993E-03     372.155E-03
            2927            3444     413.246E-03     433.541E-03
            2928            3429     401.929E-03     431.505E-03
            2928            3430     462.652E-03     492.195E-03
            2928            3444     413.246E-03     433.541E-03
            2928            3445     474.850E-03     495.221E-03
            2929            3430     462.652E-03     492.195E-03
            2929            3431     523.096E-03     552.456E-03
            2929            3445     474.850E-03     495.221E-03
            2929            3446     536.812E-03     557.305E-03
            2930            3431     523.096E-03     552.456E-03
            2930            3432     583.571E-03     612.609E-03
            2930            3446     536.812E-03     557.305E-03
            2930            3447     599.021E-03     619.972E-03
            2931            3432     583.571E-03     612.609E-03
            2931            3433     643.937E-03     672.260E-03
            2931            3447     599.021E-03     619.972E-03
            2931            3448     661.869E-03     683.777E-03
            2932            3433     643.937E-03     672.260E-03
            2932            3434     706.568E-03     733.449E-03
            2932            3448     661.869E-03     683.777E-03
            2932            3449     726.114E-03     750.246E-03
            2933            3434     706.568E-03     733.449E-03
            2933            3435     771.775E-03     797.157E-03
            2933            3449     726.114E-03     750.246E-03
            2933            3450     793.862E-03     820.639E-03
            2934            3435     771.775E-03     797.157E-03
            2934            3436     853.728E-03     877.409E-03
            2934            3450     793.862E-03     820.639E-03
            2934            3451     878.806E-03     902.842E-03
            2935            3436     853.728E-03     877.409E-03
            2935            3437     973.998E-03     988.283E-03
            2935            3451     878.806E-03     902.842E-03
            2935            3452     966.068E-03     974.085E-03
            2936             528         1.04498         1.05066
            2936             529         1.00358     999.541E-03
            2936            3437     973.998E-03     988.283E-03
            2936            3452     966.068E-03     974.085E-03
            2937             550     93.0554E-03     87.0624E-03
            2937             551     57.6681E-03     56.8082E-03
            2937            3438     74.3134E-03     79.6622E-03
            2937            3453     105.642E-03     106.659E-03
            2938            3438     74.3134E-03     79.6622E-03
            2938            3439     117.397E-03     132.129E-03
            2938            3453     105.642E-03     106.659E-03
            2938            3454     140.599E-03     150.771E-03
            2939            3439     117.397E-03     132.129E-03
            2939            3440     172.500E-03     191.366E-03
            2939            3454     140.599E-03     150.771E-03
            2939            3455     190.303E-03     201.806E-03
            2940            3440     172.500E-03     191.366E-03
            2940            3441     231.051E-03     250.781E-03
            2940            3455     190.303E-03     201.806E-03
            2940            3456     246.398E-03     257.147E-03
            2941            3441     231.051E-03     250.781E-03
            2941            3442     291.186E-03     311.146E-03
            2941            3456     246.398E-03     257.147E-03
            2941            3457     304.587E-03     315.431E-03
            2942            3442     291.186E-03     311.146E-03
            2942            3443     351.993E-03     372.155E-03
            2942            3457     304.587E-03     315.431E-03
            2942            3458     364.014E-03     375.103E-03
            2943            3443     351.993E-03     372.155E-03
            2943            3444     413.246E-03     433.541E-03
            2943            3458     364.014E-03     375.103E-03
            2943            3459     424.415E-03     435.654E-03
            2944            3444     413.246E-03     433.541E-03
            2944            3445     474.850E-03     495.221E-03
            2944            3459     424.415E-03     435.654E-03
            2944            3460     485.496E-03     496.919E-03
            2945            3445     474.850E-03     495.221E-03
            2945            3446     536.812E-03     557.305E-03
            2945            3460     485.496E-03     496.919E-03
            2945            3461     547.283E-03     558.967E-03
            2946            3446     536.812E-03     557.305E-03
            2946            3447     599.021E-03     619.972E-03
            2946            3461     547.283E-03     558.967E-03
            2946            3462     609.617E-03     621.987E-03
            2947            3447     599.021E-03     619.972E-03
            2947            3448     661.869E-03     683.777E-03
            2947            3462     609.617E-03     621.987E-03
            2947            3463     672.951E-03     686.942E-03
            2948            3448     661.869E-03     683.777E-03
            2948            3449     726.114E-03     750.246E-03
            2948            3463     672.951E-03     686.942E-03
            2948            3464     736.392E-03     753.761E-03
            2949            3449     726.114E-03     750.246E-03
            2949            3450     793.862E-03     820.639E-03
            2949            3464     736.392E-03     753.761E-03
            2949            3465     804.820E-03     825.206E-03
            2950            3450     793.862E-03     820.639E-03
            2950            3451     878.806E-03     902.842E-03
            2950            3465     804.820E-03     825.206E-03
            2950            3466     871.340E-03     892.683E-03
            2951            3451     878.806E-03     902.842E-03
            2951            3452     966.068E-03     974.085E-03
            2951            3466     871.340E-03     892.683E-03
            2951            3467     924.340E-03     945.737E-03
            2952             529         1.00358     999.541E-03
            2952             530     947.915E-03     969.001E-03
            2952            3452     966.068E-03     974.085E-03
            2952            3467     924.340E-03     945.737E-03
            2953             549     129.343E-03     127.515E-03
            2953             550     93.0554E-03     87.0624E-03
            2953            3453     105.642E-03     106.659E-03
            2953            3468     137.564E-03     142.170E-03
            2954            3453     105.642E-03     106.659E-03
            2954            3454     140.599E-03     150.771E-03
            2954            3468     137.564E-03     142.170E-03
            2954            3469     166.522E-03     174.737E-03
            2955            3454     140.599E-03     150.771E-03
            2955            3455     190.303E-03     201.806E-03
            2955            3469     166.522E-03     174.737E-03
            2955            3470     212.605E-03     216.626E-03
            2956            3455     190.303E-03     201.806E-03
            2956            3456     246.398E-03     257.147E-03
            2956            3470     212.605E-03     216.626E-03
            2956            3471     264.883E-03     267.461E-03
            2957            3456     246.398E-03     257.147E-03
            2957            3457     304.587E-03     315.431E-03
            2957            3471     264.883E-03     267.461E-03
            2957            3472     319.968E-03     322.451E-03
            2958            3457     304.587E-03     315.431E-03
            2958            3458     364.014E-03     375.103E-03
            2958            3472     319.968E-03     322.451E-03
            2958            3473     376.973E-03     379.479E-03
            2959            3458     364.014E-03     375.103E-03
            2959            3459     424.415E-03     435.654E-03
            2959            3473     376.973E-03     379.479E-03
            2959            3474     435.111E-03     437.782E-03
            2960            3459     424.415E-03     435.654E-03
            2960            3460     485.496E-03     496.919E-03
            2960            3474     435.111E-03     437.782E-03
            2960            3475     494.200E-03     496.857E-03
            2961            3460     485.496E-03     496.919E-03
            2961            3461     547.283E-03     558.967E-03
            2961            3475     494.200E-03     496.857E-03
            2961            3476     553.852E-03     556.638E-03
            2962            3461     547.283E-03     558.967E-03
            2962            3462     609.617E-03     621.987E-03
            2962            3476     553.852E-03     556.638E-03
            2962            3477     614.279E-03     617.199E-03
            2963            3462     609.617E-03     621.987E-03
            2963            3463     672.951E-03     686.942E-03
            2963            3477     614.279E-03     617.199E-03
            2963            3478     674.684E-03     678.446E-03
            2964            3463     672.951E-03     686.942E-03
            2964            3464     736.392E-03     753.761E-03
            2964            3478     674.684E-03     678.446E-03
            2964            3479     735.873E-03     740.940E-03
            2965            3464     736.392E-03     753.761E-03
            2965            3465     804.820E-03     825.206E-03
            2965            3479     735.873E-03     740.940E-03
            2965            3480     794.022E-03     802.586E-03
            2966            3465     804.820E-03     825.206E-03
            2966            3466     871.340E-03     892.683E-03
            2966            3480     794.022E-03     802.586E-03
            2966            3481     843.780E-03     857.861E-03
            2967            3466     871.340E-03     892.683E-03
            2967            3467     924.340E-03     945.737E-03
            2967            3481     843.780E-03     857.861E-03
            2967            3482     883.008E-03     890.016E-03
            2968             530     947.915E-03     969.001E-03
            2968             531     899.269E-03     896.847E-03
            2968            3467     924.340E-03     945.737E-03
            2968            3482     883.008E-03     890.016E-03
            2969             548     154.344E-03     173.881E-03
            2969             549     129.343E-03     127.515E-03
            2969            3468     137.564E-03     142.170E-03
            2969            3483     166.238E-03     178.761E-03
            2970            3468     137.564E-03     142.170E-03
            2970            3469     166.522E-03     174.737E-03
            2970            3483     166.238E-03     178.761E-03
            2970            3484     197.151E-03     198.715E-03
            2971            3469     166.522E-03     174.737E-03
            2971            3470     212.605E-03     216.626E-03
            2971            3484     197.151E-03     198.715E-03
            2971            3485     238.889E-03     235.667E-03
            2972            3470     212.605E-03     216.626E-03
            2972            3471     264.883E-03     267.461E-03
            2972            3485     238.889E-03     235.667E-03
            2972            3486     286.428E-03     281.966E-03
            2973            3471     264.883E-03     267.461E-03
            2973            3472     319.968E-03     322.451E-03
            2973            3486     286.428E-03     281.966E-03
            2973            3487     337.719E-03     332.723E-03
            2974            3472     319.968E-03     322.451E-03
            2974            3473     376.973E-03     379.479E-03
            2974            3487     337.719E-03     332.723E-03
            2974            3488     391.343E-03     386.098E-03
            2975            3473     376.973E-03     379.479E-03
            2975            3474     435.111E-03     437.782E-03
            2975            3488     391.343E-03     386.098E-03
            2975            3489     446.284E-03     440.793E-03
            2976            3474     435.111E-03     437.782E-03
            2976            3475     494.200E-03     496.857E-03
            2976            3489     446.284E-03     440.793E-03
            2976            3490     501.833E-03     496.226E-03
            2977            3475     494.200E-03     496.857E-03
            2977            3476     553.852E-03     556.638E-03
            2977            3490     501.833E-03     496.226E-03
            2977            3491     557.761E-03     551.726E-03
            2978            3476     553.852E-03     556.638E-03
            2978            3477     614.279E-03     617.199E-03
            2978            3491     557.761E-03     551.726E-03
            2978            3492     613.355E-03     606.933E-03
            2979            3477     614.279E-03     617.199E-03
            2979            3478     674.684E-03     678.446E-03
            2979            3492     613.355E-03     606.933E-03
            2979            3493     668.527E-03     660.802E-03
            2980            3478     674.684E-03     678.446E-03
            2980            3479     735.873E-03     740.940E-03
            2980            3493     668.527E-03     660.802E-03
            2980            3494     721.787E-03     712.473E-03
            2981            3479     735.873E-03     740.940E-03
            2981            3480     794.022E-03     802.586E-03
            2981            3494     721.787E-03     712.473E-03
            2981            3495     769.378E-03     758.612E-03
            2982            3480     794.022E-03     802.586E-03
            2982            3481     843.780E-03     857.861E-03
            2982            3495     769.378E-03     758.612E-03
            2982            3496     808.520E-03     796.711E-03
            2983            3481     843.780E-03     857.861E-03
            2983            3482     883.008E-03     890.016E-03
            2983            3496     808.520E-03     796.711E-03
            2983            3497     831.006E-03     818.305E-03
            2984             531     899.269E-03     896.847E-03
            2984             532     836.426E-03     822.648E-03
            2984            3482     883.008E-03     890.016E-03
            2984            3497     831.006E-03     818.305E-03
            2985              22     102.325E-03     121.300E-03
            2985             547     116.791E-03     133.334E-03
            2985             548     154.344E-03     173.881E-03
            2985            3483     166.238E-03     178.761E-03
            2986             546     150.340E-03     165.169E-03
            2986             547     116.791E-03     133.334E-03
            2986            3483     166.238E-03     178.761E-03
            2986            3484     197.151E-03     198.715E-03
            2987             545     191.853E-03     207.762E-03
            2987             546     150.340E-03     165.169E-03
            2987            3484     197.151E-03     198.715E-03
            2987            3485     238.889E-03     235.667E-03
            2988             544     238.644E-03     254.859E-03
            2988             545     191.853E-03     207.762E-03
            2988            3485     238.889E-03     235.667E-03
            2988            3486     286.428E-03     281.966E-03
            2989             543     288.511E-03     304.077E-03
            2989             544     238.644E-03     254.859E-03
            2989            3486     286.428E-03     281.966E-03
            2989            3487     337.719E-03     332.723E-03
            2990             542     339.660E-03     355.136E-03
            2990             543     288.511E-03     304.077E-03
            2990            3487     337.719E-03     332.723E-03
            2990            3488     391.343E-03     386.098E-03
            2991             541     391.656E-03     406.772E-03
            2991             542     339.660E-03     355.136E-03
            2991            3488     391.343E-03     386.098E-03
            2991            3489     446.284E-03     440.793E-03
            2992             540     443.781E-03     458.957E-03
            2992             541     391.656E-03     406.772E-03
            2992            3489     446.284E-03     440.793E-03
            2992            3490     501.833E-03     496.226E-03
            2993             539     496.021E-03     510.704E-03
            2993             540     443.781E-03     458.957E-03
            2993            3490     501.833E-03     496.226E-03
            2993            3491     557.761E-03     551.726E-03
            2994             538     547.531E-03     562.015E-03
            2994             539     496.021E-03     510.704E-03
            2994            3491     557.761E-03     551.726E-03
            2994            3492     613.355E-03     606.933E-03
            2995             537     598.564E-03     611.688E-03
            2995             538     547.531E-03     562.015E-03
            2995            3492     613.355E-03     606.933E-03
            2995            3493     668.527E-03     660.802E-03
            2996             536     646.968E-03     658.421E-03
            2996             537     598.564E-03     611.688E-03
            2996            3493     668.527E-03     660.802E-03
            2996            3494     721.787E-03     712.473E-03
            2997             535     694.680E-03     701.617E-03
            2997             536     646.968E-03     658.421E-03
            2997            3494     721.787E-03     712.473E-03
            2997            3495     769.378E-03     758.612E-03
            2998             534     737.089E-03     739.955E-03
            2998             535     694.680E-03     701.617E-03
            2998            3495     769.378E-03     758.612E-03
            2998            3496     808.520E-03     796.711E-03
            2999             533     792.147E-03     804.019E-03
            2999             534     737.089E-03     739.955E-03
            2999            3496     808.520E-03     796.711E-03
            2999            3497     831.006E-03     818.305E-03
            3000              21     830.094E-03     849.622E-03
            3000             532     836.426E-03     822.648E-03
            3000             533     792.147E-03     804.019E-03
            3000            3497     831.006E-03     818.305E-03
            4210               2     7.81814E-03     18.7275E-03
            4210              50     16.8618E-03     19.4528E-03
            4210             217     213.750E-06     222.858E-06
            4210            4477     181.577E-06     192.447E-06
            4211              49     27.0921E-03     22.3424E-03
            4211              50     16.8618E-03     19.4528E-03
            4211            4477     181.577E-06     192.447E-06
            4211            4478     133.686E-06     146.346E-06
            4212              48     30.6332E-03     26.4314E-03
            4212              49     27.0921E-03     22.3424E-03
            4212            4478     133.686E-06     146.346E-06
            4212            4479     113.961E-06     126.373E-06
            4213              47     31.9838E-03     27.7349E-03
            4213              48     30.6332E-03     26.4314E-03
            4213            4479     113.961E-06     126.373E-06
            4213            4480     106.814E-06     118.393E-06
            4214              46     31.2578E-03     27.5548E-03
            4214              47     31.9838E-03     27.7349E-03
            4214            4480     106.814E-06     118.393E-06
            4214            4481     102.032E-06     112.948E-06
            4215              45     31.0114E-03     27.5946E-03
            4215              46     31.2578E-03     27.5548E-03
            4215            4481     102.032E-06     112.948E-06
            4215            4482     98.6577E-06     108.868E-06
            4216              44     30.4253E-03     27.3002E-03
            4216              45     31.0114E-03     27.5946E-03
            4216            4482     98.6577E-06     108.868E-06
            4216            4483     95.2098E-06     104.731E-06
            4217              43     30.0285E-03     27.2193E-03
            4217              44     30.4253E-03     27.3002E-03
            4217            4483     95.2098E-06     104.731E-06
            4217            4484     91.9781E-06     100.854E-06
            4218              42     29.5341E-03     27.0450E-03
            4218              43     30.0285E-03     27.2193E-03
            4218            4484     91.9781E-06     100.854E-06
            4218            4485     88.9336E-06     97.0224E-06
            4219              41     29.1293E-03     26.9700E-03
            4219              42     29.5341E-03     27.0450E-03
            4219            4485     88.9336E-06     97.0224E-06
            4219            4486     86.2409E-06     93.5037E-06
            4220              40     28.7209E-03     26.8848E-03
            4220              41     29.1293E-03     26.9700E-03
            4220            4486     86.2409E-06     93.5037E-06
            4220            4487     83.9771E-06     90.2048E-06
            4221              39     28.3190E-03     26.9284E-03
            4221              40     28.7209E-03     26.8848E-03
            4221            4487     83.9771E-06     90.2048E-06
            4221            4488     82.1882E-06     87.3379E-06
            4222              38     28.0710E-03     26.8364E-03
            4222              39     28.3190E-03     26.9284E-03
            4222            4488     82.1882E-06     87.3379E-06
            4222            4489     80.7358E-06     84.9347E-06
            4223              37     27.7010E-03     26.8569E-03
            4223              38     28.0710E-03     26.8364E-03
            4223            4489     80.7358E-06     84.9347E-06
            4223            4490     79.2449E-06     83.7224E-06
            4224              36     26.2109E-03     27.8369E-03
            4224              37     27.7010E-03     26.8569E-03
            4224            4490     79.2449E-06     83.7224E-06
            4224            4491     78.3785E-06     83.6422E-06
            4225               1     25.0815E-03     28.6641E-03
            4225              36     26.2109E-03     27.8369E-03
            4225             209     78.2404E-06     83.7001E-06
            4225            4491     78.3785E-06     83.6422E-06
            4226             217     213.750E-06     222.858E-06
            4226             218     170.861E-06     167.581E-06
            4226            4477     181.577E-06     192.447E-06
            4226            4492     156.739E-06     157.118E-06
            4227            4477     181.577E-06     192.447E-06
            4227            4478     133.686E-06     146.346E-06
            4227            4492     156.739E-06     157.118E-06
            4227            4493     133.077E-06     138.475E-06
            4228            4478     133.686E-06     146.346E-06
            4228            4479     113.961E-06     126.373E-06
            4228            4493     133.077E-06     138.475E-06
            4228            4494     119.037E-06     126.651E-06
            4229            4479     113.961E-06     126.373E-06
            4229            4480     106.814E-06     118.393E-06
            4229            4494     119.037E-06     126.651E-06
            4229            4495     113.006E-06     120.921E-06
            4230            4480     106.814E-06     118.393E-06
            4230            4481     102.032E-06     112.948E-06
            4230            4495     113.006E-06     120.921E-06
            4230            4496     109.080E-06     116.129E-06
            4231            4481     102.032E-06     112.948E-06
            4231            4482     98.6577E-06     108.868E-06
            4231            4496     109.080E-06     116.129E-06
            4231            4497     104.726E-06     111.290E-06
            4232            4482     98.6577E-06     108.868E-06
            4232            4483     95.2098E-06     104.731E-06
            4232            4497     104.726E-06     111.290E-06
            4232            4498     100.787E-06     106.848E-06
            4233            4483     95.2098E-06     104.731E-06
            4233            4484     91.9781E-06     100.854E-06
            4233            4498     100.787E-06     106.848E-06
            4233            4499     97.0132E-06     102.610E-06
            4234            4484     91.9781E-06     100.854E-06
            4234            4485     88.9336E-06     97.0224E-06
            4234            4499     97.0132E-06     102.610E-06
            4234            4500     93.6982E-06     98.8212E-06
            4235            4485     88.9336E-06     97.0224E-06
            4235            4486     86.2409E-06     93.5037E-06
            4235            4500     93.6982E-06     98.8212E-06
            4235            4501     90.7983E-06     95.3594E-06
            4236            4486     86.2409E-06     93.5037E-06
            4236            4487     83.9771E-06     90.2048E-06
            4236            4501     90.7983E-06     95.3594E-06
            4236            4502     88.4169E-06     92.4128E-06
            4237            4487     83.9771E-06     90.2048E-06
            4237            4488     82.1882E-06     87.3379E-06
            4237            4502     88.4169E-06     92.4128E-06
            4237            4503     86.6543E-06     89.7244E-06
            4238            4488     82.1882E-06     87.3379E-06
            4238            4489     80.7358E-06     84.9347E-06
            4238            4503     86.6543E-06     89.7244E-06
            4238            4504     85.2130E-06     87.6503E-06
            4239            4489     80.7358E-06     84.9347E-06
            4239            4490     79.2449E-06     83.7224E-06
            4239            4504     85.2130E-06     87.6503E-06
            4239            4505     84.8052E-06     86.0377E-06
            4240            4490     79.2449E-06     83.7224E-06
            4240            4491     78.3785E-06     83.6422E-06
            4240            4505     84.8052E-06     86.0377E-06
            4240            4506     86.4125E-06     82.9912E-06
            4241             208     87.7466E-06     80.8259E-06
            4241             209     78.2404E-06     83.7001E-06
            4241            4491     78.3785E-06     83.6422E-06
            4241            4506     86.4125E-06     82.9912E-06
            4242             218     170.861E-06     167.581E-06
            4242             219     123.907E-06     128.134E-06
            4242            4492     156.739E-06     157.118E-06
            4242            4507     118.443E-06     122.231E-06
            4243            4492     156.739E-06     157.118E-06
            4243            4493     133.077E-06     138.475E-06
            4243            4507     118.443E-06     122.231E-06
            4243            4508     115.563E-06     119.846E-06
            4244            4493     133.077E-06     138.475E-06
            4244            4494     119.037E-06     126.651E-06
            4244            4508     115.563E-06     119.846E-06
            4244            4509     118.639E-06     123.269E-06
            4245            4494     119.037E-06     126.651E-06
            4245            4495     113.006E-06     120.921E-06
            4245            4509     118.639E-06     123.269E-06
            4245            4510     117.857E-06     121.689E-06
            4246            4495     113.006E-06     120.921E-06
            4246            4496     109.080E-06     116.129E-06
            4246            4510     117.857E-06     121.689E-06
            4246            4511     114.533E-06     117.828E-06
            4247            4496     109.080E-06     116.129E-06
            4247            4497     104.726E-06     111.290E-06
            4247            4511     114.533E-06     117.828E-06
            4247            4512     110.119E-06     112.987E-06
            4248            4497     104.726E-06     111.290E-06
            4248            4498     100.787E-06     106.848E-06
            4248            4512     110.119E-06     112.987E-06
            4248            4513     105.642E-06     108.292E-06
            4249            4498     100.787E-06     106.848E-06
            4249            4499     97.0132E-06     102.610E-06
            4249            4513     105.642E-06     108.292E-06
            4249            4514     101.617E-06     104.031E-06
            4250            4499     97.0132E-06     102.610E-06
            4250            4500     93.6982E-06     98.8212E-06
            4250            4514     101.617E-06     104.031E-06
            4250            4515     98.0714E-06     100.289E-06
            4251            4500     93.6982E-06     98.8212E-06
            4251            4501     90.7983E-06     95.3594E-06
            4251            4515     98.0714E-06     100.289E-06
            4251            4516     95.1026E-06     97.1180E-06
            4252            4501     90.7983E-06     95.3594E-06
            4252            4502     88.4169E-06     92.4128E-06
            4252            4516     95.1026E-06     97.1180E-06
            4252            4517     92.6581E-06     94.4116E-06
            4253            4502     88.4169E-06     92.4128E-06
            4253            4503     86.6543E-06     89.7244E-06
            4253            4517     92.6581E-06     94.4116E-06
            4253            4518     90.7816E-06     92.2652E-06
            4254            4503     86.6543E-06     89.7244E-06
            4254            4504     85.2130E-06     87.6503E-06
            4254            4518     90.7816E-06     92.2652E-06
            4254            4519     89.9828E-06     90.1108E-06
            4255            4504     85.2130E-06     87.6503E-06
            4255            4505     84.8052E-06     86.0377E-06
            4255            4519     89.9828E-06     90.1108E-06
            4255            4520     90.3822E-06     87.1789E-06
            4256            4505     84.8052E-06     86.0377E-06
            4256            4506     86.4125E-06     82.9912E-06
            4256            4520     90.3822E-06     87.1789E-06
            4256            4521     90.9787E-06     84.7066E-06
            4257             207     91.1441E-06     83.9136E-06
            4257             208     87.7466E-06     80.8259E-06
            4257            4506     86.4125E-06     82.9912E-06
            4257            4521     90.9787E-06     84.7066E-06
            4258             219     123.907E-06     128.134E-06
            4258             220     87.1925E-06     82.4614E-06
            4258            4507     118.443E-06     122.231E-06
            4258            4522     85.2595E-06     85.4289E-06
            4259            4507     118.443E-06     122.231E-06
            4259            4508     115.563E-06     119.846E-06
            4259            4522     85.2595E-06     85.4289E-06
            4259            4523     95.1938E-06     99.4223E-06
            4260            4508     115.563E-06     119.846E-06
            4260            4509     118.639E-06     123.269E-06
            4260            4523     95.1938E-06     99.4223E-06
            4260            4524     113.488E-06     114.938E-06
            4261            4509     118.639E-06     123.269E-06
            4261            4510     117.857E-06     121.689E-06
            4261            4524     113.488E-06     114.938E-06
            4261            4525     119.218E-06     118.612E-06
            4262            4510     117.857E-06     121.689E-06
            4262            4511     114.533E-06     117.828E-06
            4262            4525     119.218E-06     118.612E-06
            4262            4526     117.041E-06     116.262E-06
            4263            4511     114.533E-06     117.828E-06
            4263            4512     110.119E-06     112.987E-06
            4263            4526     117.041E-06     116.262E-06
            4263            4527     113.400E-06     112.528E-06
            4264            4512     110.119E-06     112.987E-06
            4264            4513     105.642E-06     108.292E-06
            4264            4527     113.400E-06     112.528E-06
            4264            4528     109.190E-06     108.360E-06
            4265            4513     105.642E-06     108.292E-06
            4265            4514     101.617E-06     104.031E-06
            4265            4528     109.190E-06     108.360E-06
            4265            4529     105.353E-06     104.624E-06
            4266            4514     101.617E-06     104.031E-06
            4266            4515     98.0714E-06     100.289E-06
            4266            4529     105.353E-06     104.624E-06
            4266            4530     101.986E-06     101.348E-06
            4267            4515     98.0714E-06     100.289E-06
            4267            4516     95.1026E-06     97.1180E-06
            4267            4530     101.986E-06     101.348E-06
            4267            4531     99.1088E-06     98.6163E-06
            4268            4516     95.1026E-06     97.1180E-06
            4268            4517     92.6581E-06     94.4116E-06
            4268            4531     99.1088E-06     98.6163E-06
            4268            4532     96.7360E-06     96.3726E-06
            4269            4517     92.6581E-06     94.4116E-06
            4269            4518     90.7816E-06     92.2652E-06
            4269            4532     96.7360E-06     96.3726E-06
            4269            4533     94.8123E-06     94.6411E-06
            4270            4518     90.7816E-06     92.2652E-06
            4270            4519     89.9828E-06     90.1108E-06
            4270            4533     94.8123E-06     94.6411E-06
            4270            4534     93.7819E-06     93.0932E-06
            4271            4519     89.9828E-06     90.1108E-06
            4271            4520     90.3822E-06     87.1789E-06
            4271            4534     93.7819E-06     93.0932E-06
            4271            4535     94.0259E-06     90.7875E-06
            4272            4520     90.3822E-06     87.1789E-06
            4272            4521     90.9787E-06     84.7066E-06
            4272            4535     94.0259E-06     90.7875E-06
            4272            4536     94.5567E-06     88.3102E-06
            4273             206     94.6615E-06     87.3031E-06
            4273             207     91.1441E-06     83.9136E-06
            4273            4521     90.9787E-06     84.7066E-06
            4273            4536     94.5567E-06     88.3102E-06
            4274             220     87.1925E-06     82.4614E-06
            4274             221     50.2937E-06     46.1925E-06
            4274            4522     85.2595E-06     85.4289E-06
            4274            4537     57.7011E-06     56.0060E-06
            4275            4522     85.2595E-06     85.4289E-06
            4275            4523     95.1938E-06     99.4223E-06
            4275            4537     57.7011E-06     56.0060E-06
            4275            4538     84.1019E-06     81.9753E-06
            4276            4523     95.1938E-06     99.4223E-06
            4276            4524     113.488E-06     114.938E-06
            4276            4538     84.1019E-06     81.9753E-06
            4276            4539     108.254E-06     103.275E-06
            4277            4524     113.488E-06     114.938E-06
            4277            4525     119.218E-06     118.612E-06
            4277            4539     108.254E-06     103.275E-06
            4277            4540     115.427E-06     110.261E-06
            4278            4525     119.218E-06     118.612E-06
            4278            4526     117.041E-06     116.262E-06
            4278            4540     115.427E-06     110.261E-06
            4278            4541     116.473E-06     111.314E-06
            4279            4526     117.041E-06     116.262E-06
            4279            4527     113.400E-06     112.528E-06
            4279            4541     116.473E-06     111.314E-06
            4279            4542     114.181E-06     109.489E-06
            4280            4527     113.400E-06     112.528E-06
            4280            4528     109.190E-06     108.360E-06
            4280            4542     114.181E-06     109.489E-06
            4280            4543     111.326E-06     107.062E-06
            4281            4528     109.190E-06     108.360E-06
            4281            4529     105.353E-06     104.624E-06
            4281            4543     111.326E-06     107.062E-06
            4281            4544     108.279E-06     104.446E-06
            4282            4529     105.353E-06     104.624E-06
            4282            4530     101.986E-06     101.348E-06
            4282            4544     108.279E-06     104.446E-06
            4282            4545     105.484E-06     102.099E-06
            4283            4530     101.986E-06     101.348E-06
            4283            4531     99.1088E-06     98.6163E-06
            4283            4545     105.484E-06     102.099E-06
            4283            4546     102.961E-06     100.013E-06
            4284            4531     99.1088E-06     98.6163E-06
            4284            4532     96.7360E-06     96.3726E-06
            4284            4546     102.961E-06     100.013E-06
            4284            4547     100.738E-06     98.3619E-06
            4285            4532     96.7360E-06     96.3726E-06
            4285            4533     94.8123E-06     94.6411E-06
            4285            4547     100.738E-06     98.3619E-06
            4285            4548     98.8993E-06     96.9733E-06
            4286            4533     94.8123E-06     94.6411E-06
            4286            4534     93.7819E-06     93.0932E-06
            4286            4548     98.8993E-06     96.9733E-06
            4286            4549     97.0085E-06     96.3424E-06
            4287            4534     93.7819E-06     93.0932E-06
            4287            4535     94.0259E-06     90.7875E-06
            4287            4549     97.0085E-06     96.3424E-06
            4287            4550     95.8753E-06     96.4276E-06
            4288            4535     94.0259E-06     90.7875E-06
            4288            4536     94.5567E-06     88.3102E-06
            4288            4550     95.8753E-06     96.4276E-06
            4288            4551     97.2177E-06     94.5303E-06
            4289             205     98.6641E-06     92.6160E-06
            4289             206     94.6615E-06     87.3031E-06
            4289            4536     94.5567E-06     88.3102E-06
            4289            4551     97.2177E-06     94.5303E-06
            4290             221     50.2937E-06     46.1925E-06
            4290             222     35.5984E-06     51.2278E-06
            4290            4537     57.7011E-06     56.0060E-06
            4290            4552     48.6451E-06     50.3767E-06
            4291            4537     57.7011E-06     56.0060E-06
            4291            4538     84.1019E-06     81.9753E-06
            4291            4552     48.6451E-06     50.3767E-06
            4291            4553     76.4542E-06     64.2140E-06
            4292            4538     84.1019E-06     81.9753E-06
            4292            4539     108.254E-06     103.275E-06
            4292            4553     76.4542E-06     64.2140E-06
            4292            4554     98.5772E-06     87.0212E-06
            4293            4539     108.254E-06     103.275E-06
            4293            4540     115.427E-06     110.261E-06
            4293            4554     98.5772E-06     87.0212E-06
            4293            4555     108.978E-06     98.7651E-06
            4294            4540     115.427E-06     110.261E-06
            4294            4541     116.473E-06     111.314E-06
            4294            4555     108.978E-06     98.7651E-06
            4294            4556     112.989E-06     103.824E-06
            4295            4541     116.473E-06     111.314E-06
            4295            4542     114.181E-06     109.489E-06
            4295            4556     112.989E-06     103.824E-06
            4295            4557     113.720E-06     105.375E-06
            4296            4542     114.181E-06     109.489E-06
            4296            4543     111.326E-06     107.062E-06
            4296            4557     113.720E-06     105.375E-06
            4296            4558     112.668E-06     105.187E-06
            4297            4543     111.326E-06     107.062E-06
            4297            4544     108.279E-06     104.446E-06
            4297            4558     112.668E-06     105.187E-06
            4297            4559     110.951E-06     104.220E-06
            4298            4544     108.279E-06     104.446E-06
            4298            4545     105.484E-06     102.099E-06
            4298            4559     110.951E-06     104.220E-06
            4298            4560     108.906E-06     102.940E-06
            4299            4545     105.484E-06     102.099E-06
            4299            4546     102.961E-06     100.013E-06
            4299            4560     108.906E-06     102.940E-06
            4299            4561     106.861E-06     101.679E-06
            4300            4546     102.961E-06     100.013E-06
            4300            4547     100.738E-06     98.3619E-06
            4300            4561     106.861E-06     101.679E-06
            4300            4562     104.873E-06     100.487E-06
            4301            4547     100.738E-06     98.3619E-06
            4301            4548     98.8993E-06     96.9733E-06
            4301            4562     104.873E-06     100.487E-06
            4301            4563     103.012E-06     99.6397E-06
            4302            4548     98.8993E-06     96.9733E-06
            4302            4549     97.0085E-06     96.3424E-06
            4302            4563     103.012E-06     99.6397E-06
            4302            4564     101.135E-06     99.1619E-06
            4303            4549     97.0085E-06     96.3424E-06
            4303            4550     95.8753E-06     96.4276E-06
            4303            4564     101.135E-06     99.1619E-06
            4303            4565     98.7078E-06     100.044E-06
            4304            4550     95.8753E-06     96.4276E-06
            4304            4551     97.2177E-06     94.5303E-06
            4304            4565     98.7078E-06     100.044E-06
            4304            4566     96.5713E-06     102.408E-06
            4305             204     95.7636E-06     103.712E-06
            4305             205     98.6641E-06     92.6160E-06
            4305            4551     97.2177E-06     94.5303E-06
            4305            4566     96.5713E-06     102.408E-06
            4306               9     38.2674E-06     71.5268E-06
            4306             222     35.5984E-06     51.2278E-06
            4306             738     50.0261E-06     56.7262E-06
            4306            4552     48.6451E-06     50.3767E-06
            4307             737     71.6852E-06     54.3001E-06
            4307             738     50.0261E-06     56.7262E-06
            4307            4552     48.6451E-06     50.3767E-06
            4307            4553     76.4542E-06     64.2140E-06
            4308             736     91.7873E-06     77.4065E-06
            4308             737     71.6852E-06     54.3001E-06
            4308            4553     76.4542E-06     64.2140E-06
            4308            4554     98.5772E-06     87.0212E-06
            4309             735     105.343E-06     92.7145E-06
            4309             736     91.7873E-06     77.4065E-06
            4309            4554     98.5772E-06     87.0212E-06
            4309            4555     108.978E-06     98.7651E-06
            4310             734     110.812E-06     99.7028E-06
            4310             735     105.343E-06     92.7145E-06
            4310            4555     108.978E-06     98.7651E-06
            4310            4556     112.989E-06     103.824E-06
            4311             733     113.310E-06     103.299E-06
            4311             734     110.812E-06     99.7028E-06
            4311            4556     112.989E-06     103.824E-06
            4311            4557     113.720E-06     105.375E-06
            4312             732     113.337E-06     104.319E-06
            4312             733     113.310E-06     103.299E-06
            4312            4557     113.720E-06     105.375E-06
            4312            4558     112.668E-06     105.187E-06
            4313             731     112.292E-06     104.173E-06
            4313             732     113.337E-06     104.319E-06
            4313            4558     112.668E-06     105.187E-06
            4313            4559     110.951E-06     104.220E-06
            4314             730     110.665E-06     103.496E-06
            4314             731     112.292E-06     104.173E-06
            4314            4559     110.951E-06     104.220E-06
            4314            4560     108.906E-06     102.940E-06
            4315             729     108.862E-06     102.592E-06
            4315             730     110.665E-06     103.496E-06
            4315            4560     108.906E-06     102.940E-06
            4315            4561     106.861E-06     101.679E-06
            4316             728     106.951E-06     101.636E-06
            4316             729     108.862E-06     102.592E-06
            4316            4561     106.861E-06     101.679E-06
            4316            4562     104.873E-06     100.487E-06
            4317             727     105.200E-06     101.085E-06
            4317             728     106.951E-06     101.636E-06
            4317            4562     104.873E-06     100.487E-06
            4317            4563     103.012E-06     99.6397E-06
            4318             726     103.286E-06     100.361E-06
            4318             727     105.200E-06     101.085E-06
            4318            4563     103.012E-06     99.6397E-06
            4318            4564     101.135E-06     99.1619E-06
            4319             725     101.272E-06     101.199E-06
            4319             726     103.286E-06     100.361E-06
            4319            4564     101.135E-06     99.1619E-06
            4319            4565     98.7078E-06     100.044E-06
            4320             724     95.5917E-06     104.482E-06
            4320             725     101.272E-06     101.199E-06
            4320            4565     98.7078E-06     100.044E-06
            4320            4566     96.5713E-06     102.408E-06
            4321               7     90.7151E-06     106.004E-06
            4321             204     95.7636E-06     103.712E-06
            4321             724     95.5917E-06     104.482E-06
            4321            4566     96.5713E-06     102.408E-06
            4786              30     42.5488E-03     48.1106E-03
            4786             797     44.6155E-03     47.1373E-03
            4786             838     78.2132E-06     83.8151E-06
            4786            4987     78.3688E-06     83.7067E-06
            4787             797     44.6155E-03     47.1373E-03
            4787             798     47.2703E-03     45.9653E-03
            4787            4987     78.3688E-06     83.7067E-06
            4787            4988     79.2462E-06     83.6854E-06
            4788             798     47.2703E-03     45.9653E-03
            4788             799     47.9388E-03     46.0764E-03
            4788            4988     79.2462E-06     83.6854E-06
            4788            4989     80.6740E-06     84.8103E-06
            4789             799     47.9388E-03     46.0764E-03
            4789             800     48.3780E-03     46.2860E-03
            4789            4989     80.6740E-06     84.8103E-06
            4789            4990     82.0037E-06     87.1247E-06
            4790             800     48.3780E-03     46.2860E-03
            4790             801     49.0011E-03     46.1927E-03
            4790            4990     82.0037E-06     87.1247E-06
            4790            4991     83.6593E-06     89.8706E-06
            4791             801     49.0011E-03     46.1927E-03
            4791             802     49.6398E-03     46.3226E-03
            4791            4991     83.6593E-06     89.8706E-06
            4791            4992     85.7802E-06     93.0291E-06
            4792             802     49.6398E-03     46.3226E-03
            4792             803     50.2559E-03     46.4137E-03
            4792            4992     85.7802E-06     93.0291E-06
            4792            4993     88.3225E-06     96.4021E-06
            4793             803     50.2559E-03     46.4137E-03
            4793             804     51.0262E-03     46.6726E-03
            4793            4993     88.3225E-06     96.4021E-06
            4793            4994     91.2214E-06     100.091E-06
            4794             804     51.0262E-03     46.6726E-03
            4794             805     51.6260E-03     46.7674E-03
            4794            4994     91.2214E-06     100.091E-06
            4794            4995     94.2974E-06     103.817E-06
            4795             805     51.6260E-03     46.7674E-03
            4795             806     52.5454E-03     47.2163E-03
            4795            4995     94.2974E-06     103.817E-06
            4795            4996     97.5842E-06     107.792E-06
            4796             806     52.5454E-03     47.2163E-03
            4796             807     52.8931E-03     47.1115E-03
            4796            4996     97.5842E-06     107.792E-06
            4796            4997     100.705E-06     111.633E-06
            4797             807     52.8931E-03     47.1115E-03
            4797             808     54.0552E-03     47.3756E-03
            4797            4997     100.705E-06     111.633E-06
            4797            4998     105.066E-06     116.685E-06
            4798             808     54.0552E-03     47.3756E-03
            4798             809     51.7638E-03     45.2063E-03
            4798            4998     105.066E-06     116.685E-06
            4798            4999     111.444E-06     123.957E-06
            4799             809     51.7638E-03     45.2063E-03
            4799             810     45.9293E-03     38.5007E-03
            4799            4999     111.444E-06     123.957E-06
            4799            5000     130.058E-06     142.913E-06
            4800             810     45.9293E-03     38.5007E-03
            4800             811     29.1491E-03     33.3567E-03
            4800            5000     130.058E-06     142.913E-06
            4800            5001     177.008E-06     188.154E-06
            4801              28     14.2491E-03     31.7355E-03
            4801             811     29.1491E-03     33.3567E-03
            4801             812     208.826E-06     218.247E-06
            4801            5001     177.008E-06     188.154E-06
            4802             837     87.6472E-06     80.6950E-06
            4802             838     78.2132E-06     83.8151E-06
            4802            4987     78.3688E-06     83.7067E-06
            4802            5002     86.2420E-06     82.8809E-06
            4803            4987     78.3688E-06     83.7067E-06
            4803            4988     79.2462E-06     83.6854E-06
            4803            5002     86.2420E-06     82.8809E-06
            4803            5003     84.5525E-06     85.8760E-06
            4804            4988     79.2462E-06     83.6854E-06
            4804            4989     80.6740E-06     84.8103E-06
            4804            5003     84.5525E-06     85.8760E-06
            4804            5004     84.9238E-06     87.3691E-06
            4805            4989     80.6740E-06     84.8103E-06
            4805            4990     82.0037E-06     87.1247E-06
            4805            5004     84.9238E-06     87.3691E-06
            4805            5005     86.2698E-06     89.3377E-06
            4806            4990     82.0037E-06     87.1247E-06
            4806            4991     83.6593E-06     89.8706E-06
            4806            5005     86.2698E-06     89.3377E-06
            4806            5006     87.9007E-06     91.8921E-06
            4807            4991     83.6593E-06     89.8706E-06
            4807            4992     85.7802E-06     93.0291E-06
            4807            5006     87.9007E-06     91.8921E-06
            4807            5007     90.1406E-06     94.6863E-06
            4808            4992     85.7802E-06     93.0291E-06
            4808            4993     88.3225E-06     96.4021E-06
            4808            5007     90.1406E-06     94.6863E-06
            4808            5008     92.8783E-06     97.9879E-06
            4809            4993     88.3225E-06     96.4021E-06
            4809            4994     91.2214E-06     100.091E-06
            4809            5008     92.8783E-06     97.9879E-06
            4809            5009     96.0205E-06     101.604E-06
            4810            4994     91.2214E-06     100.091E-06
            4810            4995     94.2974E-06     103.817E-06
            4810            5009     96.0205E-06     101.604E-06
            4810            5010     99.6305E-06     105.670E-06
            4811            4995     94.2974E-06     103.817E-06
            4811            4996     97.5842E-06     107.792E-06
            4811            5010     99.6305E-06     105.670E-06
            4811            5011     103.397E-06     109.937E-06
            4812            4996     97.5842E-06     107.792E-06
            4812            4997     100.705E-06     111.633E-06
            4812            5011     103.397E-06     109.937E-06
            4812            5012     107.603E-06     114.601E-06
            4813            4997     100.705E-06     111.633E-06
            4813            4998     105.066E-06     116.685E-06
            4813            5012     107.603E-06     114.601E-06
            4813            5013     111.283E-06     119.185E-06
            4814            4998     105.066E-06     116.685E-06
            4814            4999     111.444E-06     123.957E-06
            4814            5013     111.283E-06     119.185E-06
            4814            5014     116.814E-06     124.488E-06
            4815            4999     111.444E-06     123.957E-06
            4815            5000     130.058E-06     142.913E-06
            4815            5014     116.814E-06     124.488E-06
            4815            5015     130.058E-06     135.627E-06
            4816            5000     130.058E-06     142.913E-06
            4816            5001     177.008E-06     188.154E-06
            4816            5015     130.058E-06     135.627E-06
            4816            5016     152.972E-06     153.466E-06
            4817             812     208.826E-06     218.247E-06
            4817             813     166.836E-06     163.510E-06
            4817            5001     177.008E-06     188.154E-06
            4817            5016     152.972E-06     153.466E-06
            4818             836     90.9032E-06     83.5071E-06
            4818             837     87.6472E-06     80.6950E-06
            4818            5002     86.2420E-06     82.8809E-06
            4818            5017     90.6966E-06     84.3400E-06
            4819            5002     86.2420E-06     82.8809E-06
            4819            5003     84.5525E-06     85.8760E-06
            4819            5017     90.6966E-06     84.3400E-06
            4819            5018     89.9883E-06     86.8630E-06
            4820            5003     84.5525E-06     85.8760E-06
            4820            5004     84.9238E-06     87.3691E-06
            4820            5018     89.9883E-06     86.8630E-06
            4820            5019     89.4837E-06     89.7268E-06
            4821            5004     84.9238E-06     87.3691E-06
            4821            5005     86.2698E-06     89.3377E-06
            4821            5019     89.4837E-06     89.7268E-06
            4821            5020     90.2168E-06     91.7267E-06
            4822            5005     86.2698E-06     89.3377E-06
            4822            5006     87.9007E-06     91.8921E-06
            4822            5020     90.2168E-06     91.7267E-06
            4822            5021     91.9927E-06     93.7301E-06
            4823            5006     87.9007E-06     91.8921E-06
            4823            5007     90.1406E-06     94.6863E-06
            4823            5021     91.9927E-06     93.7301E-06
            4823            5022     94.2894E-06     96.2853E-06
            4824            5007     90.1406E-06     94.6863E-06
            4824            5008     92.8783E-06     97.9879E-06
            4824            5022     94.2894E-06     96.2853E-06
            4824            5023     97.0885E-06     99.2829E-06
            4825            5008     92.8783E-06     97.9879E-06
            4825            5009     96.0205E-06     101.604E-06
            4825            5023     97.0885E-06     99.2829E-06
            4825            5024     100.450E-06     102.837E-06
            4826            5009     96.0205E-06     101.604E-06
            4826            5010     99.6305E-06     105.670E-06
            4826            5024     100.450E-06     102.837E-06
            4826            5025     104.292E-06     106.910E-06
            4827            5010     99.6305E-06     105.670E-06
            4827            5011     103.397E-06     109.937E-06
            4827            5025     104.292E-06     106.910E-06
            4827            5026     108.625E-06     111.442E-06
            4828            5011     103.397E-06     109.937E-06
            4828            5012     107.603E-06     114.601E-06
            4828            5026     108.625E-06     111.442E-06
            4828            5027     112.973E-06     116.193E-06
            4829            5012     107.603E-06     114.601E-06
            4829            5013     111.283E-06     119.185E-06
            4829            5027     112.973E-06     116.193E-06
            4829            5028     116.351E-06     120.066E-06
            4830            5013     111.283E-06     119.185E-06
            4830            5014     116.814E-06     124.488E-06
            4830            5028     116.351E-06     120.066E-06
            4830            5029     117.156E-06     121.715E-06
            4831            5014     116.814E-06     124.488E-06
            4831            5015     130.058E-06     135.627E-06
            4831            5029     117.156E-06     121.715E-06
            4831            5030     113.590E-06     117.938E-06
            4832            5015     130.058E-06     135.627E-06
            4832            5016     152.972E-06     153.466E-06
            4832            5030     113.590E-06     117.938E-06
            4832            5031     115.495E-06     119.333E-06
            4833             813     166.836E-06     163.510E-06
            4833             814     120.432E-06     124.639E-06
            4833            5016     152.972E-06     153.466E-06
            4833            5031     115.495E-06     119.333E-06
            4834             835     94.2650E-06     86.7369E-06
            4834             836     90.9032E-06     83.5071E-06
            4834            5017     90.6966E-06     84.3400E-06
            4834            5032     94.1147E-06     87.7861E-06
            4835            5017     90.6966E-06     84.3400E-06
            4835            5018     89.9883E-06     86.8630E-06
            4835            5032     94.1147E-06     87.7861E-06
            4835            5033     93.4841E-06     90.2987E-06
            4836            5018     89.9883E-06     86.8630E-06
            4836            5019     89.4837E-06     89.7268E-06
            4836            5033     93.4841E-06     90.2987E-06
            4836            5034     93.1602E-06     92.5351E-06
            4837            5019     89.4837E-06     89.7268E-06
            4837            5020     90.2168E-06     91.7267E-06
            4837            5034     93.1602E-06     92.5351E-06
            4837            5035     94.1311E-06     93.9607E-06
            4838            5020     90.2168E-06     91.7267E-06
            4838            5021     91.9927E-06     93.7301E-06
            4838            5035     94.1311E-06     93.9607E-06
            4838            5036     95.9613E-06     95.5725E-06
            4839            5021     91.9927E-06     93.7301E-06
            4839            5022     94.2894E-06     96.2853E-06
            4839            5036     95.9613E-06     95.5725E-06
            4839            5037     98.2028E-06     97.6831E-06
            4840            5022     94.2894E-06     96.2853E-06
            4840            5023     97.0885E-06     99.2829E-06
            4840            5037     98.2028E-06     97.6831E-06
            4840            5038     100.924E-06     100.257E-06
            4841            5023     97.0885E-06     99.2829E-06
            4841            5024     100.450E-06     102.837E-06
            4841            5038     100.924E-06     100.257E-06
            4841            5039     104.124E-06     103.363E-06
            4842            5024     100.450E-06     102.837E-06
            4842            5025     104.292E-06     106.910E-06
            4842            5039     104.124E-06     103.363E-06
            4842            5040     107.796E-06     106.930E-06
            4843            5025     104.292E-06     106.910E-06
            4843            5026     108.625E-06     111.442E-06
            4843            5040     107.796E-06     106.930E-06
            4843            5041     111.907E-06     110.979E-06
            4844            5026     108.625E-06     111.442E-06
            4844            5027     112.973E-06     116.193E-06
            4844            5041     111.907E-06     110.979E-06
            4844            5042     115.556E-06     114.701E-06
            4845            5027     112.973E-06     116.193E-06
            4845            5028     116.351E-06     120.066E-06
            4845            5042     115.556E-06     114.701E-06
            4845            5043     118.011E-06     117.228E-06
            4846            5028     116.351E-06     120.066E-06
            4846            5029     117.156E-06     121.715E-06
            4846            5043     118.011E-06     117.228E-06
            4846            5044     112.807E-06     114.010E-06
            4847            5029     117.156E-06     121.715E-06
            4847            5030     113.590E-06     117.938E-06
            4847            5044     112.807E-06     114.010E-06
            4847            5045     94.3270E-06     98.5187E-06
            4848            5030     113.590E-06     117.938E-06
            4848            5031     115.495E-06     119.333E-06
            4848            5045     94.3270E-06     98.5187E-06
            4848            5046     83.1071E-06     83.3294E-06
            4849             814     120.432E-06     124.639E-06
            4849             815     84.2141E-06     79.4436E-06
            4849            5031     115.495E-06     119.333E-06
            4849            5046     83.1071E-06     83.3294E-06
            4850             834     98.0490E-06     91.9739E-06
            4850             835     94.2650E-06     86.7369E-06
            4850            5032     94.1147E-06     87.7861E-06
            4850            5047     96.5617E-06     93.8919E-06
            4851            5032     94.1147E-06     87.7861E-06
            4851            5033     93.4841E-06     90.2987E-06
            4851            5047     96.5617E-06     93.8919E-06
            4851            5048     95.1883E-06     95.7295E-06
            4852            5033     93.4841E-06     90.2987E-06
            4852            5034     93.1602E-06     92.5351E-06
            4852            5048     95.1883E-06     95.7295E-06
            4852            5049     96.3157E-06     95.5666E-06
            4853            5034     93.1602E-06     92.5351E-06
            4853            5035     94.1311E-06     93.9607E-06
            4853            5049     96.3157E-06     95.5666E-06
            4853            5050     98.1374E-06     96.1592E-06
            4854            5035     94.1311E-06     93.9607E-06
            4854            5036     95.9613E-06     95.5725E-06
            4854            5050     98.1374E-06     96.1592E-06
            4854            5051     99.8826E-06     97.4758E-06
            4855            5036     95.9613E-06     95.5725E-06
            4855            5037     98.2028E-06     97.6831E-06
            4855            5051     99.8826E-06     97.4758E-06
            4855            5052     102.013E-06     99.0297E-06
            4856            5037     98.2028E-06     97.6831E-06
            4856            5038     100.924E-06     100.257E-06
            4856            5052     102.013E-06     99.0297E-06
            4856            5053     104.428E-06     101.009E-06
            4857            5038     100.924E-06     100.257E-06
            4857            5039     104.124E-06     103.363E-06
            4857            5053     104.428E-06     101.009E-06
            4857            5054     107.109E-06     103.241E-06
            4858            5039     104.124E-06     103.363E-06
            4858            5040     107.796E-06     106.930E-06
            4858            5054     107.109E-06     103.241E-06
            4858            5055     110.068E-06     105.763E-06
            4859            5040     107.796E-06     106.930E-06
            4859            5041     111.907E-06     110.979E-06
            4859            5055     110.068E-06     105.763E-06
            4859            5056     112.877E-06     108.145E-06
            4860            5041     111.907E-06     110.979E-06
            4860            5042     115.556E-06     114.701E-06
            4860            5056     112.877E-06     108.145E-06
            4860            5057     115.274E-06     110.041E-06
            4861            5042     115.556E-06     114.701E-06
            4861            5043     118.011E-06     117.228E-06
            4861            5057     115.274E-06     110.041E-06
            4861            5058     114.524E-06     109.251E-06
            4862            5043     118.011E-06     117.228E-06
            4862            5044     112.807E-06     114.010E-06
            4862            5058     114.524E-06     109.251E-06
            4862            5059     107.934E-06     102.722E-06
            4863            5044     112.807E-06     114.010E-06
            4863            5045     94.3270E-06     98.5187E-06
            4863            5059     107.934E-06     102.722E-06
            4863            5060     84.2621E-06     81.8888E-06
            4864            5045     94.3270E-06     98.5187E-06
            4864            5046     83.1071E-06     83.3294E-06
            4864            5060     84.2621E-06     81.8888E-06
            4864            5061     56.7028E-06     54.8778E-06
            4865             815     84.2141E-06     79.4436E-06
            4865             816     48.0634E-06     43.8358E-06
            4865            5046     83.1071E-06     83.3294E-06
            4865            5061     56.7028E-06     54.8778E-06
            4866             833     94.9006E-06     102.900E-06
            4866             834     98.0490E-06     91.9739E-06
            4866            5047     96.5617E-06     93.8919E-06
            4866            5062     95.7450E-06     101.551E-06
            4867            5047     96.5617E-06     93.8919E-06
            4867            5048     95.1883E-06     95.7295E-06
            4867            5062     95.7450E-06     101.551E-06
            4867            5063     97.9208E-06     99.1308E-06
            4868            5048     95.1883E-06     95.7295E-06
            4868            5049     96.3157E-06     95.5666E-06
            4868            5063     97.9208E-06     99.1308E-06
            4868            5064     100.317E-06     98.2356E-06
            4869            5049     96.3157E-06     95.5666E-06
            4869            5050     98.1374E-06     96.1592E-06
            4869            5064     100.317E-06     98.2356E-06
            4869            5065     102.134E-06     98.6979E-06
            4870            5050     98.1374E-06     96.1592E-06
            4870            5051     99.8826E-06     97.4758E-06
            4870            5065     102.134E-06     98.6979E-06
            4870            5066     103.943E-06     99.5087E-06
            4871            5051     99.8826E-06     97.4758E-06
            4871            5052     102.013E-06     99.0297E-06
            4871            5066     103.943E-06     99.5087E-06
            4871            5067     105.881E-06     100.653E-06
            4872            5052     102.013E-06     99.0297E-06
            4872            5053     104.428E-06     101.009E-06
            4872            5067     105.881E-06     100.653E-06
            4872            5068     107.886E-06     101.871E-06
            4873            5053     104.428E-06     101.009E-06
            4873            5054     107.109E-06     103.241E-06
            4873            5068     107.886E-06     101.871E-06
            4873            5069     109.912E-06     103.130E-06
            4874            5054     107.109E-06     103.241E-06
            4874            5055     110.068E-06     105.763E-06
            4874            5069     109.912E-06     103.130E-06
            4874            5070     111.644E-06     104.113E-06
            4875            5055     110.068E-06     105.763E-06
            4875            5056     112.877E-06     108.145E-06
            4875            5070     111.644E-06     104.113E-06
            4875            5071     112.783E-06     104.391E-06
            4876            5056     112.877E-06     108.145E-06
            4876            5057     115.274E-06     110.041E-06
            4876            5071     112.783E-06     104.391E-06
            4876            5072     112.237E-06     103.025E-06
            4877            5057     115.274E-06     110.041E-06
            4877            5058     114.524E-06     109.251E-06
            4877            5072     112.237E-06     103.025E-06
            4877            5073     108.528E-06     98.2858E-06
            4878            5058     114.524E-06     109.251E-06
            4878            5059     107.934E-06     102.722E-06
            4878            5073     108.528E-06     98.2858E-06
            4878            5074     98.5169E-06     86.9316E-06
            4879            5059     107.934E-06     102.722E-06
            4879            5060     84.2621E-06     81.8888E-06
            4879            5074     98.5169E-06     86.9316E-06
            4879            5075     77.0744E-06     64.6985E-06
            4880            5060     84.2621E-06     81.8888E-06
            4880            5061     56.7028E-06     54.8778E-06
            4880            5075     77.0744E-06     64.6985E-06
            4880            5076     48.6299E-06     50.3879E-06
            4881             816     48.0634E-06     43.8358E-06
            4881             817     34.4703E-06     50.3743E-06
            4881            5061     56.7028E-06     54.8778E-06
            4881            5076     48.6299E-06     50.3879E-06
            4882              32     89.8433E-06     105.136E-06
            4882             832     94.7362E-06     103.534E-06
            4882             833     94.9006E-06     102.900E-06
            4882            5062     95.7450E-06     101.551E-06
            4883             831     100.413E-06     100.192E-06
            4883             832     94.7362E-06     103.534E-06
            4883            5062     95.7450E-06     101.551E-06
            4883            5063     97.9208E-06     99.1308E-06
            4884             830     102.381E-06     99.3814E-06
            4884             831     100.413E-06     100.192E-06
            4884            5063     97.9208E-06     99.1308E-06
            4884            5064     100.317E-06     98.2356E-06
            4885             829     104.252E-06     100.081E-06
            4885             830     102.381E-06     99.3814E-06
            4885            5064     100.317E-06     98.2356E-06
            4885            5065     102.134E-06     98.6979E-06
            4886             828     105.976E-06     100.604E-06
            4886             829     104.252E-06     100.081E-06
            4886            5065     102.134E-06     98.6979E-06
            4886            5066     103.943E-06     99.5087E-06
            4887             827     107.864E-06     101.539E-06
            4887             828     105.976E-06     100.604E-06
            4887            5066     103.943E-06     99.5087E-06
            4887            5067     105.881E-06     100.653E-06
            4888             826     109.662E-06     102.429E-06
            4888             827     107.864E-06     101.539E-06
            4888            5067     105.881E-06     100.653E-06
            4888            5068     107.886E-06     101.871E-06
            4889             825     111.323E-06     103.141E-06
            4889             826     109.662E-06     102.429E-06
            4889            5068     107.886E-06     101.871E-06
            4889            5069     109.912E-06     103.130E-06
            4890             824     112.441E-06     103.361E-06
            4890             825     111.323E-06     103.141E-06
            4890            5069     109.912E-06     103.130E-06
            4890            5070     111.644E-06     104.113E-06
            4891             823     112.592E-06     102.519E-06
            4891             824     112.441E-06     103.361E-06
            4891            5070     111.644E-06     104.113E-06
            4891            5071     112.783E-06     104.391E-06
            4892             822     110.310E-06     99.1761E-06
            4892             823     112.592E-06     102.519E-06
            4892            5071     112.783E-06     104.391E-06
            4892            5072     112.237E-06     103.025E-06
            4893             821     105.189E-06     92.5445E-06
            4893             822     110.310E-06     99.1761E-06
            4893            5072     112.237E-06     103.025E-06
            4893            5073     108.528E-06     98.2858E-06
            4894             820     91.9421E-06     77.6466E-06
            4894             821     105.189E-06     92.5445E-06
            4894            5073     108.528E-06     98.2858E-06
            4894            5074     98.5169E-06     86.9316E-06
            4895             819     72.2936E-06     55.0250E-06
            4895             820     91.9421E-06     77.6466E-06
            4895            5074     98.5169E-06     86.9316E-06
            4895            5075     77.0744E-06     64.6985E-06
            4896             818     50.2810E-06     57.3163E-06
            4896             819     72.2936E-06     55.0250E-06
            4896            5075     77.0744E-06     64.6985E-06
            4896            5076     48.6299E-06     50.3879E-06
            4897              31     37.7613E-06     71.6754E-06
            4897             817     34.4703E-06     50.3743E-06
            4897             818     50.2810E-06     57.3163E-06
            4897            5076     48.6299E-06     50.3879E-06
            5687              22     102.325E-03     121.300E-03
            5687             547     116.791E-03     133.334E-03
            5687             754     60.8857E-03     56.8242E-03
            5687            5695     70.3072E-03     78.7964E-03
            5688             546     150.340E-03     165.169E-03
            5688             547     116.791E-03     133.334E-03
            5688            5695     70.3072E-03     78.7964E-03
            5688            5696     99.1573E-03     123.515E-03
            5689             545     191.853E-03     207.762E-03
            5689             546     150.340E-03     165.169E-03
            5689            5696     99.1573E-03     123.515E-03
            5689            5697     141.798E-03     169.827E-03
            5690             544     238.644E-03     254.859E-03
            5690             545     191.853E-03     207.762E-03
            5690            5697     141.798E-03     169.827E-03
            5690            5698     189.227E-03     218.250E-03
            5691             543     288.511E-03     304.077E-03
            5691             544     238.644E-03     254.859E-03
            5691            5698     189.227E-03     218.250E-03
            5691            5699     238.479E-03     267.925E-03
            5692             542     339.660E-03     355.136E-03
            5692             543     288.511E-03     304.077E-03
            5692            5699     238.479E-03     267.925E-03
            5692            5700     288.552E-03     318.157E-03
            5693             541     391.656E-03     406.772E-03
            5693             542     339.660E-03     355.136E-03
            5693            5700     288.552E-03     318.157E-03
            5693            5701     339.057E-03     368.663E-03
            5694             540     443.781E-03     458.957E-03
            5694             541     391.656E-03     406.772E-03
            5694            5701     339.057E-03     368.663E-03
            5694            5702     389.751E-03     419.525E-03
            5695             539     496.021E-03     510.704E-03
            5695             540     443.781E-03     458.957E-03
            5695            5702     389.751E-03     419.525E-03
            5695            5703     440.647E-03     470.274E-03
            5696             538     547.531E-03     562.015E-03
            5696             539     496.021E-03     510.704E-03
            5696            5703     440.647E-03     470.274E-03
            5696            5704     491.611E-03     521.382E-03
            5697             537     598.564E-03     611.688E-03
            5697             538     547.531E-03     562.015E-03
            5697            5704     491.611E-03     521.382E-03
            5697            5705     542.429E-03     572.065E-03
            5698             536     646.968E-03     658.421E-03
            5698             537     598.564E-03     611.688E-03
            5698            5705     542.429E-03     572.065E-03
            5698            5706     593.653E-03     623.119E-03
            5699             535     694.680E-03     701.617E-03
            5699             536     646.968E-03     658.421E-03
            5699            5706     593.653E-03     623.119E-03
            5699            5707     644.095E-03     674.058E-03
            5700             534     737.089E-03     739.955E-03
            5700             535     694.680E-03     701.617E-03
            5700            5707     644.095E-03     674.058E-03
            5700            5708     702.884E-03     732.766E-03
            5701             533     792.147E-03     804.019E-03
            5701             534     737.089E-03     739.955E-03
            5701            5708     702.884E-03     732.766E-03
            5701            5709     790.146E-03     812.770E-03
            5702              21     830.094E-03     849.622E-03
            5702             533     792.147E-03     804.019E-03
            5702             664     843.358E-03     858.505E-03
            5702            5709     790.146E-03     812.770E-03
            5703             754     60.8857E-03     56.8242E-03
            5703             755     94.5666E-03     86.0532E-03
            5703            5695     70.3072E-03     78.7964E-03
            5703            5710     101.264E-03     100.920E-03
            5704            5695     70.3072E-03     78.7964E-03
            5704            5696     99.1573E-03     123.515E-03
            5704            5710     101.264E-03     100.920E-03
            5704            5711     125.672E-03     133.882E-03
            5705            5696     99.1573E-03     123.515E-03
            5705            5697     141.798E-03     169.827E-03
            5705            5711     125.672E-03     133.882E-03
            5705            5712     165.296E-03     173.804E-03
            5706            5697     141.798E-03     169.827E-03
            5706            5698     189.227E-03     218.250E-03
            5706            5712     165.296E-03     173.804E-03
            5706            5713     210.307E-03     219.078E-03
            5707            5698     189.227E-03     218.250E-03
            5707            5699     238.479E-03     267.925E-03
            5707            5713     210.307E-03     219.078E-03
            5707            5714     257.426E-03     266.856E-03
            5708            5699     238.479E-03     267.925E-03
            5708            5700     288.552E-03     318.157E-03
            5708            5714     257.426E-03     266.856E-03
            5708            5715     306.147E-03     315.700E-03
            5709            5700     288.552E-03     318.157E-03
            5709            5701     339.057E-03     368.663E-03
            5709            5715     306.147E-03     315.700E-03
            5709            5716     355.621E-03     365.308E-03
            5710            5701     339.057E-03     368.663E-03
            5710            5702     389.751E-03     419.525E-03
            5710            5716     355.621E-03     365.308E-03
            5710            5717     405.679E-03     415.314E-03
            5711            5702     389.751E-03     419.525E-03
            5711            5703     440.647E-03     470.274E-03
            5711            5717     405.679E-03     415.314E-03
            5711            5718     456.069E-03     465.819E-03
            5712            5703     440.647E-03     470.274E-03
            5712            5704     491.611E-03     521.382E-03
            5712            5718     456.069E-03     465.819E-03
            5712            5719     506.903E-03     516.478E-03
            5713            5704     491.611E-03     521.382E-03
            5713            5705     542.429E-03     572.065E-03
            5713            5719     506.903E-03     516.478E-03
            5713            5720     558.182E-03     567.855E-03
            5714            5705     542.429E-03     572.065E-03
            5714            5706     593.653E-03     623.119E-03
            5714            5720     558.182E-03     567.855E-03
            5714            5721     609.987E-03     620.116E-03
            5715            5706     593.653E-03     623.119E-03
            5715            5707     644.095E-03     674.058E-03
            5715            5721     609.987E-03     620.116E-03
            5715            5722     661.855E-03     673.776E-03
            5716            5707     644.095E-03     674.058E-03
            5716            5708     702.884E-03     732.766E-03
            5716            5722     661.855E-03     673.776E-03
            5716            5723     721.230E-03     734.811E-03
            5717            5708     702.884E-03     732.766E-03
            5717            5709     790.146E-03     812.770E-03
            5717            5723     721.230E-03     734.811E-03
            5717            5724     772.303E-03     775.547E-03
            5718             664     843.358E-03     858.505E-03
            5718             665     789.615E-03     782.959E-03
            5718            5709     790.146E-03     812.770E-03
            5718            5724     772.303E-03     775.547E-03
            5719             755     94.5666E-03     86.0532E-03
            5719             756     116.296E-03     124.820E-03
            5719            5710     101.264E-03     100.920E-03
            5719            5725     126.803E-03     129.993E-03
            5720            5710     101.264E-03     100.920E-03
            5720            5711     125.672E-03     133.882E-03
            5720            5725     126.803E-03     129.993E-03
            5720            5726     154.338E-03     149.671E-03
            5721            5711     125.672E-03     133.882E-03
            5721            5712     165.296E-03     173.804E-03
            5721            5726     154.338E-03     149.671E-03
            5721            5727     191.573E-03     183.963E-03
            5722            5712     165.296E-03     173.804E-03
            5722            5713     210.307E-03     219.078E-03
            5722            5727     191.573E-03     183.963E-03
            5722            5728     233.826E-03     225.299E-03
            5723            5713     210.307E-03     219.078E-03
            5723            5714     257.426E-03     266.856E-03
            5723            5728     233.826E-03     225.299E-03
            5723            5729     278.990E-03     269.805E-03
            5724            5714     257.426E-03     266.856E-03
            5724            5715     306.147E-03     315.700E-03
            5724            5729     278.990E-03     269.805E-03
            5724            5730     325.819E-03     316.418E-03
            5725            5715     306.147E-03     315.700E-03
            5725            5716     355.621E-03     365.308E-03
            5725            5730     325.819E-03     316.418E-03
            5725            5731     373.770E-03     364.102E-03
            5726            5716     355.621E-03     365.308E-03
            5726            5717     405.679E-03     415.314E-03
            5726            5731     373.770E-03     364.102E-03
            5726            5732     422.234E-03     412.498E-03
            5727            5717     405.679E-03     415.314E-03
            5727            5718     456.069E-03     465.819E-03
            5727            5732     422.234E-03     412.498E-03
            5727            5733     471.133E-03     461.208E-03
            5728            5718     456.069E-03     465.819E-03
            5728            5719     506.903E-03     516.478E-03
            5728            5733     471.133E-03     461.208E-03
            5728            5734     519.878E-03     510.052E-03
            5729            5719     506.903E-03     516.478E-03
            5729            5720     558.182E-03     567.855E-03
            5729            5734     519.878E-03     510.052E-03
            5729            5735     568.943E-03     558.753E-03
            5730            5720     558.182E-03     567.855E-03
            5730            5721     609.987E-03     620.116E-03
            5730            5735     568.943E-03     558.753E-03
            5730            5736     617.186E-03     607.318E-03
            5731            5721     609.987E-03     620.116E-03
            5731            5722     661.855E-03     673.776E-03
            5731            5736     617.186E-03     607.318E-03
            5731            5737     665.917E-03     655.260E-03
            5732            5722     661.855E-03     673.776E-03
            5732            5723     721.230E-03     734.811E-03
            5732            5737     665.917E-03     655.260E-03
            5732            5738     707.425E-03     696.600E-03
            5733            5723     721.230E-03     734.811E-03
            5733            5724     772.303E-03     775.547E-03
            5733            5738     707.425E-03     696.600E-03
            5733            5739     721.376E-03     715.385E-03
            5734             665     789.615E-03     782.959E-03
            5734             666     719.306E-03     716.402E-03
            5734            5724     772.303E-03     775.547E-03
            5734            5739     721.376E-03     715.385E-03
            5735             756     116.296E-03     124.820E-03
            5735             757     69.6501E-03     78.8977E-03
            5735            5725     126.803E-03     129.993E-03
            5735            5740     83.6992E-03     90.9595E-03
            5736            5725     126.803E-03     129.993E-03
            5736            5726     154.338E-03     149.671E-03
            5736            5740     83.6992E-03     90.9595E-03
            5736            5741     114.604E-03     118.924E-03
            5737            5726     154.338E-03     149.671E-03
            5737            5727     191.573E-03     183.963E-03
            5737            5741     114.604E-03     118.924E-03
            5737            5742     150.518E-03     153.554E-03
            5738            5727     191.573E-03     183.963E-03
            5738            5728     233.826E-03     225.299E-03
            5738            5742     150.518E-03     153.554E-03
            5738            5743     189.446E-03     192.190E-03
            5739            5728     233.826E-03     225.299E-03
            5739            5729     278.990E-03     269.805E-03
            5739            5743     189.446E-03     192.190E-03
            5739            5744     230.028E-03     232.331E-03
            5740            5729     278.990E-03     269.805E-03
            5740            5730     325.819E-03     316.418E-03
            5740            5744     230.028E-03     232.331E-03
            5740            5745     271.548E-03     273.623E-03
            5741            5730     325.819E-03     316.418E-03
            5741            5731     373.770E-03     364.102E-03
            5741            5745     271.548E-03     273.623E-03
            5741            5746     313.822E-03     315.328E-03
            5742            5731     373.770E-03     364.102E-03
            5742            5732     422.234E-03     412.498E-03
            5742            5746     313.822E-03     315.328E-03
            5742            5747     356.474E-03     357.606E-03
            5743            5732     422.234E-03     412.498E-03
            5743            5733     471.133E-03     461.208E-03
            5743            5747     356.474E-03     357.606E-03
            5743            5748     399.776E-03     399.827E-03
            5744            5733     471.133E-03     461.208E-03
            5744            5734     519.878E-03     510.052E-03
            5744            5748     399.776E-03     399.827E-03
            5744            5749     443.503E-03     442.879E-03
            5745            5734     519.878E-03     510.052E-03
            5745            5735     568.943E-03     558.753E-03
            5745            5749     443.503E-03     442.879E-03
            5745            5750     488.365E-03     486.064E-03
            5746            5735     568.943E-03     558.753E-03
            5746            5736     617.186E-03     607.318E-03
            5746            5750     488.365E-03     486.064E-03
            5746            5751     534.900E-03     531.167E-03
            5747            5736     617.186E-03     607.318E-03
            5747            5737     665.917E-03     655.260E-03
            5747            5751     534.900E-03     531.167E-03
            5747            5752     584.451E-03     578.939E-03
            5748            5737     665.917E-03     655.260E-03
            5748            5738     707.425E-03     696.600E-03
            5748            5752     584.451E-03     578.939E-03
            5748            5753     632.749E-03     627.337E-03
            5749            5738     707.425E-03     696.600E-03
            5749            5739     721.376E-03     715.385E-03
            5749            5753     632.749E-03     627.337E-03
            5749            5754     693.449E-03     700.155E-03
            5750             666     719.306E-03     716.402E-03
            5750             667     732.117E-03     747.967E-03
            5750            5739     721.376E-03     715.385E-03
            5750            5754     693.449E-03     700.155E-03
            5751             757     69.6501E-03     78.8977E-03
            5751             758     28.5787E-03     28.1932E-03
            5751            5740     83.6992E-03     90.9595E-03
            5751            5755     39.0088E-03     45.5407E-03
            5752            5740     83.6992E-03     90.9595E-03
            5752            5741     114.604E-03     118.924E-03
            5752            5755     39.0088E-03     45.5407E-03
            5752            5756     66.2877E-03     81.6631E-03
            5753            5741     114.604E-03     118.924E-03
            5753            5742     150.518E-03     153.554E-03
            5753            5756     66.2877E-03     81.6631E-03
            5753            5757     101.123E-03     119.393E-03
            5754            5742     150.518E-03     153.554E-03
            5754            5743     189.446E-03     192.190E-03
            5754            5757     101.123E-03     119.393E-03
            5754            5758     137.596E-03     157.334E-03
            5755            5743     189.446E-03     192.190E-03
            5755            5744     230.028E-03     232.331E-03
            5755            5758     137.596E-03     157.334E-03
            5755            5759     174.679E-03     195.121E-03
            5756            5744     230.028E-03     232.331E-03
            5756            5745     271.548E-03     273.623E-03
            5756            5759     174.679E-03     195.121E-03
            5756            5760     212.068E-03     232.787E-03
            5757            5745     271.548E-03     273.623E-03
            5757            5746     313.822E-03     315.328E-03
            5757            5760     212.068E-03     232.787E-03
            5757            5761     249.756E-03     270.286E-03
            5758            5746     313.822E-03     315.328E-03
            5758            5747     356.474E-03     357.606E-03
            5758            5761     249.756E-03     270.286E-03
            5758            5762     287.965E-03     307.968E-03
            5759            5747     356.474E-03     357.606E-03
            5759            5748     399.776E-03     399.827E-03
            5759            5762     287.965E-03     307.968E-03
            5759            5763     326.864E-03     345.944E-03
            5760            5748     399.776E-03     399.827E-03
            5760            5749     443.503E-03     442.879E-03
            5760            5763     326.864E-03     345.944E-03
            5760            5764     367.446E-03     385.252E-03
            5761            5749     443.503E-03     442.879E-03
            5761            5750     488.365E-03     486.064E-03
            5761            5764     367.446E-03     385.252E-03
            5761            5765     410.267E-03     426.550E-03
            5762            5750     488.365E-03     486.064E-03
            5762            5751     534.900E-03     531.167E-03
            5762            5765     410.267E-03     426.550E-03
            5762            5766     458.502E-03     473.160E-03
            5763            5751     534.900E-03     531.167E-03
            5763            5752     584.451E-03     578.939E-03
            5763            5766     458.502E-03     473.160E-03
            5763            5767     513.747E-03     527.427E-03
            5764            5752     584.451E-03     578.939E-03
            5764            5753     632.749E-03     627.337E-03
            5764            5767     513.747E-03     527.427E-03
            5764            5768     588.584E-03     603.003E-03
            5765            5753     632.749E-03     627.337E-03
            5765            5754     693.449E-03     700.155E-03
            5765            5768     588.584E-03     603.003E-03
            5765            5769     702.410E-03     712.196E-03
            5766             667     732.117E-03     747.967E-03
            5766             668     770.234E-03     774.382E-03
            5766            5754     693.449E-03     700.155E-03
            5766            5769     702.410E-03     712.196E-03
            5767             758     28.5787E-03     28.1932E-03
            5767             759     48.4686E-03     45.2338E-03
            5767            5755     39.0088E-03     45.5407E-03
            5767            5770     56.8179E-03     58.5905E-03
            5768            5755     39.0088E-03     45.5407E-03
            5768            5756     66.2877E-03     81.6631E-03
            5768            5770     56.8179E-03     58.5905E-03
            5768            5771     80.2291E-03     89.7953E-03
            5769            5756     66.2877E-03     81.6631E-03
            5769            5757     101.123E-03     119.393E-03
            5769            5771     80.2291E-03     89.7953E-03
            5769            5772     112.545E-03     126.087E-03
            5770            5757     101.123E-03     119.393E-03
            5770            5758     137.596E-03     157.334E-03
            5770            5772     112.545E-03     126.087E-03
            5770            5773     147.991E-03     163.435E-03
            5771            5758     137.596E-03     157.334E-03
            5771            5759     174.679E-03     195.121E-03
            5771            5773     147.991E-03     163.435E-03
            5771            5774     184.856E-03     201.387E-03
            5772            5759     174.679E-03     195.121E-03
            5772            5760     212.068E-03     232.787E-03
            5772            5774     184.856E-03     201.387E-03
            5772            5775     222.433E-03     239.502E-03
            5773            5760     212.068E-03     232.787E-03
            5773            5761     249.756E-03     270.286E-03
            5773            5775     222.433E-03     239.502E-03
            5773            5776     260.593E-03     277.933E-03
            5774            5761     249.756E-03     270.286E-03
            5774            5762     287.965E-03     307.968E-03
            5774            5776     260.593E-03     277.933E-03
            5774            5777     299.244E-03     316.720E-03
            5775            5762     287.965E-03     307.968E-03
            5775            5763     326.864E-03     345.944E-03
            5775            5777     299.244E-03     316.720E-03
            5775            5778     338.869E-03     356.302E-03
            5776            5763     326.864E-03     345.944E-03
            5776            5764     367.446E-03     385.252E-03
            5776            5778     338.869E-03     356.302E-03
            5776            5779     379.774E-03     397.256E-03
            5777            5764     367.446E-03     385.252E-03
            5777            5765     410.267E-03     426.550E-03
            5777            5779     379.774E-03     397.256E-03
            5777            5780     423.624E-03     440.815E-03
            5778            5765     410.267E-03     426.550E-03
            5778            5766     458.502E-03     473.160E-03
            5778            5780     423.624E-03     440.815E-03
            5778            5781     472.063E-03     489.172E-03
            5779            5766     458.502E-03     473.160E-03
            5779            5767     513.747E-03     527.427E-03
            5779            5781     472.063E-03     489.172E-03
            5779            5782     529.283E-03     545.526E-03
            5780            5767     513.747E-03     527.427E-03
            5780            5768     588.584E-03     603.003E-03
            5780            5782     529.283E-03     545.526E-03
            5780            5783     607.572E-03     618.888E-03
            5781            5768     588.584E-03     603.003E-03
            5781            5769     702.410E-03     712.196E-03
            5781            5783     607.572E-03     618.888E-03
            5781            5784     692.127E-03     694.257E-03
            5782             668     770.234E-03     774.382E-03
            5782             669     730.350E-03     727.026E-03
            5782            5769     702.410E-03     712.196E-03
            5782            5784     692.127E-03     694.257E-03
            5783             759     48.4686E-03     45.2338E-03
            5783             760     67.9924E-03     62.7631E-03
            5783            5770     56.8179E-03     58.5905E-03
            5783            5785     74.7495E-03     73.9296E-03
            5784            5770     56.8179E-03     58.5905E-03
            5784            5771     80.2291E-03     89.7953E-03
            5784            5785     74.7495E-03     73.9296E-03
            5784            5786     94.9672E-03     100.863E-03
            5785            5771     80.2291E-03     89.7953E-03
            5785            5772     112.545E-03     126.087E-03
            5785            5786     94.9672E-03     100.863E-03
            5785            5787     124.825E-03     134.559E-03
            5786            5772     112.545E-03     126.087E-03
            5786            5773     147.991E-03     163.435E-03
            5786            5787     124.825E-03     134.559E-03
            5786            5788     158.961E-03     170.944E-03
            5787            5773     147.991E-03     163.435E-03
            5787            5774     184.856E-03     201.387E-03
            5787            5788     158.961E-03     170.944E-03
            5787            5789     195.213E-03     208.337E-03
            5788            5774     184.856E-03     201.387E-03
            5788            5775     222.433E-03     239.502E-03
            5788            5789     195.213E-03     208.337E-03
            5788            5790     232.732E-03     246.585E-03
            5789            5775     222.433E-03     239.502E-03
            5789            5776     260.593E-03     277.933E-03
            5789            5790     232.732E-03     246.585E-03
            5789            5791     271.010E-03     285.447E-03
            5790            5776     260.593E-03     277.933E-03
            5790            5777     299.244E-03     316.720E-03
            5790            5791     271.010E-03     285.447E-03
            5790            5792     310.065E-03     325.039E-03
            5791            5777     299.244E-03     316.720E-03
            5791            5778     338.869E-03     356.302E-03
            5791            5792     310.065E-03     325.039E-03
            5791            5793     349.927E-03     365.651E-03
            5792            5778     338.869E-03     356.302E-03
            5792            5779     379.774E-03     397.256E-03
            5792            5793     349.927E-03     365.651E-03
            5792            5794     391.165E-03     407.579E-03
            5793            5779     379.774E-03     397.256E-03
            5793            5780     423.624E-03     440.815E-03
            5793            5794     391.165E-03     407.579E-03
            5793            5795     434.816E-03     451.958E-03
            5794            5780     423.624E-03     440.815E-03
            5794            5781     472.063E-03     489.172E-03
            5794            5795     434.816E-03     451.958E-03
            5794            5796     482.069E-03     499.397E-03
            5795            5781     472.063E-03     489.172E-03
            5795            5782     529.283E-03     545.526E-03
            5795            5796     482.069E-03     499.397E-03
            5795            5797     538.340E-03     553.401E-03
            5796            5782     529.283E-03     545.526E-03
            5796            5783     607.572E-03     618.888E-03
            5796            5797     538.340E-03     553.401E-03
            5796            5798     600.088E-03     611.507E-03
            5797            5783     607.572E-03     618.888E-03
            5797            5784     692.127E-03     694.257E-03
            5797            5798     600.088E-03     611.507E-03
            5797            5799     657.577E-03     668.117E-03
            5798             669     730.350E-03     727.026E-03
            5798             670     684.826E-03     696.211E-03
            5798            5784     692.127E-03     694.257E-03
            5798            5799     657.577E-03     668.117E-03
            5799             760     67.9924E-03     62.7631E-03
            5799             761     85.7629E-03     81.1023E-03
            5799            5785     74.7495E-03     73.9296E-03
            5799            5800     91.7908E-03     89.9407E-03
            5800            5785     74.7495E-03     73.9296E-03
            5800            5786     94.9672E-03     100.863E-03
            5800            5800     91.7908E-03     89.9407E-03
            5800            5801     109.791E-03     113.314E-03
            5801            5786     94.9672E-03     100.863E-03
            5801            5787     124.825E-03     134.559E-03
            5801            5801     109.791E-03     113.314E-03
            5801            5802     137.113E-03     144.384E-03
            5802            5787     124.825E-03     134.559E-03
            5802            5788     158.961E-03     170.944E-03
            5802            5802     137.113E-03     144.384E-03
            5802            5803     169.680E-03     178.796E-03
            5803            5788     158.961E-03     170.944E-03
            5803            5789     195.213E-03     208.337E-03
            5803            5803     169.680E-03     178.796E-03
            5803            5804     205.092E-03     215.247E-03
            5804            5789     195.213E-03     208.337E-03
            5804            5790     232.732E-03     246.585E-03
            5804            5804     205.092E-03     215.247E-03
            5804            5805     242.122E-03     252.912E-03
            5805            5790     232.732E-03     246.585E-03
            5805            5791     271.010E-03     285.447E-03
            5805            5805     242.122E-03     252.912E-03
            5805            5806     280.271E-03     291.643E-03
            5806            5791     271.010E-03     285.447E-03
            5806            5792     310.065E-03     325.039E-03
            5806            5806     280.271E-03     291.643E-03
            5806            5807     319.223E-03     331.431E-03
            5807            5792     310.065E-03     325.039E-03
            5807            5793     349.927E-03     365.651E-03
            5807            5807     319.223E-03     331.431E-03
            5807            5808     358.925E-03     372.172E-03
            5808            5793     349.927E-03     365.651E-03
            5808            5794     391.165E-03     407.579E-03
            5808            5808     358.925E-03     372.172E-03
            5808            5809     399.731E-03     414.229E-03
            5809            5794     391.165E-03     407.579E-03
            5809            5795     434.816E-03     451.958E-03
            5809            5809     399.731E-03     414.229E-03
            5809            5810     441.541E-03     457.370E-03
            5810            5795     434.816E-03     451.958E-03
            5810            5796     482.069E-03     499.397E-03
            5810            5810     441.541E-03     457.370E-03
            5810            5811     486.396E-03     502.325E-03
            5811            5796     482.069E-03     499.397E-03
            5811            5797     538.340E-03     553.401E-03
            5811            5811     486.396E-03     502.325E-03
            5811            5812     532.975E-03     548.052E-03
            5812            5797     538.340E-03     553.401E-03
            5812            5798     600.088E-03     611.507E-03
            5812            5812     532.975E-03     548.052E-03
            5812            5813     579.454E-03     592.305E-03
            5813            5798     600.088E-03     611.507E-03
            5813            5799     657.577E-03     668.117E-03
            5813            5813     579.454E-03     592.305E-03
            5813            5814     626.684E-03     632.248E-03
            5814             670     684.826E-03     696.211E-03
            5814             671     650.226E-03     650.387E-03
            5814            5799     657.577E-03     668.117E-03
            5814            5814     626.684E-03     632.248E-03
            5815             761     85.7629E-03     81.1023E-03
            5815             762     103.255E-03     97.3557E-03
            5815            5800     91.7908E-03     89.9407E-03
            5815            5815     108.389E-03     105.904E-03
            5816            5800     91.7908E-03     89.9407E-03
            5816            5801     109.791E-03     113.314E-03
            5816            5815     108.389E-03     105.904E-03
            5816            5816     124.162E-03     126.875E-03
            5817            5801     109.791E-03     113.314E-03
            5817            5802     137.113E-03     144.384E-03
            5817            5816     124.162E-03     126.875E-03
            5817            5817     149.161E-03     154.652E-03
            5818            5802     137.113E-03     144.384E-03
            5818            5803     169.680E-03     178.796E-03
            5818            5817     149.161E-03     154.652E-03
            5818            5818     179.917E-03     186.830E-03
            5819            5803     169.680E-03     178.796E-03
            5819            5804     205.092E-03     215.247E-03
            5819            5818     179.917E-03     186.830E-03
            5819            5819     214.034E-03     221.399E-03
            5820            5804     205.092E-03     215.247E-03
            5820            5805     242.122E-03     252.912E-03
            5820            5819     214.034E-03     221.399E-03
            5820            5820     250.226E-03     257.780E-03
            5821            5805     242.122E-03     252.912E-03
            5821            5806     280.271E-03     291.643E-03
            5821            5820     250.226E-03     257.780E-03
            5821            5821     287.661E-03     295.685E-03
            5822            5806     280.271E-03     291.643E-03
            5822            5807     319.223E-03     331.431E-03
            5822            5821     287.661E-03     295.685E-03
            5822            5822     325.912E-03     334.707E-03
            5823            5807     319.223E-03     331.431E-03
            5823            5808     358.925E-03     372.172E-03
            5823            5822     325.912E-03     334.707E-03
            5823            5823     364.892E-03     374.803E-03
            5824            5808     358.925E-03     372.172E-03
            5824            5809     399.731E-03     414.229E-03
            5824            5823     364.892E-03     374.803E-03
            5824            5824     404.035E-03     415.539E-03
            5825            5809     399.731E-03     414.229E-03
            5825            5810     441.541E-03     457.370E-03
            5825            5824     404.035E-03     415.539E-03
            5825            5825     443.680E-03     456.658E-03
            5826            5810     441.541E-03     457.370E-03
            5826            5811     486.396E-03     502.325E-03
            5826            5825     443.680E-03     456.658E-03
            5826            5826     482.464E-03     496.957E-03
            5827            5811     486.396E-03     502.325E-03
            5827            5812     532.975E-03     548.052E-03
            5827            5826     482.464E-03     496.957E-03
            5827            5827     519.994E-03     534.490E-03
            5828            5812     532.975E-03     548.052E-03
            5828            5813     579.454E-03     592.305E-03
            5828            5827     519.994E-03     534.490E-03
            5828            5828     556.604E-03     567.565E-03
            5829            5813     579.454E-03     592.305E-03
            5829            5814     626.684E-03     632.248E-03
            5829            5828     556.604E-03     567.565E-03
            5829            5829     591.626E-03     598.775E-03
            5830             671     650.226E-03     650.387E-03
            5830             672     608.980E-03     614.868E-03
            5830            5814     626.684E-03     632.248E-03
            5830            5829     591.626E-03     598.775E-03
            5831             762     103.255E-03     97.3557E-03
            5831             763     120.170E-03     116.852E-03
            5831            5815     108.389E-03     105.904E-03
            5831            5830     124.419E-03     123.133E-03
            5832            5815     108.389E-03     105.904E-03
            5832            5816     124.162E-03     126.875E-03
            5832            5830     124.419E-03     123.133E-03
            5832            5831     138.326E-03     140.712E-03
            5833            5816     124.162E-03     126.875E-03
            5833            5817     149.161E-03     154.652E-03
            5833            5831     138.326E-03     140.712E-03
            5833            5832     161.010E-03     165.784E-03
            5834            5817     149.161E-03     154.652E-03
            5834            5818     179.917E-03     186.830E-03
            5834            5832     161.010E-03     165.784E-03
            5834            5833     189.644E-03     194.681E-03
            5835            5818     179.917E-03     186.830E-03
            5835            5819     214.034E-03     221.399E-03
            5835            5833     189.644E-03     194.681E-03
            5835            5834     222.208E-03     226.551E-03
            5836            5819     214.034E-03     221.399E-03
            5836            5820     250.226E-03     257.780E-03
            5836            5834     222.208E-03     226.551E-03
            5836            5835     256.886E-03     260.997E-03
            5837            5820     250.226E-03     257.780E-03
            5837            5821     287.661E-03     295.685E-03
            5837            5835     256.886E-03     260.997E-03
            5837            5836     292.862E-03     297.109E-03
            5838            5821     287.661E-03     295.685E-03
            5838            5822     325.912E-03     334.707E-03
            5838            5836     292.862E-03     297.109E-03
            5838            5837     329.787E-03     334.525E-03
            5839            5822     325.912E-03     334.707E-03
            5839            5823     364.892E-03     374.803E-03
            5839            5837     329.787E-03     334.525E-03
            5839            5838     366.985E-03     372.721E-03
            5840            5823     364.892E-03     374.803E-03
            5840            5824     404.035E-03     415.539E-03
            5840            5838     366.985E-03     372.721E-03
            5840            5839     404.221E-03     411.249E-03
            5841            5824     404.035E-03     415.539E-03
            5841            5825     443.680E-03     456.658E-03
            5841            5839     404.221E-03     411.249E-03
            5841            5840     440.169E-03     449.211E-03
            5842            5825     443.680E-03     456.658E-03
            5842            5826     482.464E-03     496.957E-03
            5842            5840     440.169E-03     449.211E-03
            5842            5841     473.657E-03     484.835E-03
            5843            5826     482.464E-03     496.957E-03
            5843            5827     519.994E-03     534.490E-03
            5843            5841     473.657E-03     484.835E-03
            5843            5842     503.338E-03     515.762E-03
            5844            5827     519.994E-03     534.490E-03
            5844            5828     556.604E-03     567.565E-03
            5844            5842     503.338E-03     515.762E-03
            5844            5843     529.499E-03     540.994E-03
            5845            5828     556.604E-03     567.565E-03
            5845            5829     591.626E-03     598.775E-03
            5845            5843     529.499E-03     540.994E-03
            5845            5844     557.161E-03     562.180E-03
            5846             672     608.980E-03     614.868E-03
            5846             673     572.094E-03     572.068E-03
            5846            5829     591.626E-03     598.775E-03
            5846            5844     557.161E-03     562.180E-03
            5847             763     120.170E-03     116.852E-03
            5847             764     136.432E-03     133.268E-03
            5847            5830     124.419E-03     123.133E-03
            5847            5845     140.658E-03     140.110E-03
            5848            5830     124.419E-03     123.133E-03
            5848            5831     138.326E-03     140.712E-03
            5848            5845     140.658E-03     140.110E-03
            5848            5846     152.636E-03     156.808E-03
            5849            5831     138.326E-03     140.712E-03
            5849            5832     161.010E-03     165.784E-03
            5849            5846     152.636E-03     156.808E-03
            5849            5847     172.715E-03     177.606E-03
            5850            5832     161.010E-03     165.784E-03
            5850            5833     189.644E-03     194.681E-03
            5850            5847     172.715E-03     177.606E-03
            5850            5848     199.684E-03     202.196E-03
            5851            5833     189.644E-03     194.681E-03
            5851            5834     222.208E-03     226.551E-03
            5851            5848     199.684E-03     202.196E-03
            5851            5849     230.018E-03     231.138E-03
            5852            5834     222.208E-03     226.551E-03
            5852            5835     256.886E-03     260.997E-03
            5852            5849     230.018E-03     231.138E-03
            5852            5850     262.337E-03     262.803E-03
            5853            5835     256.886E-03     260.997E-03
            5853            5836     292.862E-03     297.109E-03
            5853            5850     262.337E-03     262.803E-03
            5853            5851     296.136E-03     296.320E-03
            5854            5836     292.862E-03     297.109E-03
            5854            5837     329.787E-03     334.525E-03
            5854            5851     296.136E-03     296.320E-03
            5854            5852     330.657E-03     330.977E-03
            5855            5837     329.787E-03     334.525E-03
            5855            5838     366.985E-03     372.721E-03
            5855            5852     330.657E-03     330.977E-03
            5855            5853     365.533E-03     366.196E-03
            5856            5838     366.985E-03     372.721E-03
            5856            5839     404.221E-03     411.249E-03
            5856            5853     365.533E-03     366.196E-03
            5856            5854     399.750E-03     401.309E-03
            5857            5839     404.221E-03     411.249E-03
            5857            5840     440.169E-03     449.211E-03
            5857            5854     399.750E-03     401.309E-03
            5857            5855     432.244E-03     435.211E-03
            5858            5840     440.169E-03     449.211E-03
            5858            5841     473.657E-03     484.835E-03
            5858            5855     432.244E-03     435.211E-03
            5858            5856     461.235E-03     466.448E-03
            5859            5841     473.657E-03     484.835E-03
            5859            5842     503.338E-03     515.762E-03
            5859            5856     461.235E-03     466.448E-03
            5859            5857     483.971E-03     492.370E-03
            5860            5842     503.338E-03     515.762E-03
            5860            5843     529.499E-03     540.994E-03
            5860            5857     483.971E-03     492.370E-03
            5860            5858     500.773E-03     510.132E-03
            5861            5843     529.499E-03     540.994E-03
            5861            5844     557.161E-03     562.180E-03
            5861            5858     500.773E-03     510.132E-03
            5861            5859     518.206E-03     523.500E-03
            5862             673     572.094E-03     572.068E-03
            5862             674     528.389E-03     530.288E-03
            5862            5844     557.161E-03     562.180E-03
            5862            5859     518.206E-03     523.500E-03
            5863             764     136.432E-03     133.268E-03
            5863             765     156.150E-03     156.408E-03
            5863            5845     140.658E-03     140.110E-03
            5863            5860     157.054E-03     162.758E-03
            5864            5845     140.658E-03     140.110E-03
            5864            5846     152.636E-03     156.808E-03
            5864            5860     157.054E-03     162.758E-03
            5864            5861     166.240E-03     174.542E-03
            5865            5846     152.636E-03     156.808E-03
            5865            5847     172.715E-03     177.606E-03
            5865            5861     166.240E-03     174.542E-03
            5865            5862     186.268E-03     189.084E-03
            5866            5847     172.715E-03     177.606E-03
            5866            5848     199.684E-03     202.196E-03
            5866            5862     186.268E-03     189.084E-03
            5866            5863     210.946E-03     210.283E-03
            5867            5848     199.684E-03     202.196E-03
            5867            5849     230.018E-03     231.138E-03
            5867            5863     210.946E-03     210.283E-03
            5867            5864     238.129E-03     235.967E-03
            5868            5849     230.018E-03     231.138E-03
            5868            5850     262.337E-03     262.803E-03
            5868            5864     238.129E-03     235.967E-03
            5868            5865     267.433E-03     264.311E-03
            5869            5850     262.337E-03     262.803E-03
            5869            5851     296.136E-03     296.320E-03
            5869            5865     267.433E-03     264.311E-03
            5869            5866     298.004E-03     294.349E-03
            5870            5851     296.136E-03     296.320E-03
            5870            5852     330.657E-03     330.977E-03
            5870            5866     298.004E-03     294.349E-03
            5870            5867     329.386E-03     325.197E-03
            5871            5852     330.657E-03     330.977E-03
            5871            5853     365.533E-03     366.196E-03
            5871            5867     329.386E-03     325.197E-03
            5871            5868     360.793E-03     356.230E-03
            5872            5853     365.533E-03     366.196E-03
            5872            5854     399.750E-03     401.309E-03
            5872            5868     360.793E-03     356.230E-03
            5872            5869     391.453E-03     386.590E-03
            5873            5854     399.750E-03     401.309E-03
            5873            5855     432.244E-03     435.211E-03
            5873            5869     391.453E-03     386.590E-03
            5873            5870     420.173E-03     415.377E-03
            5874            5855     432.244E-03     435.211E-03
            5874            5856     461.235E-03     466.448E-03
            5874            5870     420.173E-03     415.377E-03
            5874            5871     444.979E-03     441.134E-03
            5875            5856     461.235E-03     466.448E-03
            5875            5857     483.971E-03     492.370E-03
            5875            5871     444.979E-03     441.134E-03
            5875            5872     463.650E-03     461.993E-03
            5876            5857     483.971E-03     492.370E-03
            5876            5858     500.773E-03     510.132E-03
            5876            5872     463.650E-03     461.993E-03
            5876            5873     471.548E-03     473.982E-03
            5877            5858     500.773E-03     510.132E-03
            5877            5859     518.206E-03     523.500E-03
            5877            5873     471.548E-03     473.982E-03
            5877            5874     475.379E-03     476.966E-03
            5878             674     528.389E-03     530.288E-03
            5878             675     478.784E-03     476.961E-03
            5878            5859     518.206E-03     523.500E-03
            5878            5874     475.379E-03     476.966E-03
            5879             765     156.150E-03     156.408E-03
            5879             766     165.496E-03     186.299E-03
            5879            5860     157.054E-03     162.758E-03
            5879            5875     170.674E-03     185.885E-03
            5880            5860     157.054E-03     162.758E-03
            5880            5861     166.240E-03     174.542E-03
            5880            5875     170.674E-03     185.885E-03
            5880            5876     184.466E-03     189.143E-03
            5881            5861     166.240E-03     174.542E-03
            5881            5862     186.268E-03     189.084E-03
            5881            5876     184.466E-03     189.143E-03
            5881            5877     203.042E-03     201.262E-03
            5882            5862     186.268E-03     189.084E-03
            5882            5863     210.946E-03     210.283E-03
            5882            5877     203.042E-03     201.262E-03
            5882            5878     224.091E-03     220.144E-03
            5883            5863     210.946E-03     210.283E-03
            5883            5864     238.129E-03     235.967E-03
            5883            5878     224.091E-03     220.144E-03
            5883            5879     247.662E-03     242.536E-03
            5884            5864     238.129E-03     235.967E-03
            5884            5865     267.433E-03     264.311E-03
            5884            5879     247.662E-03     242.536E-03
            5884            5880     273.214E-03     267.230E-03
            5885            5865     267.433E-03     264.311E-03
            5885            5866     298.004E-03     294.349E-03
            5885            5880     273.214E-03     267.230E-03
            5885            5881     299.957E-03     293.081E-03
            5886            5866     298.004E-03     294.349E-03
            5886            5867     329.386E-03     325.197E-03
            5886            5881     299.957E-03     293.081E-03
            5886            5882     327.248E-03     319.321E-03
            5887            5867     329.386E-03     325.197E-03
            5887            5868     360.793E-03     356.230E-03
            5887            5882     327.248E-03     319.321E-03
            5887            5883     354.354E-03     345.030E-03
            5888            5868     360.793E-03     356.230E-03
            5888            5869     391.453E-03     386.590E-03
            5888            5883     354.354E-03     345.030E-03
            5888            5884     380.509E-03     369.463E-03
            5889            5869     391.453E-03     386.590E-03
            5889            5870     420.173E-03     415.377E-03
            5889            5884     380.509E-03     369.463E-03
            5889            5885     404.576E-03     391.482E-03
            5890            5870     420.173E-03     415.377E-03
            5890            5871     444.979E-03     441.134E-03
            5890            5885     404.576E-03     391.482E-03
            5890            5886     425.325E-03     409.898E-03
            5891            5871     444.979E-03     441.134E-03
            5891            5872     463.650E-03     461.993E-03
            5891            5886     425.325E-03     409.898E-03
            5891            5887     440.363E-03     423.041E-03
            5892            5872     463.650E-03     461.993E-03
            5892            5873     471.548E-03     473.982E-03
            5892            5887     440.363E-03     423.041E-03
            5892            5888     445.565E-03     428.052E-03
            5893            5873     471.548E-03     473.982E-03
            5893            5874     475.379E-03     476.966E-03
            5893            5888     445.565E-03     428.052E-03
            5893            5889     435.271E-03     417.908E-03
            5894             675     478.784E-03     476.961E-03
            5894             676     425.466E-03     407.649E-03
            5894            5874     475.379E-03     476.966E-03
            5894            5889     435.271E-03     417.908E-03
            5895             766     165.496E-03     186.299E-03
            5895             767     110.664E-03     130.789E-03
            5895            5875     170.674E-03     185.885E-03
            5895            5890     118.298E-03     131.216E-03
            5896            5875     170.674E-03     185.885E-03
            5896            5876     184.466E-03     189.143E-03
            5896            5890     118.298E-03     131.216E-03
            5896            5891     131.116E-03     135.453E-03
            5897            5876     184.466E-03     189.143E-03
            5897            5877     203.042E-03     201.262E-03
            5897            5891     131.116E-03     135.453E-03
            5897            5892     143.454E-03     146.868E-03
            5898            5877     203.042E-03     201.262E-03
            5898            5878     224.091E-03     220.144E-03
            5898            5892     143.454E-03     146.868E-03
            5898            5893     158.944E-03     162.768E-03
            5899            5878     224.091E-03     220.144E-03
            5899            5879     247.662E-03     242.536E-03
            5899            5893     158.944E-03     162.768E-03
            5899            5894     176.516E-03     180.427E-03
            5900            5879     247.662E-03     242.536E-03
            5900            5880     273.214E-03     267.230E-03
            5900            5894     176.516E-03     180.427E-03
            5900            5895     195.746E-03     199.731E-03
            5901            5880     273.214E-03     267.230E-03
            5901            5881     299.957E-03     293.081E-03
            5901            5895     195.746E-03     199.731E-03
            5901            5896     216.015E-03     219.647E-03
            5902            5881     299.957E-03     293.081E-03
            5902            5882     327.248E-03     319.321E-03
            5902            5896     216.015E-03     219.647E-03
            5902            5897     237.002E-03     240.016E-03
            5903            5882     327.248E-03     319.321E-03
            5903            5883     354.354E-03     345.030E-03
            5903            5897     237.002E-03     240.016E-03
            5903            5898     258.505E-03     260.403E-03
            5904            5883     354.354E-03     345.030E-03
            5904            5884     380.509E-03     369.463E-03
            5904            5898     258.505E-03     260.403E-03
            5904            5899     280.286E-03     280.748E-03
            5905            5884     380.509E-03     369.463E-03
            5905            5885     404.576E-03     391.482E-03
            5905            5899     280.286E-03     280.748E-03
            5905            5900     302.737E-03     301.075E-03
            5906            5885     404.576E-03     391.482E-03
            5906            5886     425.325E-03     409.898E-03
            5906            5900     302.737E-03     301.075E-03
            5906            5901     325.610E-03     321.823E-03
            5907            5886     425.325E-03     409.898E-03
            5907            5887     440.363E-03     423.041E-03
            5907            5901     325.610E-03     321.823E-03
            5907            5902     350.565E-03     344.254E-03
            5908            5887     440.363E-03     423.041E-03
            5908            5888     445.565E-03     428.052E-03
            5908            5902     350.565E-03     344.254E-03
            5908            5903     377.328E-03     370.116E-03
            5909            5888     445.565E-03     428.052E-03
            5909            5889     435.271E-03     417.908E-03
            5909            5903     377.328E-03     370.116E-03
            5909            5904     415.797E-03     416.992E-03
            5910             676     425.466E-03     407.649E-03
            5910             677     441.045E-03     449.668E-03
            5910            5889     435.271E-03     417.908E-03
            5910            5904     415.797E-03     416.992E-03
            5911             767     110.664E-03     130.789E-03
            5911             768     64.8962E-03     68.2379E-03
            5911            5890     118.298E-03     131.216E-03
            5911            5905     66.2835E-03     71.7983E-03
            5912            5890     118.298E-03     131.216E-03
            5912            5891     131.116E-03     135.453E-03
            5912            5905     66.2835E-03     71.7983E-03
            5912            5906     71.2329E-03     79.5938E-03
            5913            5891     131.116E-03     135.453E-03
            5913            5892     143.454E-03     146.868E-03
            5913            5906     71.2329E-03     79.5938E-03
            5913            5907     80.0615E-03     89.9375E-03
            5914            5892     143.454E-03     146.868E-03
            5914            5893     158.944E-03     162.768E-03
            5914            5907     80.0615E-03     89.9375E-03
            5914            5908     91.5556E-03     103.117E-03
            5915            5893     158.944E-03     162.768E-03
            5915            5894     176.516E-03     180.427E-03
            5915            5908     91.5556E-03     103.117E-03
            5915            5909     104.842E-03     117.652E-03
            5916            5894     176.516E-03     180.427E-03
            5916            5895     195.746E-03     199.731E-03
            5916            5909     104.842E-03     117.652E-03
            5916            5910     119.504E-03     133.171E-03
            5917            5895     195.746E-03     199.731E-03
            5917            5896     216.015E-03     219.647E-03
            5917            5910     119.504E-03     133.171E-03
            5917            5911     135.176E-03     149.349E-03
            5918            5896     216.015E-03     219.647E-03
            5918            5897     237.002E-03     240.016E-03
            5918            5911     135.176E-03     149.349E-03
            5918            5912     151.947E-03     166.345E-03
            5919            5897     237.002E-03     240.016E-03
            5919            5898     258.505E-03     260.403E-03
            5919            5912     151.947E-03     166.345E-03
            5919            5913     169.923E-03     184.242E-03
            5920            5898     258.505E-03     260.403E-03
            5920            5899     280.286E-03     280.748E-03
            5920            5913     169.923E-03     184.242E-03
            5920            5914     189.943E-03     204.004E-03
            5921            5899     280.286E-03     280.748E-03
            5921            5900     302.737E-03     301.075E-03
            5921            5914     189.943E-03     204.004E-03
            5921            5915     212.688E-03     226.338E-03
            5922            5900     302.737E-03     301.075E-03
            5922            5901     325.610E-03     321.823E-03
            5922            5915     212.688E-03     226.338E-03
            5922            5916     240.942E-03     254.220E-03
            5923            5901     325.610E-03     321.823E-03
            5923            5902     350.565E-03     344.254E-03
            5923            5916     240.942E-03     254.220E-03
            5923            5917     276.501E-03     289.917E-03
            5924            5902     350.565E-03     344.254E-03
            5924            5903     377.328E-03     370.116E-03
            5924            5917     276.501E-03     289.917E-03
            5924            5918     330.252E-03     344.768E-03
            5925            5903     377.328E-03     370.116E-03
            5925            5904     415.797E-03     416.992E-03
            5925            5918     330.252E-03     344.768E-03
            5925            5919     419.896E-03     431.626E-03
            5926             677     441.045E-03     449.668E-03
            5926             678     475.096E-03     483.042E-03
            5926            5904     415.797E-03     416.992E-03
            5926            5919     419.896E-03     431.626E-03
            5927             768     64.8962E-03     68.2379E-03
            5927             769     77.2508E-03     73.0296E-03
            5927            5905     66.2835E-03     71.7983E-03
            5927            5920     78.1238E-03     77.2967E-03
            5928            5905     66.2835E-03     71.7983E-03
            5928            5906     71.2329E-03     79.5938E-03
            5928            5920     78.1238E-03     77.2967E-03
            5928            5921     82.1693E-03     86.5106E-03
            5929            5906     71.2329E-03     79.5938E-03
            5929            5907     80.0615E-03     89.9375E-03
            5929            5921     82.1693E-03     86.5106E-03
            5929            5922     90.2946E-03     97.2149E-03
            5930            5907     80.0615E-03     89.9375E-03
            5930            5908     91.5556E-03     103.117E-03
            5930            5922     90.2946E-03     97.2149E-03
            5930            5923     101.259E-03     109.793E-03
            5931            5908     91.5556E-03     103.117E-03
            5931            5909     104.842E-03     117.652E-03
            5931            5923     101.259E-03     109.793E-03
            5931            5924     114.128E-03     124.074E-03
            5932            5909     104.842E-03     117.652E-03
            5932            5910     119.504E-03     133.171E-03
            5932            5924     114.128E-03     124.074E-03
            5932            5925     128.407E-03     139.338E-03
            5933            5910     119.504E-03     133.171E-03
            5933            5911     135.176E-03     149.349E-03
            5933            5925     128.407E-03     139.338E-03
            5933            5926     143.864E-03     155.503E-03
            5934            5911     135.176E-03     149.349E-03
            5934            5912     151.947E-03     166.345E-03
            5934            5926     143.864E-03     155.503E-03
            5934            5927     160.308E-03     172.453E-03
            5935            5912     151.947E-03     166.345E-03
            5935            5913     169.923E-03     184.242E-03
            5935            5927     160.308E-03     172.453E-03
            5935            5928     178.121E-03     190.539E-03
            5936            5913     169.923E-03     184.242E-03
            5936            5914     189.943E-03     204.004E-03
            5936            5928     178.121E-03     190.539E-03
            5936            5929     197.572E-03     210.197E-03
            5937            5914     189.943E-03     204.004E-03
            5937            5915     212.688E-03     226.338E-03
            5937            5929     197.572E-03     210.197E-03
            5937            5930     220.216E-03     232.648E-03
            5938            5915     212.688E-03     226.338E-03
            5938            5916     240.942E-03     254.220E-03
            5938            5930     220.216E-03     232.648E-03
            5938            5931     247.514E-03     259.773E-03
            5939            5916     240.942E-03     254.220E-03
            5939            5917     276.501E-03     289.917E-03
            5939            5931     247.514E-03     259.773E-03
            5939            5932     283.514E-03     294.707E-03
            5940            5917     276.501E-03     289.917E-03
            5940            5918     330.252E-03     344.768E-03
            5940            5932     283.514E-03     294.707E-03
            5940            5933     338.569E-03     345.636E-03
            5941            5918     330.252E-03     344.768E-03
            5941            5919     419.896E-03     431.626E-03
            5941            5933     338.569E-03     345.636E-03
            5941            5934     403.089E-03     403.811E-03
            5942             678     475.096E-03     483.042E-03
            5942             679     433.855E-03     431.156E-03
            5942            5919     419.896E-03     431.626E-03
            5942            5934     403.089E-03     403.811E-03
            5943             769     77.2508E-03     73.0296E-03
            5943             770     85.9131E-03     80.9549E-03
            5943            5920     78.1238E-03     77.2967E-03
            5943            5935     87.7455E-03     84.0045E-03
            5944            5920     78.1238E-03     77.2967E-03
            5944            5921     82.1693E-03     86.5106E-03
            5944            5935     87.7455E-03     84.0045E-03
            5944            5936     92.5137E-03     92.3833E-03
            5945            5921     82.1693E-03     86.5106E-03
            5945            5922     90.2946E-03     97.2149E-03
            5945            5936     92.5137E-03     92.3833E-03
            5945            5937     99.9832E-03     103.634E-03
            5946            5922     90.2946E-03     97.2149E-03
            5946            5923     101.259E-03     109.793E-03
            5946            5937     99.9832E-03     103.634E-03
            5946            5938     110.405E-03     116.248E-03
            5947            5923     101.259E-03     109.793E-03
            5947            5924     114.128E-03     124.074E-03
            5947            5938     110.405E-03     116.248E-03
            5947            5939     122.944E-03     130.285E-03
            5948            5924     114.128E-03     124.074E-03
            5948            5925     128.407E-03     139.338E-03
            5948            5939     122.944E-03     130.285E-03
            5948            5940     137.023E-03     145.482E-03
            5949            5925     128.407E-03     139.338E-03
            5949            5926     143.864E-03     155.503E-03
            5949            5940     137.023E-03     145.482E-03
            5949            5941     152.286E-03     161.578E-03
            5950            5926     143.864E-03     155.503E-03
            5950            5927     160.308E-03     172.453E-03
            5950            5941     152.286E-03     161.578E-03
            5950            5942     168.651E-03     178.572E-03
            5951            5927     160.308E-03     172.453E-03
            5951            5928     178.121E-03     190.539E-03
            5951            5942     168.651E-03     178.572E-03
            5951            5943     186.047E-03     196.566E-03
            5952            5928     178.121E-03     190.539E-03
            5952            5929     197.572E-03     210.197E-03
            5952            5943     186.047E-03     196.566E-03
            5952            5944     205.035E-03     215.857E-03
            5953            5929     197.572E-03     210.197E-03
            5953            5930     220.216E-03     232.648E-03
            5953            5944     205.035E-03     215.857E-03
            5953            5945     226.348E-03     237.370E-03
            5954            5930     220.216E-03     232.648E-03
            5954            5931     247.514E-03     259.773E-03
            5954            5945     226.348E-03     237.370E-03
            5954            5946     251.428E-03     261.959E-03
            5955            5931     247.514E-03     259.773E-03
            5955            5932     283.514E-03     294.707E-03
            5955            5946     251.428E-03     261.959E-03
            5955            5947     284.869E-03     293.166E-03
            5956            5932     283.514E-03     294.707E-03
            5956            5933     338.569E-03     345.636E-03
            5956            5947     284.869E-03     293.166E-03
            5956            5948     324.956E-03     330.720E-03
            5957            5933     338.569E-03     345.636E-03
            5957            5934     403.089E-03     403.811E-03
            5957            5948     324.956E-03     330.720E-03
            5957            5949     366.808E-03     373.124E-03
            5958             679     433.855E-03     431.156E-03
            5958             680     388.127E-03     396.055E-03
            5958            5934     403.089E-03     403.811E-03
            5958            5949     366.808E-03     373.124E-03
            5959             770     85.9131E-03     80.9549E-03
            5959             771     94.8934E-03     88.9708E-03
            5959            5935     87.7455E-03     84.0045E-03
            5959            5950     96.3761E-03     91.9581E-03
            5960            5935     87.7455E-03     84.0045E-03
            5960            5936     92.5137E-03     92.3833E-03
            5960            5950     96.3761E-03     91.9581E-03
            5960            5951     101.037E-03     99.3205E-03
            5961            5936     92.5137E-03     92.3833E-03
            5961            5937     99.9832E-03     103.634E-03
            5961            5951     101.037E-03     99.3205E-03
            5961            5952     108.672E-03     109.685E-03
            5962            5937     99.9832E-03     103.634E-03
            5962            5938     110.405E-03     116.248E-03
            5962            5952     108.672E-03     109.685E-03
            5962            5953     118.702E-03     122.244E-03
            5963            5938     110.405E-03     116.248E-03
            5963            5939     122.944E-03     130.285E-03
            5963            5953     118.702E-03     122.244E-03
            5963            5954     130.923E-03     136.009E-03
            5964            5939     122.944E-03     130.285E-03
            5964            5940     137.023E-03     145.482E-03
            5964            5954     130.923E-03     136.009E-03
            5964            5955     144.805E-03     150.964E-03
            5965            5940     137.023E-03     145.482E-03
            5965            5941     152.286E-03     161.578E-03
            5965            5955     144.805E-03     150.964E-03
            5965            5956     159.920E-03     166.887E-03
            5966            5941     152.286E-03     161.578E-03
            5966            5942     168.651E-03     178.572E-03
            5966            5956     159.920E-03     166.887E-03
            5966            5957     175.997E-03     183.681E-03
            5967            5942     168.651E-03     178.572E-03
            5967            5943     186.047E-03     196.566E-03
            5967            5957     175.997E-03     183.681E-03
            5967            5958     192.903E-03     201.225E-03
            5968            5943     186.047E-03     196.566E-03
            5968            5944     205.035E-03     215.857E-03
            5968            5958     192.903E-03     201.225E-03
            5968            5959     210.726E-03     219.666E-03
            5969            5944     205.035E-03     215.857E-03
            5969            5945     226.348E-03     237.370E-03
            5969            5959     210.726E-03     219.666E-03
            5969            5960     229.581E-03     238.900E-03
            5970            5945     226.348E-03     237.370E-03
            5970            5946     251.428E-03     261.959E-03
            5970            5960     229.581E-03     238.900E-03
            5970            5961     251.120E-03     259.906E-03
            5971            5946     251.428E-03     261.959E-03
            5971            5947     284.869E-03     293.166E-03
            5971            5961     251.120E-03     259.906E-03
            5971            5962     275.084E-03     282.900E-03
            5972            5947     284.869E-03     293.166E-03
            5972            5948     324.956E-03     330.720E-03
            5972            5962     275.084E-03     282.900E-03
            5972            5963     301.932E-03     308.327E-03
            5973            5948     324.956E-03     330.720E-03
            5973            5949     366.808E-03     373.124E-03
            5973            5963     301.932E-03     308.327E-03
            5973            5964     334.694E-03     337.290E-03
            5974             680     388.127E-03     396.055E-03
            5974             681     352.775E-03     352.521E-03
            5974            5949     366.808E-03     373.124E-03
            5974            5964     334.694E-03     337.290E-03
            5975             771     94.8934E-03     88.9708E-03
            5975             772     102.578E-03     96.8735E-03
            5975            5950     96.3761E-03     91.9581E-03
            5975            5965     104.226E-03     99.3543E-03
            5976            5950     96.3761E-03     91.9581E-03
            5976            5951     101.037E-03     99.3205E-03
            5976            5965     104.226E-03     99.3543E-03
            5976            5966     108.838E-03     106.288E-03
            5977            5951     101.037E-03     99.3205E-03
            5977            5952     108.672E-03     109.685E-03
            5977            5966     108.838E-03     106.288E-03
            5977            5967     116.090E-03     116.069E-03
            5978            5952     108.672E-03     109.685E-03
            5978            5953     118.702E-03     122.244E-03
            5978            5967     116.090E-03     116.069E-03
            5978            5968     125.899E-03     127.711E-03
            5979            5953     118.702E-03     122.244E-03
            5979            5954     130.923E-03     136.009E-03
            5979            5968     125.899E-03     127.711E-03
            5979            5969     137.810E-03     140.984E-03
            5980            5954     130.923E-03     136.009E-03
            5980            5955     144.805E-03     150.964E-03
            5980            5969     137.810E-03     140.984E-03
            5980            5970     151.373E-03     155.373E-03
            5981            5955     144.805E-03     150.964E-03
            5981            5956     159.920E-03     166.887E-03
            5981            5970     151.373E-03     155.373E-03
            5981            5971     166.194E-03     170.805E-03
            5982            5956     159.920E-03     166.887E-03
            5982            5957     175.997E-03     183.681E-03
            5982            5971     166.194E-03     170.805E-03
            5982            5972     181.788E-03     187.014E-03
            5983            5957     175.997E-03     183.681E-03
            5983            5958     192.903E-03     201.225E-03
            5983            5972     181.788E-03     187.014E-03
            5983            5973     197.900E-03     203.805E-03
            5984            5958     192.903E-03     201.225E-03
            5984            5959     210.726E-03     219.666E-03
            5984            5973     197.900E-03     203.805E-03
            5984            5974     213.945E-03     220.668E-03
            5985            5959     210.726E-03     219.666E-03
            5985            5960     229.581E-03     238.900E-03
            5985            5974     213.945E-03     220.668E-03
            5985            5975     229.990E-03     237.310E-03
            5986            5960     229.581E-03     238.900E-03
            5986            5961     251.120E-03     259.906E-03
            5986            5975     229.990E-03     237.310E-03
            5986            5976     245.350E-03     253.137E-03
            5987            5961     251.120E-03     259.906E-03
            5987            5962     275.084E-03     282.900E-03
            5987            5976     245.350E-03     253.137E-03
            5987            5977     260.601E-03     267.936E-03
            5988            5962     275.084E-03     282.900E-03
            5988            5963     301.932E-03     308.327E-03
            5988            5977     260.601E-03     267.936E-03
            5988            5978     278.350E-03     283.275E-03
            5989            5963     301.932E-03     308.327E-03
            5989            5964     334.694E-03     337.290E-03
            5989            5978     278.350E-03     283.275E-03
            5989            5979     300.905E-03     304.223E-03
            5990             681     352.775E-03     352.521E-03
            5990             682     313.767E-03     317.166E-03
            5990            5964     334.694E-03     337.290E-03
            5990            5979     300.905E-03     304.223E-03
            5991             772     102.578E-03     96.8735E-03
            5991             773     110.010E-03     103.901E-03
            5991            5965     104.226E-03     99.3543E-03
            5991            5980     111.543E-03     106.761E-03
            5992            5965     104.226E-03     99.3543E-03
            5992            5966     108.838E-03     106.288E-03
            5992            5980     111.543E-03     106.761E-03
            5992            5981     115.796E-03     113.411E-03
            5993            5966     108.838E-03     106.288E-03
            5993            5967     116.090E-03     116.069E-03
            5993            5981     115.796E-03     113.411E-03
            5993            5982     122.651E-03     122.171E-03
            5994            5967     116.090E-03     116.069E-03
            5994            5968     125.899E-03     127.711E-03
            5994            5982     122.651E-03     122.171E-03
            5994            5983     132.018E-03     132.917E-03
            5995            5968     125.899E-03     127.711E-03
            5995            5969     137.810E-03     140.984E-03
            5995            5983     132.018E-03     132.917E-03
            5995            5984     143.456E-03     145.038E-03
            5996            5969     137.810E-03     140.984E-03
            5996            5970     151.373E-03     155.373E-03
            5996            5984     143.456E-03     145.038E-03
            5996            5985     156.583E-03     158.447E-03
            5997            5970     151.373E-03     155.373E-03
            5997            5971     166.194E-03     170.805E-03
            5997            5985     156.583E-03     158.447E-03
            5997            5986     170.788E-03     172.932E-03
            5998            5971     166.194E-03     170.805E-03
            5998            5972     181.788E-03     187.014E-03
            5998            5986     170.788E-03     172.932E-03
            5998            5987     185.682E-03     188.201E-03
            5999            5972     181.788E-03     187.014E-03
            5999            5973     197.900E-03     203.805E-03
            5999            5987     185.682E-03     188.201E-03
            5999            5988     200.540E-03     203.694E-03
            6000            5973     197.900E-03     203.805E-03
            6000            5974     213.945E-03     220.668E-03
            6000            5988     200.540E-03     203.694E-03
            6000            5989     214.911E-03     218.820E-03
            6001            5974     213.945E-03     220.668E-03
            6001            5975     229.990E-03     237.310E-03
            6001            5989     214.911E-03     218.820E-03
            6001            5990     227.394E-03     232.517E-03
            6002            5975     229.990E-03     237.310E-03
            6002            5976     245.350E-03     253.137E-03
            6002            5990     227.394E-03     232.517E-03
            6002            5991     237.204E-03     243.390E-03
            6003            5976     245.350E-03     253.137E-03
            6003            5977     260.601E-03     267.936E-03
            6003            5991     237.204E-03     243.390E-03
            6003            5992     244.842E-03     251.094E-03
            6004            5977     260.601E-03     267.936E-03
            6004            5978     278.350E-03     283.275E-03
            6004            5992     244.842E-03     251.094E-03
            6004            5993     252.627E-03     257.935E-03
            6005            5978     278.350E-03     283.275E-03
            6005            5979     300.905E-03     304.223E-03
            6005            5993     252.627E-03     257.935E-03
            6005            5994     268.226E-03     270.031E-03
            6006             682     313.767E-03     317.166E-03
            6006             683     279.229E-03     278.335E-03
            6006            5979     300.905E-03     304.223E-03
            6006            5994     268.226E-03     270.031E-03
            6007             773     110.010E-03     103.901E-03
            6007             774     117.197E-03     112.781E-03
            6007            5980     111.543E-03     106.761E-03
            6007            5995     118.353E-03     114.849E-03
            6008            5980     111.543E-03     106.761E-03
            6008            5981     115.796E-03     113.411E-03
            6008            5995     118.353E-03     114.849E-03
            6008            5996     122.188E-03     120.477E-03
            6009            5981     115.796E-03     113.411E-03
            6009            5982     122.651E-03     122.171E-03
            6009            5996     122.188E-03     120.477E-03
            6009            5997     128.558E-03     128.491E-03
            6010            5982     122.651E-03     122.171E-03
            6010            5983     132.018E-03     132.917E-03
            6010            5997     128.558E-03     128.491E-03
            6010            5998     137.220E-03     137.718E-03
            6011            5983     132.018E-03     132.917E-03
            6011            5984     143.456E-03     145.038E-03
            6011            5998     137.220E-03     137.718E-03
            6011            5999     148.130E-03     148.170E-03
            6012            5984     143.456E-03     145.038E-03
            6012            5985     156.583E-03     158.447E-03
            6012            5999     148.130E-03     148.170E-03
            6012            6000     160.452E-03     160.140E-03
            6013            5985     156.583E-03     158.447E-03
            6013            5986     170.788E-03     172.932E-03
            6013            6000     160.452E-03     160.140E-03
            6013            6001     173.727E-03     173.254E-03
            6014            5986     170.788E-03     172.932E-03
            6014            5987     185.682E-03     188.201E-03
            6014            6001     173.727E-03     173.254E-03
            6014            6002     187.403E-03     187.006E-03
            6015            5987     185.682E-03     188.201E-03
            6015            5988     200.540E-03     203.694E-03
            6015            6002     187.403E-03     187.006E-03
            6015            6003     200.968E-03     200.866E-03
            6016            5988     200.540E-03     203.694E-03
            6016            5989     214.911E-03     218.820E-03
            6016            6003     200.968E-03     200.866E-03
            6016            6004     213.219E-03     213.883E-03
            6017            5989     214.911E-03     218.820E-03
            6017            5990     227.394E-03     232.517E-03
            6017            6004     213.219E-03     213.883E-03
            6017            6005     223.060E-03     224.811E-03
            6018            5990     227.394E-03     232.517E-03
            6018            5991     237.204E-03     243.390E-03
            6018            6005     223.060E-03     224.811E-03
            6018            6006     228.384E-03     231.881E-03
            6019            5991     237.204E-03     243.390E-03
            6019            5992     244.842E-03     251.094E-03
            6019            6006     228.384E-03     231.881E-03
            6019            6007     228.141E-03     233.399E-03
            6020            5992     244.842E-03     251.094E-03
            6020            5993     252.627E-03     257.935E-03
            6020            6007     228.141E-03     233.399E-03
            6020            6008     227.047E-03     231.339E-03
            6021            5993     252.627E-03     257.935E-03
            6021            5994     268.226E-03     270.031E-03
            6021            6008     227.047E-03     231.339E-03
            6021            6009     233.689E-03     235.193E-03
            6022             683     279.229E-03     278.335E-03
            6022             684     240.232E-03     240.401E-03
            6022            5994     268.226E-03     270.031E-03
            6022            6009     233.689E-03     235.193E-03
            6023             774     117.197E-03     112.781E-03
            6023             775     123.560E-03     119.723E-03
            6023            5995     118.353E-03     114.849E-03
            6023            6010     125.128E-03     122.543E-03
            6024            5995     118.353E-03     114.849E-03
            6024            5996     122.188E-03     120.477E-03
            6024            6010     125.128E-03     122.543E-03
            6024            6011     128.420E-03     128.880E-03
            6025            5996     122.188E-03     120.477E-03
            6025            5997     128.558E-03     128.491E-03
            6025            6011     128.420E-03     128.880E-03
            6025            6012     133.759E-03     135.234E-03
            6026            5997     128.558E-03     128.491E-03
            6026            5998     137.220E-03     137.718E-03
            6026            6012     133.759E-03     135.234E-03
            6026            6013     142.220E-03     141.945E-03
            6027            5998     137.220E-03     137.718E-03
            6027            5999     148.130E-03     148.170E-03
            6027            6013     142.220E-03     141.945E-03
            6027            6014     152.281E-03     150.612E-03
            6028            5999     148.130E-03     148.170E-03
            6028            6000     160.452E-03     160.140E-03
            6028            6014     152.281E-03     150.612E-03
            6028            6015     163.348E-03     160.803E-03
            6029            6000     160.452E-03     160.140E-03
            6029            6001     173.727E-03     173.254E-03
            6029            6015     163.348E-03     160.803E-03
            6029            6016     175.161E-03     172.006E-03
            6030            6001     173.727E-03     173.254E-03
            6030            6002     187.403E-03     187.006E-03
            6030            6016     175.161E-03     172.006E-03
            6030            6017     187.263E-03     183.769E-03
            6031            6002     187.403E-03     187.006E-03
            6031            6003     200.968E-03     200.866E-03
            6031            6017     187.263E-03     183.769E-03
            6031            6018     198.920E-03     195.357E-03
            6032            6003     200.968E-03     200.866E-03
            6032            6004     213.219E-03     213.883E-03
            6032            6018     198.920E-03     195.357E-03
            6032            6019     209.292E-03     205.925E-03
            6033            6004     213.219E-03     213.883E-03
            6033            6005     223.060E-03     224.811E-03
            6033            6019     209.292E-03     205.925E-03
            6033            6020     216.673E-03     214.091E-03
            6034            6005     223.060E-03     224.811E-03
            6034            6006     228.384E-03     231.881E-03
            6034            6020     216.673E-03     214.091E-03
            6034            6021     219.205E-03     218.113E-03
            6035            6006     228.384E-03     231.881E-03
            6035            6007     228.141E-03     233.399E-03
            6035            6021     219.205E-03     218.113E-03
            6035            6022     213.432E-03     215.047E-03
            6036            6007     228.141E-03     233.399E-03
            6036            6008     227.047E-03     231.339E-03
            6036            6022     213.432E-03     215.047E-03
            6036            6023     200.551E-03     204.353E-03
            6037            6008     227.047E-03     231.339E-03
            6037            6009     233.689E-03     235.193E-03
            6037            6023     200.551E-03     204.353E-03
            6037            6024     197.776E-03     197.821E-03
            6038             684     240.232E-03     240.401E-03
            6038             685     202.100E-03     198.122E-03
            6038            6009     233.689E-03     235.193E-03
            6038            6024     197.776E-03     197.821E-03
            6039             775     123.560E-03     119.723E-03
            6039             776     132.559E-03     131.179E-03
            6039            6010     125.128E-03     122.543E-03
            6039            6025     131.771E-03     134.554E-03
            6040            6010     125.128E-03     122.543E-03
            6040            6011     128.420E-03     128.880E-03
            6040            6025     131.771E-03     134.554E-03
            6040            6026     133.443E-03     138.718E-03
            6041            6011     128.420E-03     128.880E-03
            6041            6012     133.759E-03     135.234E-03
            6041            6026     133.443E-03     138.718E-03
            6041            6027     139.868E-03     141.197E-03
            6042            6012     133.759E-03     135.234E-03
            6042            6013     142.220E-03     141.945E-03
            6042            6027     139.868E-03     141.197E-03
            6042            6028     147.870E-03     146.055E-03
            6043            6013     142.220E-03     141.945E-03
            6043            6014     152.281E-03     150.612E-03
            6043            6028     147.870E-03     146.055E-03
            6043            6029     156.493E-03     152.990E-03
            6044            6014     152.281E-03     150.612E-03
            6044            6015     163.348E-03     160.803E-03
            6044            6029     156.493E-03     152.990E-03
            6044            6030     165.900E-03     161.125E-03
            6045            6015     163.348E-03     160.803E-03
            6045            6016     175.161E-03     172.006E-03
            6045            6030     165.900E-03     161.125E-03
            6045            6031     175.745E-03     170.071E-03
            6046            6016     175.161E-03     172.006E-03
            6046            6017     187.263E-03     183.769E-03
            6046            6031     175.745E-03     170.071E-03
            6046            6032     185.625E-03     179.198E-03
            6047            6017     187.263E-03     183.769E-03
            6047            6018     198.920E-03     195.357E-03
            6047            6032     185.625E-03     179.198E-03
            6047            6033     194.976E-03     187.885E-03
            6048            6018     198.920E-03     195.357E-03
            6048            6019     209.292E-03     205.925E-03
            6048            6033     194.976E-03     187.885E-03
            6048            6034     202.878E-03     195.265E-03
            6049            6019     209.292E-03     205.925E-03
            6049            6020     216.673E-03     214.091E-03
            6049            6034     202.878E-03     195.265E-03
            6049            6035     208.033E-03     200.175E-03
            6050            6020     216.673E-03     214.091E-03
            6050            6021     219.205E-03     218.113E-03
            6050            6035     208.033E-03     200.175E-03
            6050            6036     208.328E-03     200.746E-03
            6051            6021     219.205E-03     218.113E-03
            6051            6022     213.432E-03     215.047E-03
            6051            6036     208.328E-03     200.746E-03
            6051            6037     200.809E-03     194.741E-03
            6052            6022     213.432E-03     215.047E-03
            6052            6023     200.551E-03     204.353E-03
            6052            6037     200.809E-03     194.741E-03
            6052            6038     178.730E-03     176.663E-03
            6053            6023     200.551E-03     204.353E-03
            6053            6024     197.776E-03     197.821E-03
            6053            6038     178.730E-03     176.663E-03
            6053            6039     159.322E-03     158.286E-03
            6054             685     202.100E-03     198.122E-03
            6054             686     155.925E-03     153.082E-03
            6054            6024     197.776E-03     197.821E-03
            6054            6039     159.322E-03     158.286E-03
            6055             776     132.559E-03     131.179E-03
            6055             777     133.542E-03     148.522E-03
            6055            6025     131.771E-03     134.554E-03
            6055            6040     135.893E-03     147.348E-03
            6056            6025     131.771E-03     134.554E-03
            6056            6026     133.443E-03     138.718E-03
            6056            6040     135.893E-03     147.348E-03
            6056            6041     141.577E-03     145.566E-03
            6057            6026     133.443E-03     138.718E-03
            6057            6027     139.868E-03     141.197E-03
            6057            6041     141.577E-03     145.566E-03
            6057            6042     148.190E-03     146.708E-03
            6058            6027     139.868E-03     141.197E-03
            6058            6028     147.870E-03     146.055E-03
            6058            6042     148.190E-03     146.708E-03
            6058            6043     154.672E-03     150.869E-03
            6059            6028     147.870E-03     146.055E-03
            6059            6029     156.493E-03     152.990E-03
            6059            6043     154.672E-03     150.869E-03
            6059            6044     161.584E-03     156.222E-03
            6060            6029     156.493E-03     152.990E-03
            6060            6030     165.900E-03     161.125E-03
            6060            6044     161.584E-03     156.222E-03
            6060            6045     168.980E-03     162.370E-03
            6061            6030     165.900E-03     161.125E-03
            6061            6031     175.745E-03     170.071E-03
            6061            6045     168.980E-03     162.370E-03
            6061            6046     176.452E-03     168.772E-03
            6062            6031     175.745E-03     170.071E-03
            6062            6032     185.625E-03     179.198E-03
            6062            6046     176.452E-03     168.772E-03
            6062            6047     183.679E-03     174.838E-03
            6063            6032     185.625E-03     179.198E-03
            6063            6033     194.976E-03     187.885E-03
            6063            6047     183.679E-03     174.838E-03
            6063            6048     190.047E-03     179.994E-03
            6064            6033     194.976E-03     187.885E-03
            6064            6034     202.878E-03     195.265E-03
            6064            6048     190.047E-03     179.994E-03
            6064            6049     194.781E-03     183.313E-03
            6065            6034     202.878E-03     195.265E-03
            6065            6035     208.033E-03     200.175E-03
            6065            6049     194.781E-03     183.313E-03
            6065            6050     196.956E-03     183.841E-03
            6066            6035     208.033E-03     200.175E-03
            6066            6036     208.328E-03     200.746E-03
            6066            6050     196.956E-03     183.841E-03
            6066            6051     194.718E-03     179.852E-03
            6067            6036     208.328E-03     200.746E-03
            6067            6037     200.809E-03     194.741E-03
            6067            6051     194.718E-03     179.852E-03
            6067            6052     186.074E-03     169.291E-03
            6068            6037     200.809E-03     194.741E-03
            6068            6038     178.730E-03     176.663E-03
            6068            6052     186.074E-03     169.291E-03
            6068            6053     164.631E-03     147.123E-03
            6069            6038     178.730E-03     176.663E-03
            6069            6039     159.322E-03     158.286E-03
            6069            6053     164.631E-03     147.123E-03
            6069            6054     128.174E-03     115.094E-03
            6070             686     155.925E-03     153.082E-03
            6070             687     107.122E-03     98.1554E-03
            6070            6039     159.322E-03     158.286E-03
            6070            6054     128.174E-03     115.094E-03
            6071             777     133.542E-03     148.522E-03
            6071             778     104.321E-03     121.770E-03
            6071            6040     135.893E-03     147.348E-03
            6071            6055     109.819E-03     119.825E-03
            6072            6040     135.893E-03     147.348E-03
            6072            6041     141.577E-03     145.566E-03
            6072            6055     109.819E-03     119.825E-03
            6072            6056     116.749E-03     117.701E-03
            6073            6041     141.577E-03     145.566E-03
            6073            6042     148.190E-03     146.708E-03
            6073            6056     116.749E-03     117.701E-03
            6073            6057     119.325E-03     119.355E-03
            6074            6042     148.190E-03     146.708E-03
            6074            6043     154.672E-03     150.869E-03
            6074            6057     119.325E-03     119.355E-03
            6074            6058     121.934E-03     122.201E-03
            6075            6043     154.672E-03     150.869E-03
            6075            6044     161.584E-03     156.222E-03
            6075            6058     121.934E-03     122.201E-03
            6075            6059     125.002E-03     124.994E-03
            6076            6044     161.584E-03     156.222E-03
            6076            6045     168.980E-03     162.370E-03
            6076            6059     125.002E-03     124.994E-03
            6076            6060     128.276E-03     128.363E-03
            6077            6045     168.980E-03     162.370E-03
            6077            6046     176.452E-03     168.772E-03
            6077            6060     128.276E-03     128.363E-03
            6077            6061     131.537E-03     131.622E-03
            6078            6046     176.452E-03     168.772E-03
            6078            6047     183.679E-03     174.838E-03
            6078            6061     131.537E-03     131.622E-03
            6078            6062     134.826E-03     134.800E-03
            6079            6047     183.679E-03     174.838E-03
            6079            6048     190.047E-03     179.994E-03
            6079            6062     134.826E-03     134.800E-03
            6079            6063     137.456E-03     137.235E-03
            6080            6048     190.047E-03     179.994E-03
            6080            6049     194.781E-03     183.313E-03
            6080            6063     137.456E-03     137.235E-03
            6080            6064     139.744E-03     139.013E-03
            6081            6049     194.781E-03     183.313E-03
            6081            6050     196.956E-03     183.841E-03
            6081            6064     139.744E-03     139.013E-03
            6081            6065     140.212E-03     138.861E-03
            6082            6050     196.956E-03     183.841E-03
            6082            6051     194.718E-03     179.852E-03
            6082            6065     140.212E-03     138.861E-03
            6082            6066     139.736E-03     136.868E-03
            6083            6051     194.718E-03     179.852E-03
            6083            6052     186.074E-03     169.291E-03
            6083            6066     139.736E-03     136.868E-03
            6083            6067     133.603E-03     130.008E-03
            6084            6052     186.074E-03     169.291E-03
            6084            6053     164.631E-03     147.123E-03
            6084            6067     133.603E-03     130.008E-03
            6084            6068     123.873E-03     118.893E-03
            6085            6053     164.631E-03     147.123E-03
            6085            6054     128.174E-03     115.094E-03
            6085            6068     123.873E-03     118.893E-03
            6085            6069     116.251E-03     117.389E-03
            6086             687     107.122E-03     98.1554E-03
            6086             688     111.817E-03     121.129E-03
            6086            6054     128.174E-03     115.094E-03
            6086            6069     116.251E-03     117.389E-03
            6087             778     104.321E-03     121.770E-03
            6087             779     86.3450E-03     85.0183E-03
            6087            6055     109.819E-03     119.825E-03
            6087            6070     86.7335E-03     86.6093E-03
            6088            6055     109.819E-03     119.825E-03
            6088            6056     116.749E-03     117.701E-03
            6088            6070     86.7335E-03     86.6093E-03
            6088            6071     87.0292E-03     88.6713E-03
            6089            6056     116.749E-03     117.701E-03
            6089            6057     119.325E-03     119.355E-03
            6089            6071     87.0292E-03     88.6713E-03
            6089            6072     86.9050E-03     89.5106E-03
            6090            6057     119.325E-03     119.355E-03
            6090            6058     121.934E-03     122.201E-03
            6090            6072     86.9050E-03     89.5106E-03
            6090            6073     86.9211E-03     90.3791E-03
            6091            6058     121.934E-03     122.201E-03
            6091            6059     125.002E-03     124.994E-03
            6091            6073     86.9211E-03     90.3791E-03
            6091            6074     87.1101E-03     91.4044E-03
            6092            6059     125.002E-03     124.994E-03
            6092            6060     128.276E-03     128.363E-03
            6092            6074     87.1101E-03     91.4044E-03
            6092            6075     87.5280E-03     92.6222E-03
            6093            6060     128.276E-03     128.363E-03
            6093            6061     131.537E-03     131.622E-03
            6093            6075     87.5280E-03     92.6222E-03
            6093            6076     88.0724E-03     93.9459E-03
            6094            6061     131.537E-03     131.622E-03
            6094            6062     134.826E-03     134.800E-03
            6094            6076     88.0724E-03     93.9459E-03
            6094            6077     88.8815E-03     95.5088E-03
            6095            6062     134.826E-03     134.800E-03
            6095            6063     137.456E-03     137.235E-03
            6095            6077     88.8815E-03     95.5088E-03
            6095            6078     89.7608E-03     97.1013E-03
            6096            6063     137.456E-03     137.235E-03
            6096            6064     139.744E-03     139.013E-03
            6096            6078     89.7608E-03     97.1013E-03
            6096            6079     91.1392E-03     99.1036E-03
            6097            6064     139.744E-03     139.013E-03
            6097            6065     140.212E-03     138.861E-03
            6097            6079     91.1392E-03     99.1036E-03
            6097            6080     92.4289E-03     101.058E-03
            6098            6065     140.212E-03     138.861E-03
            6098            6066     139.736E-03     136.868E-03
            6098            6080     92.4289E-03     101.058E-03
            6098            6081     94.8906E-03     103.762E-03
            6099            6066     139.736E-03     136.868E-03
            6099            6067     133.603E-03     130.008E-03
            6099            6081     94.8906E-03     103.762E-03
            6099            6082     95.8167E-03     105.563E-03
            6100            6067     133.603E-03     130.008E-03
            6100            6068     123.873E-03     118.893E-03
            6100            6082     95.8167E-03     105.563E-03
            6100            6083     95.6015E-03     107.746E-03
            6101            6068     123.873E-03     118.893E-03
            6101            6069     116.251E-03     117.389E-03
            6101            6083     95.6015E-03     107.746E-03
            6101            6084     107.715E-03     119.238E-03
            6102             688     111.817E-03     121.129E-03
            6102             689     118.758E-03     128.258E-03
            6102            6069     116.251E-03     117.389E-03
            6102            6084     107.715E-03     119.238E-03
            6103             779     86.3450E-03     85.0183E-03
            6103             780     94.7425E-03     82.2418E-03
            6103            6070     86.7335E-03     86.6093E-03
            6103            6085     92.4225E-03     86.1300E-03
            6104            6070     86.7335E-03     86.6093E-03
            6104            6071     87.0292E-03     88.6713E-03
            6104            6085     92.4225E-03     86.1300E-03
            6104            6086     89.5684E-03     90.3975E-03
            6105            6071     87.0292E-03     88.6713E-03
            6105            6072     86.9050E-03     89.5106E-03
            6105            6086     89.5684E-03     90.3975E-03
            6105            6087     89.6425E-03     90.2768E-03
            6106            6072     86.9050E-03     89.5106E-03
            6106            6073     86.9211E-03     90.3791E-03
            6106            6087     89.6425E-03     90.2768E-03
            6106            6088     90.3105E-03     90.2424E-03
            6107            6073     86.9211E-03     90.3791E-03
            6107            6074     87.1101E-03     91.4044E-03
            6107            6088     90.3105E-03     90.2424E-03
            6107            6089     90.7553E-03     91.0608E-03
            6108            6074     87.1101E-03     91.4044E-03
            6108            6075     87.5280E-03     92.6222E-03
            6108            6089     90.7553E-03     91.0608E-03
            6108            6090     91.5227E-03     91.7997E-03
            6109            6075     87.5280E-03     92.6222E-03
            6109            6076     88.0724E-03     93.9459E-03
            6109            6090     91.5227E-03     91.7997E-03
            6109            6091     92.4766E-03     92.7645E-03
            6110            6076     88.0724E-03     93.9459E-03
            6110            6077     88.8815E-03     95.5088E-03
            6110            6091     92.4766E-03     92.7645E-03
            6110            6092     93.4595E-03     93.7945E-03
            6111            6077     88.8815E-03     95.5088E-03
            6111            6078     89.7608E-03     97.1013E-03
            6111            6092     93.4595E-03     93.7945E-03
            6111            6093     94.7260E-03     95.0805E-03
            6112            6078     89.7608E-03     97.1013E-03
            6112            6079     91.1392E-03     99.1036E-03
            6112            6093     94.7260E-03     95.0805E-03
            6112            6094     95.9520E-03     96.3187E-03
            6113            6079     91.1392E-03     99.1036E-03
            6113            6080     92.4289E-03     101.058E-03
            6113            6094     95.9520E-03     96.3187E-03
            6113            6095     97.9536E-03     98.2377E-03
            6114            6080     92.4289E-03     101.058E-03
            6114            6081     94.8906E-03     103.762E-03
            6114            6095     97.9536E-03     98.2377E-03
            6114            6096     99.9206E-03     100.682E-03
            6115            6081     94.8906E-03     103.762E-03
            6115            6082     95.8167E-03     105.563E-03
            6115            6096     99.9206E-03     100.682E-03
            6115            6097     105.096E-03     104.239E-03
            6116            6082     95.8167E-03     105.563E-03
            6116            6083     95.6015E-03     107.746E-03
            6116            6097     105.096E-03     104.239E-03
            6116            6098     102.710E-03     104.035E-03
            6117            6083     95.6015E-03     107.746E-03
            6117            6084     107.715E-03     119.238E-03
            6117            6098     102.710E-03     104.035E-03
            6117            6099     76.9316E-03     79.2784E-03
            6118             689     118.758E-03     128.258E-03
            6118             690     58.3780E-03     57.3529E-03
            6118            6084     107.715E-03     119.238E-03
            6118            6099     76.9316E-03     79.2784E-03
            6119             780     94.7425E-03     82.2418E-03
            6119             781     90.4979E-03     90.2156E-03
            6119            6085     92.4225E-03     86.1300E-03
            6119            6100     91.3918E-03     90.8582E-03
            6120            6085     92.4225E-03     86.1300E-03
            6120            6086     89.5684E-03     90.3975E-03
            6120            6100     91.3918E-03     90.8582E-03
            6120            6101     92.7140E-03     91.4322E-03
            6121            6086     89.5684E-03     90.3975E-03
            6121            6087     89.6425E-03     90.2768E-03
            6121            6101     92.7140E-03     91.4322E-03
            6121            6102     93.5557E-03     91.4171E-03
            6122            6087     89.6425E-03     90.2768E-03
            6122            6088     90.3105E-03     90.2424E-03
            6122            6102     93.5557E-03     91.4171E-03
            6122            6103     94.4326E-03     91.5105E-03
            6123            6088     90.3105E-03     90.2424E-03
            6123            6089     90.7553E-03     91.0608E-03
            6123            6103     94.4326E-03     91.5105E-03
            6123            6104     95.3848E-03     91.7134E-03
            6124            6089     90.7553E-03     91.0608E-03
            6124            6090     91.5227E-03     91.7997E-03
            6124            6104     95.3848E-03     91.7134E-03
            6124            6105     96.4841E-03     92.1035E-03
            6125            6090     91.5227E-03     91.7997E-03
            6125            6091     92.4766E-03     92.7645E-03
            6125            6105     96.4841E-03     92.1035E-03
            6125            6106     97.6570E-03     92.5822E-03
            6126            6091     92.4766E-03     92.7645E-03
            6126            6092     93.4595E-03     93.7945E-03
            6126            6106     97.6570E-03     92.5822E-03
            6126            6107     98.9693E-03     93.2050E-03
            6127            6092     93.4595E-03     93.7945E-03
            6127            6093     94.7260E-03     95.0805E-03
            6127            6107     98.9693E-03     93.2050E-03
            6127            6108     100.271E-03     93.8619E-03
            6128            6093     94.7260E-03     95.0805E-03
            6128            6094     95.9520E-03     96.3187E-03
            6128            6108     100.271E-03     93.8619E-03
            6128            6109     101.760E-03     94.7054E-03
            6129            6094     95.9520E-03     96.3187E-03
            6129            6095     97.9536E-03     98.2377E-03
            6129            6109     101.760E-03     94.7054E-03
            6129            6110     103.247E-03     95.5021E-03
            6130            6095     97.9536E-03     98.2377E-03
            6130            6096     99.9206E-03     100.682E-03
            6130            6110     103.247E-03     95.5021E-03
            6130            6111     105.067E-03     96.7311E-03
            6131            6096     99.9206E-03     100.682E-03
            6131            6097     105.096E-03     104.239E-03
            6131            6111     105.067E-03     96.7311E-03
            6131            6112     105.954E-03     96.3966E-03
            6132            6097     105.096E-03     104.239E-03
            6132            6098     102.710E-03     104.035E-03
            6132            6112     105.954E-03     96.3966E-03
            6132            6113     97.3230E-03     87.7700E-03
            6133            6098     102.710E-03     104.035E-03
            6133            6099     76.9316E-03     79.2784E-03
            6133            6113     97.3230E-03     87.7700E-03
            6133            6114     55.8580E-03     64.7314E-03
            6134             690     58.3780E-03     57.3529E-03
            6134             691     22.6423E-03     48.9949E-03
            6134            6099     76.9316E-03     79.2784E-03
            6134            6114     55.8580E-03     64.7314E-03
            6135              30     42.5488E-03     48.1106E-03
            6135             781     90.4979E-03     90.2156E-03
            6135             797     44.6155E-03     47.1373E-03
            6135            6100     91.3918E-03     90.8582E-03
            6136             797     44.6155E-03     47.1373E-03
            6136             798     47.2703E-03     45.9653E-03
            6136            6100     91.3918E-03     90.8582E-03
            6136            6101     92.7140E-03     91.4322E-03
            6137             798     47.2703E-03     45.9653E-03
            6137             799     47.9388E-03     46.0764E-03
            6137            6101     92.7140E-03     91.4322E-03
            6137            6102     93.5557E-03     91.4171E-03
            6138             799     47.9388E-03     46.0764E-03
            6138             800     48.3780E-03     46.2860E-03
            6138            6102     93.5557E-03     91.4171E-03
            6138            6103     94.4326E-03     91.5105E-03
            6139             800     48.3780E-03     46.2860E-03
            6139             801     49.0011E-03     46.1927E-03
            6139            6103     94.4326E-03     91.5105E-03
            6139            6104     95.3848E-03     91.7134E-03
            6140             801     49.0011E-03     46.1927E-03
            6140             802     49.6398E-03     46.3226E-03
            6140            6104     95.3848E-03     91.7134E-03
            6140            6105     96.4841E-03     92.1035E-03
            6141             802     49.6398E-03     46.3226E-03
            6141             803     50.2559E-03     46.4137E-03
            6141            6105     96.4841E-03     92.1035E-03
            6141            6106     97.6570E-03     92.5822E-03
            6142             803     50.2559E-03     46.4137E-03
            6142             804     51.0262E-03     46.6726E-03
            6142            6106     97.6570E-03     92.5822E-03
            6142            6107     98.9693E-03     93.2050E-03
            6143             804     51.0262E-03     46.6726E-03
            6143             805     51.6260E-03     46.7674E-03
            6143            6107     98.9693E-03     93.2050E-03
            6143            6108     100.271E-03     93.8619E-03
            6144             805     51.6260E-03     46.7674E-03
            6144             806     52.5454E-03     47.2163E-03
            6144            6108     100.271E-03     93.8619E-03
            6144            6109     101.760E-03     94.7054E-03
            6145             806     52.5454E-03     47.2163E-03
            6145             807     52.8931E-03     47.1115E-03
            6145            6109     101.760E-03     94.7054E-03
            6145            6110     103.247E-03     95.5021E-03
            6146             807     52.8931E-03     47.1115E-03
            6146             808     54.0552E-03     47.3756E-03
            6146            6110     103.247E-03     95.5021E-03
            6146            6111     105.067E-03     96.7311E-03
            6147             808     54.0552E-03     47.3756E-03
            6147             809     51.7638E-03     45.2063E-03
            6147            6111     105.067E-03     96.7311E-03
            6147            6112     105.954E-03     96.3966E-03
            6148             809     51.7638E-03     45.2063E-03
            6148             810     45.9293E-03     38.5007E-03
            6148            6112     105.954E-03     96.3966E-03
            6148            6113     97.3230E-03     87.7700E-03
            6149             810     45.9293E-03     38.5007E-03
            6149             811     29.1491E-03     33.3567E-03
            6149            6113     97.3230E-03     87.7700E-03
            6149            6114     55.8580E-03     64.7314E-03
            6150              28     14.2491E-03     31.7355E-03
            6150             691     22.6423E-03     48.9949E-03
            6150             811     29.1491E-03     33.3567E-03
            6150            6114     55.8580E-03     64.7314E-03


  Minimum                            34.4703E-06     43.8358E-06
      At Element                            4897            4881
            Node                             817             816

  Maximum                                1.04498         1.05066
      At Element                            2936            2936
            Node                             528             528

           Total                     1.69214E+03     1.72713E+03


Field Output reported at element nodes for region: DO228-1.Region_4
   Computation algorithm: EXTRAPOLATE_COMPUTE_AVERAGE
   Averaged at nodes
   Averaging regions: ODB_REGIONS

   Element Label      Node Label         S.Mises         S.Mises
                                          @Loc 1          @Loc 2
-----------------------------------------------------------------
             833               1     25.0756E-03     28.6704E-03
             833             168     26.2104E-03     27.8444E-03
             833             209     78.2404E-06     83.7001E-06
             833            1670     78.3785E-06     83.6422E-06
             834             168     26.2104E-03     27.8444E-03
             834             169     27.7093E-03     26.8665E-03
             834            1670     78.3785E-06     83.6422E-06
             834            1671     79.2449E-06     83.7224E-06
             835             169     27.7093E-03     26.8665E-03
             835             170     28.0862E-03     26.8478E-03
             835            1671     79.2449E-06     83.7224E-06
             835            1672     80.7358E-06     84.9347E-06
             836             170     28.0862E-03     26.8478E-03
             836             171     28.3414E-03     26.9421E-03
             836            1672     80.7358E-06     84.9347E-06
             836            1673     82.1882E-06     87.3379E-06
             837             171     28.3414E-03     26.9421E-03
             837             172     28.7510E-03     26.9014E-03
             837            1673     82.1882E-06     87.3379E-06
             837            1674     83.9771E-06     90.2048E-06
             838             172     28.7510E-03     26.9014E-03
             838             173     29.1677E-03     26.9903E-03
             838            1674     83.9771E-06     90.2048E-06
             838            1675     86.2409E-06     93.5037E-06
             839             173     29.1677E-03     26.9903E-03
             839             174     29.5814E-03     27.0701E-03
             839            1675     86.2409E-06     93.5037E-06
             839            1676     88.9336E-06     97.0224E-06
             840             174     29.5814E-03     27.0701E-03
             840             175     30.0853E-03     27.2502E-03
             840            1676     88.9336E-06     97.0224E-06
             840            1677     91.9781E-06     100.854E-06
             841             175     30.0853E-03     27.2502E-03
             841             176     30.4923E-03     27.3375E-03
             841            1677     91.9781E-06     100.854E-06
             841            1678     95.2098E-06     104.731E-06
             842             176     30.4923E-03     27.3375E-03
             842             177     31.0885E-03     27.6392E-03
             842            1678     95.2098E-06     104.731E-06
             842            1679     98.6577E-06     108.868E-06
             843             177     31.0885E-03     27.6392E-03
             843             178     31.3455E-03     27.6069E-03
             843            1679     98.6577E-06     108.868E-06
             843            1680     102.032E-06     112.948E-06
             844             178     31.3455E-03     27.6069E-03
             844             179     32.0816E-03     27.7947E-03
             844            1680     102.032E-06     112.948E-06
             844            1681     106.814E-06     118.393E-06
             845             179     32.0816E-03     27.7947E-03
             845             180     30.7436E-03     26.4997E-03
             845            1681     106.814E-06     118.393E-06
             845            1682     113.961E-06     126.373E-06
             846             180     30.7436E-03     26.4997E-03
             846             181     27.2046E-03     22.4045E-03
             846            1682     113.961E-06     126.373E-06
             846            1683     133.686E-06     146.346E-06
             847             181     27.2046E-03     22.4045E-03
             847             182     16.8066E-03     19.3636E-03
             847            1683     133.686E-06     146.346E-06
             847            1684     181.577E-06     192.447E-06
             848               5     7.60174E-03     18.4970E-03
             848             182     16.8066E-03     19.3636E-03
             848             183     213.750E-06     222.858E-06
             848            1684     181.577E-06     192.447E-06
             849             208     87.7466E-06     80.8259E-06
             849             209     78.2404E-06     83.7001E-06
             849            1670     78.3785E-06     83.6422E-06
             849            1685     86.4125E-06     82.9912E-06
             850            1670     78.3785E-06     83.6422E-06
             850            1671     79.2449E-06     83.7224E-06
             850            1685     86.4125E-06     82.9912E-06
             850            1686     84.8052E-06     86.0377E-06
             851            1671     79.2449E-06     83.7224E-06
             851            1672     80.7358E-06     84.9347E-06
             851            1686     84.8052E-06     86.0377E-06
             851            1687     85.2130E-06     87.6503E-06
             852            1672     80.7358E-06     84.9347E-06
             852            1673     82.1882E-06     87.3379E-06
             852            1687     85.2130E-06     87.6503E-06
             852            1688     86.6543E-06     89.7244E-06
             853            1673     82.1882E-06     87.3379E-06
             853            1674     83.9771E-06     90.2048E-06
             853            1688     86.6543E-06     89.7244E-06
             853            1689     88.4169E-06     92.4128E-06
             854            1674     83.9771E-06     90.2048E-06
             854            1675     86.2409E-06     93.5037E-06
             854            1689     88.4169E-06     92.4128E-06
             854            1690     90.7983E-06     95.3594E-06
             855            1675     86.2409E-06     93.5037E-06
             855            1676     88.9336E-06     97.0224E-06
             855            1690     90.7983E-06     95.3594E-06
             855            1691     93.6982E-06     98.8212E-06
             856            1676     88.9336E-06     97.0224E-06
             856            1677     91.9781E-06     100.854E-06
             856            1691     93.6982E-06     98.8212E-06
             856            1692     97.0132E-06     102.610E-06
             857            1677     91.9781E-06     100.854E-06
             857            1678     95.2098E-06     104.731E-06
             857            1692     97.0132E-06     102.610E-06
             857            1693     100.787E-06     106.848E-06
             858            1678     95.2098E-06     104.731E-06
             858            1679     98.6577E-06     108.868E-06
             858            1693     100.787E-06     106.848E-06
             858            1694     104.726E-06     111.290E-06
             859            1679     98.6577E-06     108.868E-06
             859            1680     102.032E-06     112.948E-06
             859            1694     104.726E-06     111.290E-06
             859            1695     109.080E-06     116.129E-06
             860            1680     102.032E-06     112.948E-06
             860            1681     106.814E-06     118.393E-06
             860            1695     109.080E-06     116.129E-06
             860            1696     113.006E-06     120.921E-06
             861            1681     106.814E-06     118.393E-06
             861            1682     113.961E-06     126.373E-06
             861            1696     113.006E-06     120.921E-06
             861            1697     119.037E-06     126.651E-06
             862            1682     113.961E-06     126.373E-06
             862            1683     133.686E-06     146.346E-06
             862            1697     119.037E-06     126.651E-06
             862            1698     133.077E-06     138.475E-06
             863            1683     133.686E-06     146.346E-06
             863            1684     181.577E-06     192.447E-06
             863            1698     133.077E-06     138.475E-06
             863            1699     156.739E-06     157.118E-06
             864             183     213.750E-06     222.858E-06
             864             184     170.861E-06     167.581E-06
             864            1684     181.577E-06     192.447E-06
             864            1699     156.739E-06     157.118E-06
             865             207     91.1441E-06     83.9136E-06
             865             208     87.7466E-06     80.8259E-06
             865            1685     86.4125E-06     82.9912E-06
             865            1700     90.9787E-06     84.7066E-06
             866            1685     86.4125E-06     82.9912E-06
             866            1686     84.8052E-06     86.0377E-06
             866            1700     90.9787E-06     84.7066E-06
             866            1701     90.3822E-06     87.1789E-06
             867            1686     84.8052E-06     86.0377E-06
             867            1687     85.2130E-06     87.6503E-06
             867            1701     90.3822E-06     87.1789E-06
             867            1702     89.9828E-06     90.1108E-06
             868            1687     85.2130E-06     87.6503E-06
             868            1688     86.6543E-06     89.7244E-06
             868            1702     89.9828E-06     90.1108E-06
             868            1703     90.7816E-06     92.2652E-06
             869            1688     86.6543E-06     89.7244E-06
             869            1689     88.4169E-06     92.4128E-06
             869            1703     90.7816E-06     92.2652E-06
             869            1704     92.6581E-06     94.4116E-06
             870            1689     88.4169E-06     92.4128E-06
             870            1690     90.7983E-06     95.3594E-06
             870            1704     92.6581E-06     94.4116E-06
             870            1705     95.1026E-06     97.1180E-06
             871            1690     90.7983E-06     95.3594E-06
             871            1691     93.6982E-06     98.8212E-06
             871            1705     95.1026E-06     97.1180E-06
             871            1706     98.0714E-06     100.289E-06
             872            1691     93.6982E-06     98.8212E-06
             872            1692     97.0132E-06     102.610E-06
             872            1706     98.0714E-06     100.289E-06
             872            1707     101.617E-06     104.031E-06
             873            1692     97.0132E-06     102.610E-06
             873            1693     100.787E-06     106.848E-06
             873            1707     101.617E-06     104.031E-06
             873            1708     105.642E-06     108.292E-06
             874            1693     100.787E-06     106.848E-06
             874            1694     104.726E-06     111.290E-06
             874            1708     105.642E-06     108.292E-06
             874            1709     110.119E-06     112.987E-06
             875            1694     104.726E-06     111.290E-06
             875            1695     109.080E-06     116.129E-06
             875            1709     110.119E-06     112.987E-06
             875            1710     114.533E-06     117.828E-06
             876            1695     109.080E-06     116.129E-06
             876            1696     113.006E-06     120.921E-06
             876            1710     114.533E-06     117.828E-06
             876            1711     117.857E-06     121.689E-06
             877            1696     113.006E-06     120.921E-06
             877            1697     119.037E-06     126.651E-06
             877            1711     117.857E-06     121.689E-06
             877            1712     118.639E-06     123.269E-06
             878            1697     119.037E-06     126.651E-06
             878            1698     133.077E-06     138.475E-06
             878            1712     118.639E-06     123.269E-06
             878            1713     115.563E-06     119.846E-06
             879            1698     133.077E-06     138.475E-06
             879            1699     156.739E-06     157.118E-06
             879            1713     115.563E-06     119.846E-06
             879            1714     118.443E-06     122.231E-06
             880             184     170.861E-06     167.581E-06
             880             185     123.907E-06     128.134E-06
             880            1699     156.739E-06     157.118E-06
             880            1714     118.443E-06     122.231E-06
             881             206     94.6615E-06     87.3031E-06
             881             207     91.1441E-06     83.9136E-06
             881            1700     90.9787E-06     84.7066E-06
             881            1715     94.5567E-06     88.3102E-06
             882            1700     90.9787E-06     84.7066E-06
             882            1701     90.3822E-06     87.1789E-06
             882            1715     94.5567E-06     88.3102E-06
             882            1716     94.0259E-06     90.7875E-06
             883            1701     90.3822E-06     87.1789E-06
             883            1702     89.9828E-06     90.1108E-06
             883            1716     94.0259E-06     90.7875E-06
             883            1717     93.7819E-06     93.0932E-06
             884            1702     89.9828E-06     90.1108E-06
             884            1703     90.7816E-06     92.2652E-06
             884            1717     93.7819E-06     93.0932E-06
             884            1718     94.8123E-06     94.6411E-06
             885            1703     90.7816E-06     92.2652E-06
             885            1704     92.6581E-06     94.4116E-06
             885            1718     94.8123E-06     94.6411E-06
             885            1719     96.7360E-06     96.3726E-06
             886            1704     92.6581E-06     94.4116E-06
             886            1705     95.1026E-06     97.1180E-06
             886            1719     96.7360E-06     96.3726E-06
             886            1720     99.1088E-06     98.6163E-06
             887            1705     95.1026E-06     97.1180E-06
             887            1706     98.0714E-06     100.289E-06
             887            1720     99.1088E-06     98.6163E-06
             887            1721     101.986E-06     101.348E-06
             888            1706     98.0714E-06     100.289E-06
             888            1707     101.617E-06     104.031E-06
             888            1721     101.986E-06     101.348E-06
             888            1722     105.353E-06     104.624E-06
             889            1707     101.617E-06     104.031E-06
             889            1708     105.642E-06     108.292E-06
             889            1722     105.353E-06     104.624E-06
             889            1723     109.190E-06     108.360E-06
             890            1708     105.642E-06     108.292E-06
             890            1709     110.119E-06     112.987E-06
             890            1723     109.190E-06     108.360E-06
             890            1724     113.400E-06     112.528E-06
             891            1709     110.119E-06     112.987E-06
             891            1710     114.533E-06     117.828E-06
             891            1724     113.400E-06     112.528E-06
             891            1725     117.041E-06     116.262E-06
             892            1710     114.533E-06     117.828E-06
             892            1711     117.857E-06     121.689E-06
             892            1725     117.041E-06     116.262E-06
             892            1726     119.218E-06     118.612E-06
             893            1711     117.857E-06     121.689E-06
             893            1712     118.639E-06     123.269E-06
             893            1726     119.218E-06     118.612E-06
             893            1727     113.488E-06     114.938E-06
             894            1712     118.639E-06     123.269E-06
             894            1713     115.563E-06     119.846E-06
             894            1727     113.488E-06     114.938E-06
             894            1728     95.1938E-06     99.4223E-06
             895            1713     115.563E-06     119.846E-06
             895            1714     118.443E-06     122.231E-06
             895            1728     95.1938E-06     99.4223E-06
             895            1729     85.2595E-06     85.4289E-06
             896             185     123.907E-06     128.134E-06
             896             186     87.1925E-06     82.4614E-06
             896            1714     118.443E-06     122.231E-06
             896            1729     85.2595E-06     85.4289E-06
             897             205     98.6641E-06     92.6160E-06
             897             206     94.6615E-06     87.3031E-06
             897            1715     94.5567E-06     88.3102E-06
             897            1730     97.2177E-06     94.5303E-06
             898            1715     94.5567E-06     88.3102E-06
             898            1716     94.0259E-06     90.7875E-06
             898            1730     97.2177E-06     94.5303E-06
             898            1731     95.8753E-06     96.4276E-06
             899            1716     94.0259E-06     90.7875E-06
             899            1717     93.7819E-06     93.0932E-06
             899            1731     95.8753E-06     96.4276E-06
             899            1732     97.0085E-06     96.3424E-06
             900            1717     93.7819E-06     93.0932E-06
             900            1718     94.8123E-06     94.6411E-06
             900            1732     97.0085E-06     96.3424E-06
             900            1733     98.8993E-06     96.9733E-06
             901            1718     94.8123E-06     94.6411E-06
             901            1719     96.7360E-06     96.3726E-06
             901            1733     98.8993E-06     96.9733E-06
             901            1734     100.738E-06     98.3619E-06
             902            1719     96.7360E-06     96.3726E-06
             902            1720     99.1088E-06     98.6163E-06
             902            1734     100.738E-06     98.3619E-06
             902            1735     102.961E-06     100.013E-06
             903            1720     99.1088E-06     98.6163E-06
             903            1721     101.986E-06     101.348E-06
             903            1735     102.961E-06     100.013E-06
             903            1736     105.484E-06     102.099E-06
             904            1721     101.986E-06     101.348E-06
             904            1722     105.353E-06     104.624E-06
             904            1736     105.484E-06     102.099E-06
             904            1737     108.279E-06     104.446E-06
             905            1722     105.353E-06     104.624E-06
             905            1723     109.190E-06     108.360E-06
             905            1737     108.279E-06     104.446E-06
             905            1738     111.326E-06     107.062E-06
             906            1723     109.190E-06     108.360E-06
             906            1724     113.400E-06     112.528E-06
             906            1738     111.326E-06     107.062E-06
             906            1739     114.181E-06     109.489E-06
             907            1724     113.400E-06     112.528E-06
             907            1725     117.041E-06     116.262E-06
             907            1739     114.181E-06     109.489E-06
             907            1740     116.473E-06     111.314E-06
             908            1725     117.041E-06     116.262E-06
             908            1726     119.218E-06     118.612E-06
             908            1740     116.473E-06     111.314E-06
             908            1741     115.427E-06     110.261E-06
             909            1726     119.218E-06     118.612E-06
             909            1727     113.488E-06     114.938E-06
             909            1741     115.427E-06     110.261E-06
             909            1742     108.254E-06     103.275E-06
             910            1727     113.488E-06     114.938E-06
             910            1728     95.1938E-06     99.4223E-06
             910            1742     108.254E-06     103.275E-06
             910            1743     84.1019E-06     81.9753E-06
             911            1728     95.1938E-06     99.4223E-06
             911            1729     85.2595E-06     85.4289E-06
             911            1743     84.1019E-06     81.9753E-06
             911            1744     57.7011E-06     56.0060E-06
             912             186     87.1925E-06     82.4614E-06
             912             187     50.2937E-06     46.1925E-06
             912            1729     85.2595E-06     85.4289E-06
             912            1744     57.7011E-06     56.0060E-06
             913             204     95.7636E-06     103.712E-06
             913             205     98.6641E-06     92.6160E-06
             913            1730     97.2177E-06     94.5303E-06
             913            1745     96.5713E-06     102.408E-06
             914            1730     97.2177E-06     94.5303E-06
             914            1731     95.8753E-06     96.4276E-06
             914            1745     96.5713E-06     102.408E-06
             914            1746     98.7078E-06     100.044E-06
             915            1731     95.8753E-06     96.4276E-06
             915            1732     97.0085E-06     96.3424E-06
             915            1746     98.7078E-06     100.044E-06
             915            1747     101.135E-06     99.1619E-06
             916            1732     97.0085E-06     96.3424E-06
             916            1733     98.8993E-06     96.9733E-06
             916            1747     101.135E-06     99.1619E-06
             916            1748     103.012E-06     99.6397E-06
             917            1733     98.8993E-06     96.9733E-06
             917            1734     100.738E-06     98.3619E-06
             917            1748     103.012E-06     99.6397E-06
             917            1749     104.873E-06     100.487E-06
             918            1734     100.738E-06     98.3619E-06
             918            1735     102.961E-06     100.013E-06
             918            1749     104.873E-06     100.487E-06
             918            1750     106.861E-06     101.679E-06
             919            1735     102.961E-06     100.013E-06
             919            1736     105.484E-06     102.099E-06
             919            1750     106.861E-06     101.679E-06
             919            1751     108.906E-06     102.940E-06
             920            1736     105.484E-06     102.099E-06
             920            1737     108.279E-06     104.446E-06
             920            1751     108.906E-06     102.940E-06
             920            1752     110.951E-06     104.220E-06
             921            1737     108.279E-06     104.446E-06
             921            1738     111.326E-06     107.062E-06
             921            1752     110.951E-06     104.220E-06
             921            1753     112.668E-06     105.187E-06
             922            1738     111.326E-06     107.062E-06
             922            1739     114.181E-06     109.489E-06
             922            1753     112.668E-06     105.187E-06
             922            1754     113.720E-06     105.375E-06
             923            1739     114.181E-06     109.489E-06
             923            1740     116.473E-06     111.314E-06
             923            1754     113.720E-06     105.375E-06
             923            1755     112.989E-06     103.824E-06
             924            1740     116.473E-06     111.314E-06
             924            1741     115.427E-06     110.261E-06
             924            1755     112.989E-06     103.824E-06
             924            1756     108.978E-06     98.7651E-06
             925            1741     115.427E-06     110.261E-06
             925            1742     108.254E-06     103.275E-06
             925            1756     108.978E-06     98.7651E-06
             925            1757     98.5772E-06     87.0212E-06
             926            1742     108.254E-06     103.275E-06
             926            1743     84.1019E-06     81.9753E-06
             926            1757     98.5772E-06     87.0212E-06
             926            1758     76.4542E-06     64.2140E-06
             927            1743     84.1019E-06     81.9753E-06
             927            1744     57.7011E-06     56.0060E-06
             927            1758     76.4542E-06     64.2140E-06
             927            1759     48.6451E-06     50.3767E-06
             928             187     50.2937E-06     46.1925E-06
             928             188     35.5984E-06     51.2278E-06
             928            1744     57.7011E-06     56.0060E-06
             928            1759     48.6451E-06     50.3767E-06
             929               7     90.7151E-06     106.004E-06
             929             203     95.5917E-06     104.482E-06
             929             204     95.7636E-06     103.712E-06
             929            1745     96.5713E-06     102.408E-06
             930             202     101.272E-06     101.199E-06
             930             203     95.5917E-06     104.482E-06
             930            1745     96.5713E-06     102.408E-06
             930            1746     98.7078E-06     100.044E-06
             931             201     103.286E-06     100.361E-06
             931             202     101.272E-06     101.199E-06
             931            1746     98.7078E-06     100.044E-06
             931            1747     101.135E-06     99.1619E-06
             932             200     105.200E-06     101.085E-06
             932             201     103.286E-06     100.361E-06
             932            1747     101.135E-06     99.1619E-06
             932            1748     103.012E-06     99.6397E-06
             933             199     106.951E-06     101.636E-06
             933             200     105.200E-06     101.085E-06
             933            1748     103.012E-06     99.6397E-06
             933            1749     104.873E-06     100.487E-06
             934             198     108.862E-06     102.592E-06
             934             199     106.951E-06     101.636E-06
             934            1749     104.873E-06     100.487E-06
             934            1750     106.861E-06     101.679E-06
             935             197     110.665E-06     103.496E-06
             935             198     108.862E-06     102.592E-06
             935            1750     106.861E-06     101.679E-06
             935            1751     108.906E-06     102.940E-06
             936             196     112.292E-06     104.173E-06
             936             197     110.665E-06     103.496E-06
             936            1751     108.906E-06     102.940E-06
             936            1752     110.951E-06     104.220E-06
             937             195     113.337E-06     104.319E-06
             937             196     112.292E-06     104.173E-06
             937            1752     110.951E-06     104.220E-06
             937            1753     112.668E-06     105.187E-06
             938             194     113.310E-06     103.299E-06
             938             195     113.337E-06     104.319E-06
             938            1753     112.668E-06     105.187E-06
             938            1754     113.720E-06     105.375E-06
             939             193     110.812E-06     99.7028E-06
             939             194     113.310E-06     103.299E-06
             939            1754     113.720E-06     105.375E-06
             939            1755     112.989E-06     103.824E-06
             940             192     105.343E-06     92.7145E-06
             940             193     110.812E-06     99.7028E-06
             940            1755     112.989E-06     103.824E-06
             940            1756     108.978E-06     98.7651E-06
             941             191     91.7873E-06     77.4065E-06
             941             192     105.343E-06     92.7145E-06
             941            1756     108.978E-06     98.7651E-06
             941            1757     98.5772E-06     87.0212E-06
             942             190     71.6852E-06     54.3001E-06
             942             191     91.7873E-06     77.4065E-06
             942            1757     98.5772E-06     87.0212E-06
             942            1758     76.4542E-06     64.2140E-06
             943             189     50.0261E-06     56.7262E-06
             943             190     71.6852E-06     54.3001E-06
             943            1758     76.4542E-06     64.2140E-06
             943            1759     48.6451E-06     50.3767E-06
             944               6     38.2674E-06     71.5268E-06
             944             188     35.5984E-06     51.2278E-06
             944             189     50.0261E-06     56.7262E-06
             944            1759     48.6451E-06     50.3767E-06
            1873               5     7.60174E-03     18.4970E-03
            1873             182     16.8066E-03     19.3636E-03
            1873             243     13.9325E-03     29.5458E-03
            1873            2506     33.2213E-03     38.2233E-03
            1874             181     27.2046E-03     22.4045E-03
            1874             182     16.8066E-03     19.3636E-03
            1874            2506     33.2213E-03     38.2233E-03
            1874            2507     57.6010E-03     51.4210E-03
            1875             180     30.7436E-03     26.4997E-03
            1875             181     27.2046E-03     22.4045E-03
            1875            2507     57.6010E-03     51.4210E-03
            1875            2508     62.8471E-03     56.7055E-03
            1876             179     32.0816E-03     27.7947E-03
            1876             180     30.7436E-03     26.4997E-03
            1876            2508     62.8471E-03     56.7055E-03
            1876            2509     62.2182E-03     56.8481E-03
            1877             178     31.3455E-03     27.6069E-03
            1877             179     32.0816E-03     27.7947E-03
            1877            2509     62.2182E-03     56.8481E-03
            1877            2510     61.0401E-03     56.0329E-03
            1878             177     31.0885E-03     27.6392E-03
            1878             178     31.3455E-03     27.6069E-03
            1878            2510     61.0401E-03     56.0329E-03
            1878            2511     60.0420E-03     55.4698E-03
            1879             176     30.4923E-03     27.3375E-03
            1879             177     31.0885E-03     27.6392E-03
            1879            2511     60.0420E-03     55.4698E-03
            1879            2512     59.0576E-03     54.8898E-03
            1880             175     30.0853E-03     27.2502E-03
            1880             176     30.4923E-03     27.3375E-03
            1880            2512     59.0576E-03     54.8898E-03
            1880            2513     58.1835E-03     54.4241E-03
            1881             174     29.5814E-03     27.0701E-03
            1881             175     30.0853E-03     27.2502E-03
            1881            2513     58.1835E-03     54.4241E-03
            1881            2514     57.3129E-03     53.9905E-03
            1882             173     29.1677E-03     26.9903E-03
            1882             174     29.5814E-03     27.0701E-03
            1882            2514     57.3129E-03     53.9905E-03
            1882            2515     56.5269E-03     53.6468E-03
            1883             172     28.7510E-03     26.9014E-03
            1883             173     29.1677E-03     26.9903E-03
            1883            2515     56.5269E-03     53.6468E-03
            1883            2516     55.7977E-03     53.3707E-03
            1884             171     28.3414E-03     26.9421E-03
            1884             172     28.7510E-03     26.9014E-03
            1884            2516     55.7977E-03     53.3707E-03
            1884            2517     55.1553E-03     53.2091E-03
            1885             170     28.0862E-03     26.8478E-03
            1885             171     28.3414E-03     26.9421E-03
            1885            2517     55.1553E-03     53.2091E-03
            1885            2518     54.5935E-03     53.1502E-03
            1886             169     27.7093E-03     26.8665E-03
            1886             170     28.0862E-03     26.8478E-03
            1886            2518     54.5935E-03     53.1502E-03
            1886            2519     54.1429E-03     53.2718E-03
            1887             168     26.2104E-03     27.8444E-03
            1887             169     27.7093E-03     26.8665E-03
            1887            2519     54.1429E-03     53.2718E-03
            1887            2520     53.7840E-03     53.5389E-03
            1888               1     25.0756E-03     28.6704E-03
            1888             167     53.6366E-03     53.6766E-03
            1888             168     26.2104E-03     27.8444E-03
            1888            2520     53.7840E-03     53.5389E-03
            1889             243     13.9325E-03     29.5458E-03
            1889             244     37.3948E-03     35.9898E-03
            1889            2506     33.2213E-03     38.2233E-03
            1889            2521     46.9771E-03     47.9736E-03
            1890            2506     33.2213E-03     38.2233E-03
            1890            2507     57.6010E-03     51.4210E-03
            1890            2521     46.9771E-03     47.9736E-03
            1890            2522     60.8038E-03     61.6118E-03
            1891            2507     57.6010E-03     51.4210E-03
            1891            2508     62.8471E-03     56.7055E-03
            1891            2522     60.8038E-03     61.6118E-03
            1891            2523     62.1421E-03     61.6542E-03
            1892            2508     62.8471E-03     56.7055E-03
            1892            2509     62.2182E-03     56.8481E-03
            1892            2523     62.1421E-03     61.6542E-03
            1892            2524     58.9639E-03     59.4291E-03
            1893            2509     62.2182E-03     56.8481E-03
            1893            2510     61.0401E-03     56.0329E-03
            1893            2524     58.9639E-03     59.4291E-03
            1893            2525     57.6645E-03     57.8529E-03
            1894            2510     61.0401E-03     56.0329E-03
            1894            2511     60.0420E-03     55.4698E-03
            1894            2525     57.6645E-03     57.8529E-03
            1894            2526     56.3590E-03     56.5936E-03
            1895            2511     60.0420E-03     55.4698E-03
            1895            2512     59.0576E-03     54.8898E-03
            1895            2526     56.3590E-03     56.5936E-03
            1895            2527     55.5224E-03     55.7504E-03
            1896            2512     59.0576E-03     54.8898E-03
            1896            2513     58.1835E-03     54.4241E-03
            1896            2527     55.5224E-03     55.7504E-03
            1896            2528     54.6739E-03     54.8900E-03
            1897            2513     58.1835E-03     54.4241E-03
            1897            2514     57.3129E-03     53.9905E-03
            1897            2528     54.6739E-03     54.8900E-03
            1897            2529     54.0003E-03     54.1871E-03
            1898            2514     57.3129E-03     53.9905E-03
            1898            2515     56.5269E-03     53.6468E-03
            1898            2529     54.0003E-03     54.1871E-03
            1898            2530     53.3554E-03     53.5357E-03
            1899            2515     56.5269E-03     53.6468E-03
            1899            2516     55.7977E-03     53.3707E-03
            1899            2530     53.3554E-03     53.5357E-03
            1899            2531     52.8231E-03     53.0159E-03
            1900            2516     55.7977E-03     53.3707E-03
            1900            2517     55.1553E-03     53.2091E-03
            1900            2531     52.8231E-03     53.0159E-03
            1900            2532     52.4910E-03     52.4596E-03
            1901            2517     55.1553E-03     53.2091E-03
            1901            2518     54.5935E-03     53.1502E-03
            1901            2532     52.4910E-03     52.4596E-03
            1901            2533     52.0046E-03     52.3979E-03
            1902            2518     54.5935E-03     53.1502E-03
            1902            2519     54.1429E-03     53.2718E-03
            1902            2533     52.0046E-03     52.3979E-03
            1902            2534     52.0047E-03     52.5069E-03
            1903            2519     54.1429E-03     53.2718E-03
            1903            2520     53.7840E-03     53.5389E-03
            1903            2534     52.0047E-03     52.5069E-03
            1903            2535     54.4426E-03     50.5977E-03
            1904             166     56.4545E-03     48.8162E-03
            1904             167     53.6366E-03     53.6766E-03
            1904            2520     53.7840E-03     53.5389E-03
            1904            2535     54.4426E-03     50.5977E-03
            1905             244     37.3948E-03     35.9898E-03
            1905             245     73.1301E-03     78.8357E-03
            1905            2521     46.9771E-03     47.9736E-03
            1905            2536     65.2842E-03     72.4207E-03
            1906            2521     46.9771E-03     47.9736E-03
            1906            2522     60.8038E-03     61.6118E-03
            1906            2536     65.2842E-03     72.4207E-03
            1906            2537     56.5387E-03     64.2662E-03
            1907            2522     60.8038E-03     61.6118E-03
            1907            2523     62.1421E-03     61.6542E-03
            1907            2537     56.5387E-03     64.2662E-03
            1907            2538     56.3671E-03     62.6366E-03
            1908            2523     62.1421E-03     61.6542E-03
            1908            2524     58.9639E-03     59.4291E-03
            1908            2538     56.3671E-03     62.6366E-03
            1908            2539     55.7113E-03     61.4379E-03
            1909            2524     58.9639E-03     59.4291E-03
            1909            2525     57.6645E-03     57.8529E-03
            1909            2539     55.7113E-03     61.4379E-03
            1909            2540     54.1283E-03     59.7081E-03
            1910            2525     57.6645E-03     57.8529E-03
            1910            2526     56.3590E-03     56.5936E-03
            1910            2540     54.1283E-03     59.7081E-03
            1910            2541     53.2546E-03     58.4234E-03
            1911            2526     56.3590E-03     56.5936E-03
            1911            2527     55.5224E-03     55.7504E-03
            1911            2541     53.2546E-03     58.4234E-03
            1911            2542     52.3321E-03     57.1112E-03
            1912            2527     55.5224E-03     55.7504E-03
            1912            2528     54.6739E-03     54.8900E-03
            1912            2542     52.3321E-03     57.1112E-03
            1912            2543     51.7193E-03     56.0504E-03
            1913            2528     54.6739E-03     54.8900E-03
            1913            2529     54.0003E-03     54.1871E-03
            1913            2543     51.7193E-03     56.0504E-03
            1913            2544     51.1602E-03     55.0136E-03
            1914            2529     54.0003E-03     54.1871E-03
            1914            2530     53.3554E-03     53.5357E-03
            1914            2544     51.1602E-03     55.0136E-03
            1914            2545     50.7671E-03     54.1240E-03
            1915            2530     53.3554E-03     53.5357E-03
            1915            2531     52.8231E-03     53.0159E-03
            1915            2545     50.7671E-03     54.1240E-03
            1915            2546     50.4623E-03     53.3057E-03
            1916            2531     52.8231E-03     53.0159E-03
            1916            2532     52.4910E-03     52.4596E-03
            1916            2546     50.4623E-03     53.3057E-03
            1916            2547     50.2963E-03     52.5987E-03
            1917            2532     52.4910E-03     52.4596E-03
            1917            2533     52.0046E-03     52.3979E-03
            1917            2547     50.2963E-03     52.5987E-03
            1917            2548     50.2694E-03     52.0193E-03
            1918            2533     52.0046E-03     52.3979E-03
            1918            2534     52.0047E-03     52.5069E-03
            1918            2548     50.2694E-03     52.0193E-03
            1918            2549     50.3945E-03     51.5569E-03
            1919            2534     52.0047E-03     52.5069E-03
            1919            2535     54.4426E-03     50.5977E-03
            1919            2549     50.3945E-03     51.5569E-03
            1919            2550     50.7081E-03     50.8902E-03
            1920             165     50.9300E-03     50.4602E-03
            1920             166     56.4545E-03     48.8162E-03
            1920            2535     54.4426E-03     50.5977E-03
            1920            2550     50.7081E-03     50.8902E-03
            1921             245     73.1301E-03     78.8357E-03
            1921             246     68.9093E-03     74.2484E-03
            1921            2536     65.2842E-03     72.4207E-03
            1921            2551     71.0211E-03     71.8087E-03
            1922            2536     65.2842E-03     72.4207E-03
            1922            2537     56.5387E-03     64.2662E-03
            1922            2551     71.0211E-03     71.8087E-03
            1922            2552     74.8830E-03     72.2746E-03
            1923            2537     56.5387E-03     64.2662E-03
            1923            2538     56.3671E-03     62.6366E-03
            1923            2552     74.8830E-03     72.2746E-03
            1923            2553     80.2770E-03     78.4186E-03
            1924            2538     56.3671E-03     62.6366E-03
            1924            2539     55.7113E-03     61.4379E-03
            1924            2553     80.2770E-03     78.4186E-03
            1924            2554     83.4913E-03     82.0692E-03
            1925            2539     55.7113E-03     61.4379E-03
            1925            2540     54.1283E-03     59.7081E-03
            1925            2554     83.4913E-03     82.0692E-03
            1925            2555     83.4424E-03     82.8642E-03
            1926            2540     54.1283E-03     59.7081E-03
            1926            2541     53.2546E-03     58.4234E-03
            1926            2555     83.4424E-03     82.8642E-03
            1926            2556     82.7180E-03     82.4564E-03
            1927            2541     53.2546E-03     58.4234E-03
            1927            2542     52.3321E-03     57.1112E-03
            1927            2556     82.7180E-03     82.4564E-03
            1927            2557     81.0026E-03     81.0141E-03
            1928            2542     52.3321E-03     57.1112E-03
            1928            2543     51.7193E-03     56.0504E-03
            1928            2557     81.0026E-03     81.0141E-03
            1928            2558     79.0731E-03     79.1394E-03
            1929            2543     51.7193E-03     56.0504E-03
            1929            2544     51.1602E-03     55.0136E-03
            1929            2558     79.0731E-03     79.1394E-03
            1929            2559     76.8132E-03     76.9240E-03
            1930            2544     51.1602E-03     55.0136E-03
            1930            2545     50.7671E-03     54.1240E-03
            1930            2559     76.8132E-03     76.9240E-03
            1930            2560     74.6114E-03     74.6855E-03
            1931            2545     50.7671E-03     54.1240E-03
            1931            2546     50.4623E-03     53.3057E-03
            1931            2560     74.6114E-03     74.6855E-03
            1931            2561     72.4408E-03     72.4442E-03
            1932            2546     50.4623E-03     53.3057E-03
            1932            2547     50.2963E-03     52.5987E-03
            1932            2561     72.4408E-03     72.4442E-03
            1932            2562     70.4552E-03     70.6020E-03
            1933            2547     50.2963E-03     52.5987E-03
            1933            2548     50.2694E-03     52.0193E-03
            1933            2562     70.4552E-03     70.6020E-03
            1933            2563     68.8045E-03     68.7942E-03
            1934            2548     50.2694E-03     52.0193E-03
            1934            2549     50.3945E-03     51.5569E-03
            1934            2563     68.8045E-03     68.7942E-03
            1934            2564     67.2859E-03     67.8201E-03
            1935            2549     50.3945E-03     51.5569E-03
            1935            2550     50.7081E-03     50.8902E-03
            1935            2564     67.2859E-03     67.8201E-03
            1935            2565     63.3046E-03     69.3388E-03
            1936             164     60.2674E-03     70.8711E-03
            1936             165     50.9300E-03     50.4602E-03
            1936            2550     50.7081E-03     50.8902E-03
            1936            2565     63.3046E-03     69.3388E-03
            1937             246     68.9093E-03     74.2484E-03
            1937             247     66.3445E-03     60.7812E-03
            1937            2551     71.0211E-03     71.8087E-03
            1937            2566     79.1845E-03     71.2327E-03
            1938            2551     71.0211E-03     71.8087E-03
            1938            2552     74.8830E-03     72.2746E-03
            1938            2566     79.1845E-03     71.2327E-03
            1938            2567     100.794E-03     90.3287E-03
            1939            2552     74.8830E-03     72.2746E-03
            1939            2553     80.2770E-03     78.4186E-03
            1939            2567     100.794E-03     90.3287E-03
            1939            2568     112.885E-03     102.924E-03
            1940            2553     80.2770E-03     78.4186E-03
            1940            2554     83.4913E-03     82.0692E-03
            1940            2568     112.885E-03     102.924E-03
            1940            2569     117.348E-03     108.406E-03
            1941            2554     83.4913E-03     82.0692E-03
            1941            2555     83.4424E-03     82.8642E-03
            1941            2569     117.348E-03     108.406E-03
            1941            2570     117.856E-03     109.945E-03
            1942            2555     83.4424E-03     82.8642E-03
            1942            2556     82.7180E-03     82.4564E-03
            1942            2570     117.856E-03     109.945E-03
            1942            2571     115.837E-03     108.852E-03
            1943            2556     82.7180E-03     82.4564E-03
            1943            2557     81.0026E-03     81.0141E-03
            1943            2571     115.837E-03     108.852E-03
            1943            2572     112.341E-03     106.116E-03
            1944            2557     81.0026E-03     81.0141E-03
            1944            2558     79.0731E-03     79.1394E-03
            1944            2572     112.341E-03     106.116E-03
            1944            2573     107.955E-03     102.441E-03
            1945            2558     79.0731E-03     79.1394E-03
            1945            2559     76.8132E-03     76.9240E-03
            1945            2573     107.955E-03     102.441E-03
            1945            2574     103.175E-03     98.2781E-03
            1946            2559     76.8132E-03     76.9240E-03
            1946            2560     74.6114E-03     74.6855E-03
            1946            2574     103.175E-03     98.2781E-03
            1946            2575     98.3082E-03     94.0471E-03
            1947            2560     74.6114E-03     74.6855E-03
            1947            2561     72.4408E-03     72.4442E-03
            1947            2575     98.3082E-03     94.0471E-03
            1947            2576     93.5882E-03     90.0300E-03
            1948            2561     72.4408E-03     72.4442E-03
            1948            2562     70.4552E-03     70.6020E-03
            1948            2576     93.5882E-03     90.0300E-03
            1948            2577     89.2133E-03     86.5824E-03
            1949            2562     70.4552E-03     70.6020E-03
            1949            2563     68.8045E-03     68.7942E-03
            1949            2577     89.2133E-03     86.5824E-03
            1949            2578     85.1933E-03     83.9099E-03
            1950            2563     68.8045E-03     68.7942E-03
            1950            2564     67.2859E-03     67.8201E-03
            1950            2578     85.1933E-03     83.9099E-03
            1950            2579     81.1838E-03     83.1139E-03
            1951            2564     67.2859E-03     67.8201E-03
            1951            2565     63.3046E-03     69.3388E-03
            1951            2579     81.1838E-03     83.1139E-03
            1951            2580     77.9846E-03     84.2922E-03
            1952             163     76.7937E-03     85.1339E-03
            1952             164     60.2674E-03     70.8711E-03
            1952            2565     63.3046E-03     69.3388E-03
            1952            2580     77.9846E-03     84.2922E-03
            1953             247     66.3445E-03     60.7812E-03
            1953             248     96.3403E-03     94.6367E-03
            1953            2566     79.1845E-03     71.2327E-03
            1953            2581     98.1199E-03     97.7029E-03
            1954            2566     79.1845E-03     71.2327E-03
            1954            2567     100.794E-03     90.3287E-03
            1954            2581     98.1199E-03     97.7029E-03
            1954            2582     109.206E-03     108.189E-03
            1955            2567     100.794E-03     90.3287E-03
            1955            2568     112.885E-03     102.924E-03
            1955            2582     109.206E-03     108.189E-03
            1955            2583     121.568E-03     117.978E-03
            1956            2568     112.885E-03     102.924E-03
            1956            2569     117.348E-03     108.406E-03
            1956            2583     121.568E-03     117.978E-03
            1956            2584     124.953E-03     120.554E-03
            1957            2569     117.348E-03     108.406E-03
            1957            2570     117.856E-03     109.945E-03
            1957            2584     124.953E-03     120.554E-03
            1957            2585     123.863E-03     119.233E-03
            1958            2570     117.856E-03     109.945E-03
            1958            2571     115.837E-03     108.852E-03
            1958            2585     123.863E-03     119.233E-03
            1958            2586     119.926E-03     115.414E-03
            1959            2571     115.837E-03     108.852E-03
            1959            2572     112.341E-03     106.116E-03
            1959            2586     119.926E-03     115.414E-03
            1959            2587     114.512E-03     110.312E-03
            1960            2572     112.341E-03     106.116E-03
            1960            2573     107.955E-03     102.441E-03
            1960            2587     114.512E-03     110.312E-03
            1960            2588     108.431E-03     104.549E-03
            1961            2573     107.955E-03     102.441E-03
            1961            2574     103.175E-03     98.2781E-03
            1961            2588     108.431E-03     104.549E-03
            1961            2589     102.125E-03     98.6704E-03
            1962            2574     103.175E-03     98.2781E-03
            1962            2575     98.3082E-03     94.0471E-03
            1962            2589     102.125E-03     98.6704E-03
            1962            2590     95.9875E-03     92.9868E-03
            1963            2575     98.3082E-03     94.0471E-03
            1963            2576     93.5882E-03     90.0300E-03
            1963            2590     95.9875E-03     92.9868E-03
            1963            2591     90.1642E-03     87.8507E-03
            1964            2576     93.5882E-03     90.0300E-03
            1964            2577     89.2133E-03     86.5824E-03
            1964            2591     90.1642E-03     87.8507E-03
            1964            2592     84.8781E-03     83.4744E-03
            1965            2577     89.2133E-03     86.5824E-03
            1965            2578     85.1933E-03     83.9099E-03
            1965            2592     84.8781E-03     83.4744E-03
            1965            2593     80.0221E-03     80.3913E-03
            1966            2578     85.1933E-03     83.9099E-03
            1966            2579     81.1838E-03     83.1139E-03
            1966            2593     80.0221E-03     80.3913E-03
            1966            2594     76.2125E-03     78.8061E-03
            1967            2579     81.1838E-03     83.1139E-03
            1967            2580     77.9846E-03     84.2922E-03
            1967            2594     76.2125E-03     78.8061E-03
            1967            2595     75.4324E-03     76.6111E-03
            1968             162     76.0866E-03     74.9152E-03
            1968             163     76.7937E-03     85.1339E-03
            1968            2580     77.9846E-03     84.2922E-03
            1968            2595     75.4324E-03     76.6111E-03
            1969             248     96.3403E-03     94.6367E-03
            1969             249     123.930E-03     122.321E-03
            1969            2581     98.1199E-03     97.7029E-03
            1969            2596     121.389E-03     121.718E-03
            1970            2581     98.1199E-03     97.7029E-03
            1970            2582     109.206E-03     108.189E-03
            1970            2596     121.389E-03     121.718E-03
            1970            2597     122.339E-03     124.706E-03
            1971            2582     109.206E-03     108.189E-03
            1971            2583     121.568E-03     117.978E-03
            1971            2597     122.339E-03     124.706E-03
            1971            2598     128.672E-03     129.957E-03
            1972            2583     121.568E-03     117.978E-03
            1972            2584     124.953E-03     120.554E-03
            1972            2598     128.672E-03     129.957E-03
            1972            2599     130.986E-03     130.498E-03
            1973            2584     124.953E-03     120.554E-03
            1973            2585     123.863E-03     119.233E-03
            1973            2599     130.986E-03     130.498E-03
            1973            2600     128.249E-03     126.915E-03
            1974            2585     123.863E-03     119.233E-03
            1974            2586     119.926E-03     115.414E-03
            1974            2600     128.249E-03     126.915E-03
            1974            2601     122.875E-03     121.106E-03
            1975            2586     119.926E-03     115.414E-03
            1975            2587     114.512E-03     110.312E-03
            1975            2601     122.875E-03     121.106E-03
            1975            2602     116.016E-03     114.073E-03
            1976            2587     114.512E-03     110.312E-03
            1976            2588     108.431E-03     104.549E-03
            1976            2602     116.016E-03     114.073E-03
            1976            2603     108.545E-03     106.653E-03
            1977            2588     108.431E-03     104.549E-03
            1977            2589     102.125E-03     98.6704E-03
            1977            2603     108.545E-03     106.653E-03
            1977            2604     101.065E-03     99.2988E-03
            1978            2589     102.125E-03     98.6704E-03
            1978            2590     95.9875E-03     92.9868E-03
            1978            2604     101.065E-03     99.2988E-03
            1978            2605     93.8274E-03     92.3521E-03
            1979            2590     95.9875E-03     92.9868E-03
            1979            2591     90.1642E-03     87.8507E-03
            1979            2605     93.8274E-03     92.3521E-03
            1979            2606     87.1369E-03     86.0810E-03
            1980            2591     90.1642E-03     87.8507E-03
            1980            2592     84.8781E-03     83.4744E-03
            1980            2606     87.1369E-03     86.0810E-03
            1980            2607     81.0991E-03     80.7307E-03
            1981            2592     84.8781E-03     83.4744E-03
            1981            2593     80.0221E-03     80.3913E-03
            1981            2607     81.0991E-03     80.7307E-03
            1981            2608     76.0575E-03     76.5835E-03
            1982            2593     80.0221E-03     80.3913E-03
            1982            2594     76.2125E-03     78.8061E-03
            1982            2608     76.0575E-03     76.5835E-03
            1982            2609     72.9704E-03     72.8564E-03
            1983            2594     76.2125E-03     78.8061E-03
            1983            2595     75.4324E-03     76.6111E-03
            1983            2609     72.9704E-03     72.8564E-03
            1983            2610     71.3706E-03     69.3724E-03
            1984             161     70.6992E-03     67.8716E-03
            1984             162     76.0866E-03     74.9152E-03
            1984            2595     75.4324E-03     76.6111E-03
            1984            2610     71.3706E-03     69.3724E-03
            1985             249     123.930E-03     122.321E-03
            1985             250     148.003E-03     147.561E-03
            1985            2596     121.389E-03     121.718E-03
            1985            2611     143.167E-03     144.236E-03
            1986            2596     121.389E-03     121.718E-03
            1986            2597     122.339E-03     124.706E-03
            1986            2611     143.167E-03     144.236E-03
            1986            2612     137.808E-03     140.901E-03
            1987            2597     122.339E-03     124.706E-03
            1987            2598     128.672E-03     129.957E-03
            1987            2612     137.808E-03     140.901E-03
            1987            2613     137.254E-03     140.559E-03
            1988            2598     128.672E-03     129.957E-03
            1988            2599     130.986E-03     130.498E-03
            1988            2613     137.254E-03     140.559E-03
            1988            2614     135.660E-03     138.095E-03
            1989            2599     130.986E-03     130.498E-03
            1989            2600     128.249E-03     126.915E-03
            1989            2614     135.660E-03     138.095E-03
            1989            2615     131.099E-03     132.530E-03
            1990            2600     128.249E-03     126.915E-03
            1990            2601     122.875E-03     121.106E-03
            1990            2615     131.099E-03     132.530E-03
            1990            2616     124.220E-03     124.958E-03
            1991            2601     122.875E-03     121.106E-03
            1991            2602     116.016E-03     114.073E-03
            1991            2616     124.220E-03     124.958E-03
            1991            2617     116.149E-03     116.509E-03
            1992            2602     116.016E-03     114.073E-03
            1992            2603     108.545E-03     106.653E-03
            1992            2617     116.149E-03     116.509E-03
            1992            2618     107.735E-03     107.867E-03
            1993            2603     108.545E-03     106.653E-03
            1993            2604     101.065E-03     99.2988E-03
            1993            2618     107.735E-03     107.867E-03
            1993            2619     99.3615E-03     99.4196E-03
            1994            2604     101.065E-03     99.2988E-03
            1994            2605     93.8274E-03     92.3521E-03
            1994            2619     99.3615E-03     99.4196E-03
            1994            2620     91.4043E-03     91.4884E-03
            1995            2605     93.8274E-03     92.3521E-03
            1995            2606     87.1369E-03     86.0810E-03
            1995            2620     91.4043E-03     91.4884E-03
            1995            2621     84.0684E-03     84.2315E-03
            1996            2606     87.1369E-03     86.0810E-03
            1996            2607     81.0991E-03     80.7307E-03
            1996            2621     84.0684E-03     84.2315E-03
            1996            2622     77.6086E-03     77.9261E-03
            1997            2607     81.0991E-03     80.7307E-03
            1997            2608     76.0575E-03     76.5835E-03
            1997            2622     77.6086E-03     77.9261E-03
            1997            2623     72.5708E-03     72.3940E-03
            1998            2608     76.0575E-03     76.5835E-03
            1998            2609     72.9704E-03     72.8564E-03
            1998            2623     72.5708E-03     72.3940E-03
            1998            2624     68.9880E-03     67.6668E-03
            1999            2609     72.9704E-03     72.8564E-03
            1999            2610     71.3706E-03     69.3724E-03
            1999            2624     68.9880E-03     67.6668E-03
            1999            2625     67.0360E-03     64.6520E-03
            2000             160     66.5605E-03     63.6977E-03
            2000             161     70.6992E-03     67.8716E-03
            2000            2610     71.3706E-03     69.3724E-03
            2000            2625     67.0360E-03     64.6520E-03
            2001             250     148.003E-03     147.561E-03
            2001             251     170.323E-03     171.624E-03
            2001            2611     143.167E-03     144.236E-03
            2001            2626     163.742E-03     165.533E-03
            2002            2611     143.167E-03     144.236E-03
            2002            2612     137.808E-03     140.901E-03
            2002            2626     163.742E-03     165.533E-03
            2002            2627     153.351E-03     156.513E-03
            2003            2612     137.808E-03     140.901E-03
            2003            2613     137.254E-03     140.559E-03
            2003            2627     153.351E-03     156.513E-03
            2003            2628     146.338E-03     150.609E-03
            2004            2613     137.254E-03     140.559E-03
            2004            2614     135.660E-03     138.095E-03
            2004            2628     146.338E-03     150.609E-03
            2004            2629     139.895E-03     144.064E-03
            2005            2614     135.660E-03     138.095E-03
            2005            2615     131.099E-03     132.530E-03
            2005            2629     139.895E-03     144.064E-03
            2005            2630     132.462E-03     135.950E-03
            2006            2615     131.099E-03     132.530E-03
            2006            2616     124.220E-03     124.958E-03
            2006            2630     132.462E-03     135.950E-03
            2006            2631     123.814E-03     126.758E-03
            2007            2616     124.220E-03     124.958E-03
            2007            2617     116.149E-03     116.509E-03
            2007            2631     123.814E-03     126.758E-03
            2007            2632     114.805E-03     117.267E-03
            2008            2617     116.149E-03     116.509E-03
            2008            2618     107.735E-03     107.867E-03
            2008            2632     114.805E-03     117.267E-03
            2008            2633     105.667E-03     107.767E-03
            2009            2618     107.735E-03     107.867E-03
            2009            2619     99.3615E-03     99.4196E-03
            2009            2633     105.667E-03     107.767E-03
            2009            2634     96.7789E-03     98.6379E-03
            2010            2619     99.3615E-03     99.4196E-03
            2010            2620     91.4043E-03     91.4884E-03
            2010            2634     96.7789E-03     98.6379E-03
            2010            2635     88.3594E-03     89.9964E-03
            2011            2620     91.4043E-03     91.4884E-03
            2011            2621     84.0684E-03     84.2315E-03
            2011            2635     88.3594E-03     89.9964E-03
            2011            2636     80.6396E-03     82.0593E-03
            2012            2621     84.0684E-03     84.2315E-03
            2012            2622     77.6086E-03     77.9261E-03
            2012            2636     80.6396E-03     82.0593E-03
            2012            2637     73.9911E-03     74.8227E-03
            2013            2622     77.6086E-03     77.9261E-03
            2013            2623     72.5708E-03     72.3940E-03
            2013            2637     73.9911E-03     74.8227E-03
            2013            2638     68.5732E-03     68.4613E-03
            2014            2623     72.5708E-03     72.3940E-03
            2014            2624     68.9880E-03     67.6668E-03
            2014            2638     68.5732E-03     68.4613E-03
            2014            2639     64.8053E-03     63.3755E-03
            2015            2624     68.9880E-03     67.6668E-03
            2015            2625     67.0360E-03     64.6520E-03
            2015            2639     64.8053E-03     63.3755E-03
            2015            2640     62.7117E-03     59.5391E-03
            2016             159     62.0156E-03     57.8986E-03
            2016             160     66.5605E-03     63.6977E-03
            2016            2625     67.0360E-03     64.6520E-03
            2016            2640     62.7117E-03     59.5391E-03
            2017             251     170.323E-03     171.624E-03
            2017             252     194.056E-03     193.862E-03
            2017            2626     163.742E-03     165.533E-03
            2017            2641     184.591E-03     186.072E-03
            2018            2626     163.742E-03     165.533E-03
            2018            2627     153.351E-03     156.513E-03
            2018            2641     184.591E-03     186.072E-03
            2018            2642     167.847E-03     171.746E-03
            2019            2627     153.351E-03     156.513E-03
            2019            2628     146.338E-03     150.609E-03
            2019            2642     167.847E-03     171.746E-03
            2019            2643     154.806E-03     159.620E-03
            2020            2628     146.338E-03     150.609E-03
            2020            2629     139.895E-03     144.064E-03
            2020            2643     154.806E-03     159.620E-03
            2020            2644     143.076E-03     148.184E-03
            2021            2629     139.895E-03     144.064E-03
            2021            2630     132.462E-03     135.950E-03
            2021            2644     143.076E-03     148.184E-03
            2021            2645     131.966E-03     137.147E-03
            2022            2630     132.462E-03     135.950E-03
            2022            2631     123.814E-03     126.758E-03
            2022            2645     131.966E-03     137.147E-03
            2022            2646     121.866E-03     126.640E-03
            2023            2631     123.814E-03     126.758E-03
            2023            2632     114.805E-03     117.267E-03
            2023            2646     121.866E-03     126.640E-03
            2023            2647     111.964E-03     116.288E-03
            2024            2632     114.805E-03     117.267E-03
            2024            2633     105.667E-03     107.767E-03
            2024            2647     111.964E-03     116.288E-03
            2024            2648     102.398E-03     106.363E-03
            2025            2633     105.667E-03     107.767E-03
            2025            2634     96.7789E-03     98.6379E-03
            2025            2648     102.398E-03     106.363E-03
            2025            2649     93.2366E-03     96.8235E-03
            2026            2634     96.7789E-03     98.6379E-03
            2026            2635     88.3594E-03     89.9964E-03
            2026            2649     93.2366E-03     96.8235E-03
            2026            2650     84.5785E-03     87.8143E-03
            2027            2635     88.3594E-03     89.9964E-03
            2027            2636     80.6396E-03     82.0593E-03
            2027            2650     84.5785E-03     87.8143E-03
            2027            2651     76.6683E-03     79.3936E-03
            2028            2636     80.6396E-03     82.0593E-03
            2028            2637     73.9911E-03     74.8227E-03
            2028            2651     76.6683E-03     79.3936E-03
            2028            2652     69.7331E-03     71.6575E-03
            2029            2637     73.9911E-03     74.8227E-03
            2029            2638     68.5732E-03     68.4613E-03
            2029            2652     69.7331E-03     71.6575E-03
            2029            2653     64.2090E-03     64.7393E-03
            2030            2638     68.5732E-03     68.4613E-03
            2030            2639     64.8053E-03     63.3755E-03
            2030            2653     64.2090E-03     64.7393E-03
            2030            2654     60.1732E-03     58.9578E-03
            2031            2639     64.8053E-03     63.3755E-03
            2031            2640     62.7117E-03     59.5391E-03
            2031            2654     60.1732E-03     58.9578E-03
            2031            2655     57.8374E-03     55.1357E-03
            2032             158     57.1569E-03     53.8492E-03
            2032             159     62.0156E-03     57.8986E-03
            2032            2640     62.7117E-03     59.5391E-03
            2032            2655     57.8374E-03     55.1357E-03
            2033             252     194.056E-03     193.862E-03
            2033             253     216.026E-03     220.388E-03
            2033            2641     184.591E-03     186.072E-03
            2033            2656     204.370E-03     208.002E-03
            2034            2641     184.591E-03     186.072E-03
            2034            2642     167.847E-03     171.746E-03
            2034            2656     204.370E-03     208.002E-03
            2034            2657     181.938E-03     185.511E-03
            2035            2642     167.847E-03     171.746E-03
            2035            2643     154.806E-03     159.620E-03
            2035            2657     181.938E-03     185.511E-03
            2035            2658     160.770E-03     165.895E-03
            2036            2643     154.806E-03     159.620E-03
            2036            2644     143.076E-03     148.184E-03
            2036            2658     160.770E-03     165.895E-03
            2036            2659     143.112E-03     149.504E-03
            2037            2644     143.076E-03     148.184E-03
            2037            2645     131.966E-03     137.147E-03
            2037            2659     143.112E-03     149.504E-03
            2037            2660     129.885E-03     136.418E-03
            2038            2645     131.966E-03     137.147E-03
            2038            2646     121.866E-03     126.640E-03
            2038            2660     129.885E-03     136.418E-03
            2038            2661     118.385E-03     124.684E-03
            2039            2646     121.866E-03     126.640E-03
            2039            2647     111.964E-03     116.288E-03
            2039            2661     118.385E-03     124.684E-03
            2039            2662     107.925E-03     113.968E-03
            2040            2647     111.964E-03     116.288E-03
            2040            2648     102.398E-03     106.363E-03
            2040            2662     107.925E-03     113.968E-03
            2040            2663     98.1563E-03     103.819E-03
            2041            2648     102.398E-03     106.363E-03
            2041            2649     93.2366E-03     96.8235E-03
            2041            2663     98.1563E-03     103.819E-03
            2041            2664     88.8546E-03     94.1766E-03
            2042            2649     93.2366E-03     96.8235E-03
            2042            2650     84.5785E-03     87.8143E-03
            2042            2664     88.8546E-03     94.1766E-03
            2042            2665     80.1315E-03     85.0096E-03
            2043            2650     84.5785E-03     87.8143E-03
            2043            2651     76.6683E-03     79.3936E-03
            2043            2665     80.1315E-03     85.0096E-03
            2043            2666     72.0615E-03     76.3381E-03
            2044            2651     76.6683E-03     79.3936E-03
            2044            2652     69.7331E-03     71.6575E-03
            2044            2666     72.0615E-03     76.3381E-03
            2044            2667     64.9059E-03     68.3681E-03
            2045            2652     69.7331E-03     71.6575E-03
            2045            2653     64.2090E-03     64.7393E-03
            2045            2667     64.9059E-03     68.3681E-03
            2045            2668     59.0443E-03     61.1661E-03
            2046            2653     64.2090E-03     64.7393E-03
            2046            2654     60.1732E-03     58.9578E-03
            2046            2668     59.0443E-03     61.1661E-03
            2046            2669     55.0384E-03     54.9020E-03
            2047            2654     60.1732E-03     58.9578E-03
            2047            2655     57.8374E-03     55.1357E-03
            2047            2669     55.0384E-03     54.9020E-03
            2047            2670     52.7205E-03     50.2845E-03
            2048             157     51.9014E-03     48.5129E-03
            2048             158     57.1569E-03     53.8492E-03
            2048            2655     57.8374E-03     55.1357E-03
            2048            2670     52.7205E-03     50.2845E-03
            2049             253     216.026E-03     220.388E-03
            2049             254     243.748E-03     242.183E-03
            2049            2656     204.370E-03     208.002E-03
            2049            2671     226.573E-03     227.031E-03
            2050            2656     204.370E-03     208.002E-03
            2050            2657     181.938E-03     185.511E-03
            2050            2671     226.573E-03     227.031E-03
            2050            2672     190.576E-03     194.911E-03
            2051            2657     181.938E-03     185.511E-03
            2051            2658     160.770E-03     165.895E-03
            2051            2672     190.576E-03     194.911E-03
            2051            2673     160.203E-03     167.124E-03
            2052            2658     160.770E-03     165.895E-03
            2052            2659     143.112E-03     149.504E-03
            2052            2673     160.203E-03     167.124E-03
            2052            2674     140.769E-03     148.356E-03
            2053            2659     143.112E-03     149.504E-03
            2053            2660     129.885E-03     136.418E-03
            2053            2674     140.769E-03     148.356E-03
            2053            2675     126.113E-03     133.784E-03
            2054            2660     129.885E-03     136.418E-03
            2054            2661     118.385E-03     124.684E-03
            2054            2675     126.113E-03     133.784E-03
            2054            2676     113.871E-03     121.589E-03
            2055            2661     118.385E-03     124.684E-03
            2055            2662     107.925E-03     113.968E-03
            2055            2676     113.871E-03     121.589E-03
            2055            2677     103.192E-03     110.741E-03
            2056            2662     107.925E-03     113.968E-03
            2056            2663     98.1563E-03     103.819E-03
            2056            2677     103.192E-03     110.741E-03
            2056            2678     93.2613E-03     100.623E-03
            2057            2663     98.1563E-03     103.819E-03
            2057            2664     88.8546E-03     94.1766E-03
            2057            2678     93.2613E-03     100.623E-03
            2057            2679     83.9695E-03     91.0267E-03
            2058            2664     88.8546E-03     94.1766E-03
            2058            2665     80.1315E-03     85.0096E-03
            2058            2679     83.9695E-03     91.0267E-03
            2058            2680     75.1605E-03     81.8080E-03
            2059            2665     80.1315E-03     85.0096E-03
            2059            2666     72.0615E-03     76.3381E-03
            2059            2680     75.1605E-03     81.8080E-03
            2059            2681     66.9779E-03     73.0730E-03
            2060            2666     72.0615E-03     76.3381E-03
            2060            2667     64.9059E-03     68.3681E-03
            2060            2681     66.9779E-03     73.0730E-03
            2060            2682     59.6000E-03     64.8480E-03
            2061            2667     64.9059E-03     68.3681E-03
            2061            2668     59.0443E-03     61.1661E-03
            2061            2682     59.6000E-03     64.8480E-03
            2061            2683     53.2698E-03     57.6060E-03
            2062            2668     59.0443E-03     61.1661E-03
            2062            2669     55.0384E-03     54.9020E-03
            2062            2683     53.2698E-03     57.6060E-03
            2062            2684     48.6929E-03     51.4216E-03
            2063            2669     55.0384E-03     54.9020E-03
            2063            2670     52.7205E-03     50.2845E-03
            2063            2684     48.6929E-03     51.4216E-03
            2063            2685     46.7743E-03     46.2714E-03
            2064             156     46.5365E-03     44.0189E-03
            2064             157     51.9014E-03     48.5129E-03
            2064            2670     52.7205E-03     50.2845E-03
            2064            2685     46.7743E-03     46.2714E-03
            2065             254     243.748E-03     242.183E-03
            2065             255     269.174E-03     274.040E-03
            2065            2671     226.573E-03     227.031E-03
            2065            2686     237.426E-03     244.530E-03
            2066            2671     226.573E-03     227.031E-03
            2066            2672     190.576E-03     194.911E-03
            2066            2686     237.426E-03     244.530E-03
            2066            2687     186.302E-03     195.135E-03
            2067            2672     190.576E-03     194.911E-03
            2067            2673     160.203E-03     167.124E-03
            2067            2687     186.302E-03     195.135E-03
            2067            2688     156.316E-03     164.684E-03
            2068            2673     160.203E-03     167.124E-03
            2068            2674     140.769E-03     148.356E-03
            2068            2688     156.316E-03     164.684E-03
            2068            2689     136.899E-03     145.310E-03
            2069            2674     140.769E-03     148.356E-03
            2069            2675     126.113E-03     133.784E-03
            2069            2689     136.899E-03     145.310E-03
            2069            2690     121.579E-03     130.255E-03
            2070            2675     126.113E-03     133.784E-03
            2070            2676     113.871E-03     121.589E-03
            2070            2690     121.579E-03     130.255E-03
            2070            2691     109.228E-03     118.160E-03
            2071            2676     113.871E-03     121.589E-03
            2071            2677     103.192E-03     110.741E-03
            2071            2691     109.228E-03     118.160E-03
            2071            2692     98.2583E-03     107.320E-03
            2072            2677     103.192E-03     110.741E-03
            2072            2678     93.2613E-03     100.623E-03
            2072            2692     98.2583E-03     107.320E-03
            2072            2693     88.2741E-03     97.3570E-03
            2073            2678     93.2613E-03     100.623E-03
            2073            2679     83.9695E-03     91.0267E-03
            2073            2693     88.2741E-03     97.3570E-03
            2073            2694     78.8530E-03     87.7798E-03
            2074            2679     83.9695E-03     91.0267E-03
            2074            2680     75.1605E-03     81.8080E-03
            2074            2694     78.8530E-03     87.7798E-03
            2074            2695     69.9593E-03     78.5759E-03
            2075            2680     75.1605E-03     81.8080E-03
            2075            2681     66.9779E-03     73.0730E-03
            2075            2695     69.9593E-03     78.5759E-03
            2075            2696     61.5994E-03     69.6817E-03
            2076            2681     66.9779E-03     73.0730E-03
            2076            2682     59.6000E-03     64.8480E-03
            2076            2696     61.5994E-03     69.6817E-03
            2076            2697     53.9553E-03     61.3189E-03
            2077            2682     59.6000E-03     64.8480E-03
            2077            2683     53.2698E-03     57.6060E-03
            2077            2697     53.9553E-03     61.3189E-03
            2077            2698     47.3169E-03     53.6679E-03
            2078            2683     53.2698E-03     57.6060E-03
            2078            2684     48.6929E-03     51.4216E-03
            2078            2698     47.3169E-03     53.6679E-03
            2078            2699     41.9422E-03     47.5670E-03
            2079            2684     48.6929E-03     51.4216E-03
            2079            2685     46.7743E-03     46.2714E-03
            2079            2699     41.9422E-03     47.5670E-03
            2079            2700     38.9339E-03     43.1012E-03
            2080             155     38.2725E-03     41.1479E-03
            2080             156     46.5365E-03     44.0189E-03
            2080            2685     46.7743E-03     46.2714E-03
            2080            2700     38.9339E-03     43.1012E-03
            2081             255     269.174E-03     274.040E-03
            2081             256     250.290E-03     255.010E-03
            2081            2686     237.426E-03     244.530E-03
            2081            2701     236.149E-03     236.592E-03
            2082            2686     237.426E-03     244.530E-03
            2082            2687     186.302E-03     195.135E-03
            2082            2701     236.149E-03     236.592E-03
            2082            2702     214.723E-03     210.452E-03
            2083            2687     186.302E-03     195.135E-03
            2083            2688     156.316E-03     164.684E-03
            2083            2702     214.723E-03     210.452E-03
            2083            2703     200.270E-03     196.596E-03
            2084            2688     156.316E-03     164.684E-03
            2084            2689     136.899E-03     145.310E-03
            2084            2703     200.270E-03     196.596E-03
            2084            2704     186.924E-03     184.751E-03
            2085            2689     136.899E-03     145.310E-03
            2085            2690     121.579E-03     130.255E-03
            2085            2704     186.924E-03     184.751E-03
            2085            2705     174.621E-03     173.785E-03
            2086            2690     121.579E-03     130.255E-03
            2086            2691     109.228E-03     118.160E-03
            2086            2705     174.621E-03     173.785E-03
            2086            2706     162.562E-03     163.022E-03
            2087            2691     109.228E-03     118.160E-03
            2087            2692     98.2583E-03     107.320E-03
            2087            2706     162.562E-03     163.022E-03
            2087            2707     150.693E-03     152.046E-03
            2088            2692     98.2583E-03     107.320E-03
            2088            2693     88.2741E-03     97.3570E-03
            2088            2707     150.693E-03     152.046E-03
            2088            2708     138.913E-03     140.978E-03
            2089            2693     88.2741E-03     97.3570E-03
            2089            2694     78.8530E-03     87.7798E-03
            2089            2708     138.913E-03     140.978E-03
            2089            2709     127.323E-03     129.774E-03
            2090            2694     78.8530E-03     87.7798E-03
            2090            2695     69.9593E-03     78.5759E-03
            2090            2709     127.323E-03     129.774E-03
            2090            2710     116.052E-03     118.736E-03
            2091            2695     69.9593E-03     78.5759E-03
            2091            2696     61.5994E-03     69.6817E-03
            2091            2710     116.052E-03     118.736E-03
            2091            2711     105.357E-03     108.000E-03
            2092            2696     61.5994E-03     69.6817E-03
            2092            2697     53.9553E-03     61.3189E-03
            2092            2711     105.357E-03     108.000E-03
            2092            2712     95.5194E-03     98.0902E-03
            2093            2697     53.9553E-03     61.3189E-03
            2093            2698     47.3169E-03     53.6679E-03
            2093            2712     95.5194E-03     98.0902E-03
            2093            2713     86.8315E-03     89.1850E-03
            2094            2698     47.3169E-03     53.6679E-03
            2094            2699     41.9422E-03     47.5670E-03
            2094            2713     86.8315E-03     89.1850E-03
            2094            2714     79.7570E-03     82.7100E-03
            2095            2699     41.9422E-03     47.5670E-03
            2095            2700     38.9339E-03     43.1012E-03
            2095            2714     79.7570E-03     82.7100E-03
            2095            2715     71.9392E-03     80.4734E-03
            2096             154     67.1782E-03     80.4099E-03
            2096             155     38.2725E-03     41.1479E-03
            2096            2700     38.9339E-03     43.1012E-03
            2096            2715     71.9392E-03     80.4734E-03
            2097             256     250.290E-03     255.010E-03
            2097             257     241.833E-03     230.792E-03
            2097            2701     236.149E-03     236.592E-03
            2097            2716     247.859E-03     237.258E-03
            2098            2701     236.149E-03     236.592E-03
            2098            2702     214.723E-03     210.452E-03
            2098            2716     247.859E-03     237.258E-03
            2098            2717     255.144E-03     244.461E-03
            2099            2702     214.723E-03     210.452E-03
            2099            2703     200.270E-03     196.596E-03
            2099            2717     255.144E-03     244.461E-03
            2099            2718     253.579E-03     242.857E-03
            2100            2703     200.270E-03     196.596E-03
            2100            2704     186.924E-03     184.751E-03
            2100            2718     253.579E-03     242.857E-03
            2100            2719     246.031E-03     236.503E-03
            2101            2704     186.924E-03     184.751E-03
            2101            2705     174.621E-03     173.785E-03
            2101            2719     246.031E-03     236.503E-03
            2101            2720     235.260E-03     227.032E-03
            2102            2705     174.621E-03     173.785E-03
            2102            2706     162.562E-03     163.022E-03
            2102            2720     235.260E-03     227.032E-03
            2102            2721     222.339E-03     215.386E-03
            2103            2706     162.562E-03     163.022E-03
            2103            2707     150.693E-03     152.046E-03
            2103            2721     222.339E-03     215.386E-03
            2103            2722     208.165E-03     202.315E-03
            2104            2707     150.693E-03     152.046E-03
            2104            2708     138.913E-03     140.978E-03
            2104            2722     208.165E-03     202.315E-03
            2104            2723     193.313E-03     188.330E-03
            2105            2708     138.913E-03     140.978E-03
            2105            2709     127.323E-03     129.774E-03
            2105            2723     193.313E-03     188.330E-03
            2105            2724     178.237E-03     174.001E-03
            2106            2709     127.323E-03     129.774E-03
            2106            2710     116.052E-03     118.736E-03
            2106            2724     178.237E-03     174.001E-03
            2106            2725     163.429E-03     159.748E-03
            2107            2710     116.052E-03     118.736E-03
            2107            2711     105.357E-03     108.000E-03
            2107            2725     163.429E-03     159.748E-03
            2107            2726     149.202E-03     146.113E-03
            2108            2711     105.357E-03     108.000E-03
            2108            2712     95.5194E-03     98.0902E-03
            2108            2726     149.202E-03     146.113E-03
            2108            2727     136.080E-03     133.714E-03
            2109            2712     95.5194E-03     98.0902E-03
            2109            2713     86.8315E-03     89.1850E-03
            2109            2727     136.080E-03     133.714E-03
            2109            2728     124.288E-03     123.262E-03
            2110            2713     86.8315E-03     89.1850E-03
            2110            2714     79.7570E-03     82.7100E-03
            2110            2728     124.288E-03     123.262E-03
            2110            2729     113.793E-03     116.696E-03
            2111            2714     79.7570E-03     82.7100E-03
            2111            2715     71.9392E-03     80.4734E-03
            2111            2729     113.793E-03     116.696E-03
            2111            2730     105.825E-03     115.191E-03
            2112             153     102.743E-03     115.591E-03
            2112             154     67.1782E-03     80.4099E-03
            2112            2715     71.9392E-03     80.4734E-03
            2112            2730     105.825E-03     115.191E-03
            2113             257     241.833E-03     230.792E-03
            2113             258     273.128E-03     272.027E-03
            2113            2716     247.859E-03     237.258E-03
            2113            2731     271.591E-03     272.142E-03
            2114            2716     247.859E-03     237.258E-03
            2114            2717     255.144E-03     244.461E-03
            2114            2731     271.591E-03     272.142E-03
            2114            2732     270.474E-03     271.412E-03
            2115            2717     255.144E-03     244.461E-03
            2115            2718     253.579E-03     242.857E-03
            2115            2732     270.474E-03     271.412E-03
            2115            2733     267.544E-03     266.237E-03
            2116            2718     253.579E-03     242.857E-03
            2116            2719     246.031E-03     236.503E-03
            2116            2733     267.544E-03     266.237E-03
            2116            2734     258.471E-03     255.698E-03
            2117            2719     246.031E-03     236.503E-03
            2117            2720     235.260E-03     227.032E-03
            2117            2734     258.471E-03     255.698E-03
            2117            2735     245.449E-03     242.197E-03
            2118            2720     235.260E-03     227.032E-03
            2118            2721     222.339E-03     215.386E-03
            2118            2735     245.449E-03     242.197E-03
            2118            2736     230.066E-03     226.766E-03
            2119            2721     222.339E-03     215.386E-03
            2119            2722     208.165E-03     202.315E-03
            2119            2736     230.066E-03     226.766E-03
            2119            2737     213.296E-03     210.175E-03
            2120            2722     208.165E-03     202.315E-03
            2120            2723     193.313E-03     188.330E-03
            2120            2737     213.296E-03     210.175E-03
            2120            2738     195.870E-03     193.059E-03
            2121            2723     193.313E-03     188.330E-03
            2121            2724     178.237E-03     174.001E-03
            2121            2738     195.870E-03     193.059E-03
            2121            2739     178.339E-03     175.861E-03
            2122            2724     178.237E-03     174.001E-03
            2122            2725     163.429E-03     159.748E-03
            2122            2739     178.339E-03     175.861E-03
            2122            2740     161.100E-03     159.046E-03
            2123            2725     163.429E-03     159.748E-03
            2123            2726     149.202E-03     146.113E-03
            2123            2740     161.100E-03     159.046E-03
            2123            2741     144.539E-03     143.125E-03
            2124            2726     149.202E-03     146.113E-03
            2124            2727     136.080E-03     133.714E-03
            2124            2741     144.539E-03     143.125E-03
            2124            2742     129.079E-03     128.688E-03
            2125            2727     136.080E-03     133.714E-03
            2125            2728     124.288E-03     123.262E-03
            2125            2742     129.079E-03     128.688E-03
            2125            2743     114.968E-03     116.796E-03
            2126            2728     124.288E-03     123.262E-03
            2126            2729     113.793E-03     116.696E-03
            2126            2743     114.968E-03     116.796E-03
            2126            2744     103.358E-03     108.688E-03
            2127            2729     113.793E-03     116.696E-03
            2127            2730     105.825E-03     115.191E-03
            2127            2744     103.358E-03     108.688E-03
            2127            2745     97.9810E-03     101.914E-03
            2128             152     97.4514E-03     98.1508E-03
            2128             153     102.743E-03     115.591E-03
            2128            2730     105.825E-03     115.191E-03
            2128            2745     97.9810E-03     101.914E-03
            2129             258     273.128E-03     272.027E-03
            2129             259     303.375E-03     303.100E-03
            2129            2731     271.591E-03     272.142E-03
            2129            2746     297.292E-03     299.682E-03
            2130            2731     271.591E-03     272.142E-03
            2130            2732     270.474E-03     271.412E-03
            2130            2746     297.292E-03     299.682E-03
            2130            2747     288.075E-03     293.193E-03
            2131            2732     270.474E-03     271.412E-03
            2131            2733     267.544E-03     266.237E-03
            2131            2747     288.075E-03     293.193E-03
            2131            2748     280.345E-03     284.628E-03
            2132            2733     267.544E-03     266.237E-03
            2132            2734     258.471E-03     255.698E-03
            2132            2748     280.345E-03     284.628E-03
            2132            2749     268.896E-03     271.540E-03
            2133            2734     258.471E-03     255.698E-03
            2133            2735     245.449E-03     242.197E-03
            2133            2749     268.896E-03     271.540E-03
            2133            2750     253.841E-03     255.098E-03
            2134            2735     245.449E-03     242.197E-03
            2134            2736     230.066E-03     226.766E-03
            2134            2750     253.841E-03     255.098E-03
            2134            2751     236.334E-03     236.758E-03
            2135            2736     230.066E-03     226.766E-03
            2135            2737     213.296E-03     210.175E-03
            2135            2751     236.334E-03     236.758E-03
            2135            2752     217.461E-03     217.433E-03
            2136            2737     213.296E-03     210.175E-03
            2136            2738     195.870E-03     193.059E-03
            2136            2752     217.461E-03     217.433E-03
            2136            2753     198.000E-03     197.745E-03
            2137            2738     195.870E-03     193.059E-03
            2137            2739     178.339E-03     175.861E-03
            2137            2753     198.000E-03     197.745E-03
            2137            2754     178.440E-03     178.201E-03
            2138            2739     178.339E-03     175.861E-03
            2138            2740     161.100E-03     159.046E-03
            2138            2754     178.440E-03     178.201E-03
            2138            2755     159.225E-03     159.203E-03
            2139            2740     161.100E-03     159.046E-03
            2139            2741     144.539E-03     143.125E-03
            2139            2755     159.225E-03     159.203E-03
            2139            2756     140.714E-03     141.210E-03
            2140            2741     144.539E-03     143.125E-03
            2140            2742     129.079E-03     128.688E-03
            2140            2756     140.714E-03     141.210E-03
            2140            2757     123.299E-03     124.766E-03
            2141            2742     129.079E-03     128.688E-03
            2141            2743     114.968E-03     116.796E-03
            2141            2757     123.299E-03     124.766E-03
            2141            2758     107.713E-03     110.809E-03
            2142            2743     114.968E-03     116.796E-03
            2142            2744     103.358E-03     108.688E-03
            2142            2758     107.713E-03     110.809E-03
            2142            2759     96.0406E-03     98.8914E-03
            2143            2744     103.358E-03     108.688E-03
            2143            2745     97.9810E-03     101.914E-03
            2143            2759     96.0406E-03     98.8914E-03
            2143            2760     88.9717E-03     89.1577E-03
            2144             151     86.4404E-03     85.1445E-03
            2144             152     97.4514E-03     98.1508E-03
            2144            2745     97.9810E-03     101.914E-03
            2144            2760     88.9717E-03     89.1577E-03
            2145             259     303.375E-03     303.100E-03
            2145             260     328.058E-03     328.844E-03
            2145            2746     297.292E-03     299.682E-03
            2145            2761     320.542E-03     323.107E-03
            2146            2746     297.292E-03     299.682E-03
            2146            2747     288.075E-03     293.193E-03
            2146            2761     320.542E-03     323.107E-03
            2146            2762     306.199E-03     311.896E-03
            2147            2747     288.075E-03     293.193E-03
            2147            2748     280.345E-03     284.628E-03
            2147            2762     306.199E-03     311.896E-03
            2147            2763     292.575E-03     299.413E-03
            2148            2748     280.345E-03     284.628E-03
            2148            2749     268.896E-03     271.540E-03
            2148            2763     292.575E-03     299.413E-03
            2148            2764     277.685E-03     283.609E-03
            2149            2749     268.896E-03     271.540E-03
            2149            2750     253.841E-03     255.098E-03
            2149            2764     277.685E-03     283.609E-03
            2149            2765     260.059E-03     264.799E-03
            2150            2750     253.841E-03     255.098E-03
            2150            2751     236.334E-03     236.758E-03
            2150            2765     260.059E-03     264.799E-03
            2150            2766     240.520E-03     244.191E-03
            2151            2751     236.334E-03     236.758E-03
            2151            2752     217.461E-03     217.433E-03
            2151            2766     240.520E-03     244.191E-03
            2151            2767     219.905E-03     222.748E-03
            2152            2752     217.461E-03     217.433E-03
            2152            2753     198.000E-03     197.745E-03
            2152            2767     219.905E-03     222.748E-03
            2152            2768     198.799E-03     201.145E-03
            2153            2753     198.000E-03     197.745E-03
            2153            2754     178.440E-03     178.201E-03
            2153            2768     198.799E-03     201.145E-03
            2153            2769     177.759E-03     179.821E-03
            2154            2754     178.440E-03     178.201E-03
            2154            2755     159.225E-03     159.203E-03
            2154            2769     177.759E-03     179.821E-03
            2154            2770     157.056E-03     159.124E-03
            2155            2755     159.225E-03     159.203E-03
            2155            2756     140.714E-03     141.210E-03
            2155            2770     157.056E-03     159.124E-03
            2155            2771     137.082E-03     139.387E-03
            2156            2756     140.714E-03     141.210E-03
            2156            2757     123.299E-03     124.766E-03
            2156            2771     137.082E-03     139.387E-03
            2156            2772     118.261E-03     121.138E-03
            2157            2757     123.299E-03     124.766E-03
            2157            2758     107.713E-03     110.809E-03
            2157            2772     118.261E-03     121.138E-03
            2157            2773     101.707E-03     104.603E-03
            2158            2758     107.713E-03     110.809E-03
            2158            2759     96.0406E-03     98.8914E-03
            2158            2773     101.707E-03     104.603E-03
            2158            2774     88.5218E-03     90.2215E-03
            2159            2759     96.0406E-03     98.8914E-03
            2159            2760     88.9717E-03     89.1577E-03
            2159            2774     88.5218E-03     90.2215E-03
            2159            2775     80.2924E-03     80.1069E-03
            2160             150     77.7062E-03     76.4748E-03
            2160             151     86.4404E-03     85.1445E-03
            2160            2760     88.9717E-03     89.1577E-03
            2160            2775     80.2924E-03     80.1069E-03
            2161             260     328.058E-03     328.844E-03
            2161             261     352.293E-03     353.036E-03
            2161            2761     320.542E-03     323.107E-03
            2161            2776     341.936E-03     344.915E-03
            2162            2761     320.542E-03     323.107E-03
            2162            2762     306.199E-03     311.896E-03
            2162            2776     341.936E-03     344.915E-03
            2162            2777     322.606E-03     328.762E-03
            2163            2762     306.199E-03     311.896E-03
            2163            2763     292.575E-03     299.413E-03
            2163            2777     322.606E-03     328.762E-03
            2163            2778     304.280E-03     311.779E-03
            2164            2763     292.575E-03     299.413E-03
            2164            2764     277.685E-03     283.609E-03
            2164            2778     304.280E-03     311.779E-03
            2164            2779     284.758E-03     292.568E-03
            2165            2764     277.685E-03     283.609E-03
            2165            2765     260.059E-03     264.799E-03
            2165            2779     284.758E-03     292.568E-03
            2165            2780     264.120E-03     271.234E-03
            2166            2765     260.059E-03     264.799E-03
            2166            2766     240.520E-03     244.191E-03
            2166            2780     264.120E-03     271.234E-03
            2166            2781     242.456E-03     248.586E-03
            2167            2766     240.520E-03     244.191E-03
            2167            2767     219.905E-03     222.748E-03
            2167            2781     242.456E-03     248.586E-03
            2167            2782     220.196E-03     225.520E-03
            2168            2767     219.905E-03     222.748E-03
            2168            2768     198.799E-03     201.145E-03
            2168            2782     220.196E-03     225.520E-03
            2168            2783     197.939E-03     202.574E-03
            2169            2768     198.799E-03     201.145E-03
            2169            2769     177.759E-03     179.821E-03
            2169            2783     197.939E-03     202.574E-03
            2169            2784     175.804E-03     180.011E-03
            2170            2769     177.759E-03     179.821E-03
            2170            2770     157.056E-03     159.124E-03
            2170            2784     175.804E-03     180.011E-03
            2170            2785     154.135E-03     158.098E-03
            2171            2770     157.056E-03     159.124E-03
            2171            2771     137.082E-03     139.387E-03
            2171            2785     154.135E-03     158.098E-03
            2171            2786     133.144E-03     137.067E-03
            2172            2771     137.082E-03     139.387E-03
            2172            2772     118.261E-03     121.138E-03
            2172            2786     133.144E-03     137.067E-03
            2172            2787     113.403E-03     117.179E-03
            2173            2772     118.261E-03     121.138E-03
            2173            2773     101.707E-03     104.603E-03
            2173            2787     113.403E-03     117.179E-03
            2173            2788     95.6432E-03     98.7466E-03
            2174            2773     101.707E-03     104.603E-03
            2174            2774     88.5218E-03     90.2215E-03
            2174            2788     95.6432E-03     98.7466E-03
            2174            2789     81.2033E-03     82.9475E-03
            2175            2774     88.5218E-03     90.2215E-03
            2175            2775     80.2924E-03     80.1069E-03
            2175            2789     81.2033E-03     82.9475E-03
            2175            2790     71.8849E-03     70.9469E-03
            2176             149     68.7181E-03     65.9803E-03
            2176             150     77.7062E-03     76.4748E-03
            2176            2775     80.2924E-03     80.1069E-03
            2176            2790     71.8849E-03     70.9469E-03
            2177             261     352.293E-03     353.036E-03
            2177             262     373.488E-03     376.846E-03
            2177            2776     341.936E-03     344.915E-03
            2177            2791     361.802E-03     365.713E-03
            2178            2776     341.936E-03     344.915E-03
            2178            2777     322.606E-03     328.762E-03
            2178            2791     361.802E-03     365.713E-03
            2178            2792     338.166E-03     344.102E-03
            2179            2777     322.606E-03     328.762E-03
            2179            2778     304.280E-03     311.779E-03
            2179            2792     338.166E-03     344.102E-03
            2179            2793     313.985E-03     322.165E-03
            2180            2778     304.280E-03     311.779E-03
            2180            2779     284.758E-03     292.568E-03
            2180            2793     313.985E-03     322.165E-03
            2180            2794     289.935E-03     298.749E-03
            2181            2779     284.758E-03     292.568E-03
            2181            2780     264.120E-03     271.234E-03
            2181            2794     289.935E-03     298.749E-03
            2181            2795     265.834E-03     274.359E-03
            2182            2780     264.120E-03     271.234E-03
            2182            2781     242.456E-03     248.586E-03
            2182            2795     265.834E-03     274.359E-03
            2182            2796     241.838E-03     249.829E-03
            2183            2781     242.456E-03     248.586E-03
            2183            2782     220.196E-03     225.520E-03
            2183            2796     241.838E-03     249.829E-03
            2183            2797     218.406E-03     225.613E-03
            2184            2782     220.196E-03     225.520E-03
            2184            2783     197.939E-03     202.574E-03
            2184            2797     218.406E-03     225.613E-03
            2184            2798     195.218E-03     201.771E-03
            2185            2783     197.939E-03     202.574E-03
            2185            2784     175.804E-03     180.011E-03
            2185            2798     195.218E-03     201.771E-03
            2185            2799     172.481E-03     178.514E-03
            2186            2784     175.804E-03     180.011E-03
            2186            2785     154.135E-03     158.098E-03
            2186            2799     172.481E-03     178.514E-03
            2186            2800     150.201E-03     155.848E-03
            2187            2785     154.135E-03     158.098E-03
            2187            2786     133.144E-03     137.067E-03
            2187            2800     150.201E-03     155.848E-03
            2187            2801     128.636E-03     133.930E-03
            2188            2786     133.144E-03     137.067E-03
            2188            2787     113.403E-03     117.179E-03
            2188            2801     128.636E-03     133.930E-03
            2188            2802     108.130E-03     112.872E-03
            2189            2787     113.403E-03     117.179E-03
            2189            2788     95.6432E-03     98.7466E-03
            2189            2802     108.130E-03     112.872E-03
            2189            2803     89.4065E-03     93.2307E-03
            2190            2788     95.6432E-03     98.7466E-03
            2190            2789     81.2033E-03     82.9475E-03
            2190            2803     89.4065E-03     93.2307E-03
            2190            2804     73.7783E-03     75.7030E-03
            2191            2789     81.2033E-03     82.9475E-03
            2191            2790     71.8849E-03     70.9469E-03
            2191            2804     73.7783E-03     75.7030E-03
            2191            2805     63.2180E-03     62.5562E-03
            2192             148     59.5167E-03     57.5719E-03
            2192             149     68.7181E-03     65.9803E-03
            2192            2790     71.8849E-03     70.9469E-03
            2192            2805     63.2180E-03     62.5562E-03
            2193             262     373.488E-03     376.846E-03
            2193             263     397.149E-03     397.599E-03
            2193            2791     361.802E-03     365.713E-03
            2193            2806     381.986E-03     385.193E-03
            2194            2791     361.802E-03     365.713E-03
            2194            2792     338.166E-03     344.102E-03
            2194            2806     381.986E-03     385.193E-03
            2194            2807     351.498E-03     358.531E-03
            2195            2792     338.166E-03     344.102E-03
            2195            2793     313.985E-03     322.165E-03
            2195            2807     351.498E-03     358.531E-03
            2195            2808     321.567E-03     330.009E-03
            2196            2793     313.985E-03     322.165E-03
            2196            2794     289.935E-03     298.749E-03
            2196            2808     321.567E-03     330.009E-03
            2196            2809     292.168E-03     301.400E-03
            2197            2794     289.935E-03     298.749E-03
            2197            2795     265.834E-03     274.359E-03
            2197            2809     292.168E-03     301.400E-03
            2197            2810     264.389E-03     273.988E-03
            2198            2795     265.834E-03     274.359E-03
            2198            2796     241.838E-03     249.829E-03
            2198            2810     264.389E-03     273.988E-03
            2198            2811     238.936E-03     248.086E-03
            2199            2796     241.838E-03     249.829E-03
            2199            2797     218.406E-03     225.613E-03
            2199            2811     238.936E-03     248.086E-03
            2199            2812     214.473E-03     223.067E-03
            2200            2797     218.406E-03     225.613E-03
            2200            2798     195.218E-03     201.771E-03
            2200            2812     214.473E-03     223.067E-03
            2200            2813     190.866E-03     198.928E-03
            2201            2798     195.218E-03     201.771E-03
            2201            2799     172.481E-03     178.514E-03
            2201            2813     190.866E-03     198.928E-03
            2201            2814     167.819E-03     175.377E-03
            2202            2799     172.481E-03     178.514E-03
            2202            2800     150.201E-03     155.848E-03
            2202            2814     167.819E-03     175.377E-03
            2202            2815     145.295E-03     152.433E-03
            2203            2800     150.201E-03     155.848E-03
            2203            2801     128.636E-03     133.930E-03
            2203            2815     145.295E-03     152.433E-03
            2203            2816     123.387E-03     130.018E-03
            2204            2801     128.636E-03     133.930E-03
            2204            2802     108.130E-03     112.872E-03
            2204            2816     123.387E-03     130.018E-03
            2204            2817     102.367E-03     108.325E-03
            2205            2802     108.130E-03     112.872E-03
            2205            2803     89.4065E-03     93.2307E-03
            2205            2817     102.367E-03     108.325E-03
            2205            2818     82.8513E-03     87.5836E-03
            2206            2803     89.4065E-03     93.2307E-03
            2206            2804     73.7783E-03     75.7030E-03
            2206            2818     82.8513E-03     87.5836E-03
            2206            2819     65.9952E-03     68.8497E-03
            2207            2804     73.7783E-03     75.7030E-03
            2207            2805     63.2180E-03     62.5562E-03
            2207            2819     65.9952E-03     68.8497E-03
            2207            2820     54.3209E-03     54.0501E-03
            2208             147     50.1891E-03     47.8661E-03
            2208             148     59.5167E-03     57.5719E-03
            2208            2805     63.2180E-03     62.5562E-03
            2208            2820     54.3209E-03     54.0501E-03
            2209             263     397.149E-03     397.599E-03
            2209             264     417.677E-03     424.506E-03
            2209            2806     381.986E-03     385.193E-03
            2209            2821     400.158E-03     406.352E-03
            2210            2806     381.986E-03     385.193E-03
            2210            2807     351.498E-03     358.531E-03
            2210            2821     400.158E-03     406.352E-03
            2210            2822     363.535E-03     369.907E-03
            2211            2807     351.498E-03     358.531E-03
            2211            2808     321.567E-03     330.009E-03
            2211            2822     363.535E-03     369.907E-03
            2211            2823     324.691E-03     333.061E-03
            2212            2808     321.567E-03     330.009E-03
            2212            2809     292.168E-03     301.400E-03
            2212            2823     324.691E-03     333.061E-03
            2212            2824     289.496E-03     299.399E-03
            2213            2809     292.168E-03     301.400E-03
            2213            2810     264.389E-03     273.988E-03
            2213            2824     289.496E-03     299.399E-03
            2213            2825     260.275E-03     270.280E-03
            2214            2810     264.389E-03     273.988E-03
            2214            2811     238.936E-03     248.086E-03
            2214            2825     260.275E-03     270.280E-03
            2214            2826     233.678E-03     243.478E-03
            2215            2811     238.936E-03     248.086E-03
            2215            2812     214.473E-03     223.067E-03
            2215            2826     233.678E-03     243.478E-03
            2215            2827     208.888E-03     218.443E-03
            2216            2812     214.473E-03     223.067E-03
            2216            2813     190.866E-03     198.928E-03
            2216            2827     208.888E-03     218.443E-03
            2216            2828     185.187E-03     194.381E-03
            2217            2813     190.866E-03     198.928E-03
            2217            2814     167.819E-03     175.377E-03
            2217            2828     185.187E-03     194.381E-03
            2217            2829     162.123E-03     171.032E-03
            2218            2814     167.819E-03     175.377E-03
            2218            2815     145.295E-03     152.433E-03
            2218            2829     162.123E-03     171.032E-03
            2218            2830     139.600E-03     148.135E-03
            2219            2815     145.295E-03     152.433E-03
            2219            2816     123.387E-03     130.018E-03
            2219            2830     139.600E-03     148.135E-03
            2219            2831     117.551E-03     125.655E-03
            2220            2816     123.387E-03     130.018E-03
            2220            2817     102.367E-03     108.325E-03
            2220            2831     117.551E-03     125.655E-03
            2220            2832     96.1956E-03     103.572E-03
            2221            2817     102.367E-03     108.325E-03
            2221            2818     82.8513E-03     87.5836E-03
            2221            2832     96.1956E-03     103.572E-03
            2221            2833     75.9549E-03     82.1792E-03
            2222            2818     82.8513E-03     87.5836E-03
            2222            2819     65.9952E-03     68.8497E-03
            2222            2833     75.9549E-03     82.1792E-03
            2222            2834     57.9930E-03     62.1315E-03
            2223            2819     65.9952E-03     68.8497E-03
            2223            2820     54.3209E-03     54.0501E-03
            2223            2834     57.9930E-03     62.1315E-03
            2223            2835     44.8110E-03     45.6108E-03
            2224             146     39.8572E-03     38.7127E-03
            2224             147     50.1891E-03     47.8661E-03
            2224            2820     54.3209E-03     54.0501E-03
            2224            2835     44.8110E-03     45.6108E-03
            2225             264     417.677E-03     424.506E-03
            2225             265     444.588E-03     442.729E-03
            2225            2821     400.158E-03     406.352E-03
            2225            2836     420.618E-03     421.787E-03
            2226            2821     400.158E-03     406.352E-03
            2226            2822     363.535E-03     369.907E-03
            2226            2836     420.618E-03     421.787E-03
            2226            2837     367.814E-03     374.195E-03
            2227            2822     363.535E-03     369.907E-03
            2227            2823     324.691E-03     333.061E-03
            2227            2837     367.814E-03     374.195E-03
            2227            2838     319.069E-03     328.274E-03
            2228            2823     324.691E-03     333.061E-03
            2228            2824     289.496E-03     299.399E-03
            2228            2838     319.069E-03     328.274E-03
            2228            2839     283.488E-03     293.142E-03
            2229            2824     289.496E-03     299.399E-03
            2229            2825     260.275E-03     270.280E-03
            2229            2839     283.488E-03     293.142E-03
            2229            2840     253.593E-03     263.371E-03
            2230            2825     260.275E-03     270.280E-03
            2230            2826     233.678E-03     243.478E-03
            2230            2840     253.593E-03     263.371E-03
            2230            2841     226.886E-03     236.917E-03
            2231            2826     233.678E-03     243.478E-03
            2231            2827     208.888E-03     218.443E-03
            2231            2841     226.886E-03     236.917E-03
            2231            2842     202.277E-03     212.375E-03
            2232            2827     208.888E-03     218.443E-03
            2232            2828     185.187E-03     194.381E-03
            2232            2842     202.277E-03     212.375E-03
            2232            2843     178.699E-03     188.895E-03
            2233            2828     185.187E-03     194.381E-03
            2233            2829     162.123E-03     171.032E-03
            2233            2843     178.699E-03     188.895E-03
            2233            2844     155.886E-03     166.042E-03
            2234            2829     162.123E-03     171.032E-03
            2234            2830     139.600E-03     148.135E-03
            2234            2844     155.886E-03     166.042E-03
            2234            2845     133.474E-03     143.521E-03
            2235            2830     139.600E-03     148.135E-03
            2235            2831     117.551E-03     125.655E-03
            2235            2845     133.474E-03     143.521E-03
            2235            2846     111.478E-03     121.211E-03
            2236            2831     117.551E-03     125.655E-03
            2236            2832     96.1956E-03     103.572E-03
            2236            2846     111.478E-03     121.211E-03
            2236            2847     89.8876E-03     99.0950E-03
            2237            2832     96.1956E-03     103.572E-03
            2237            2833     75.9549E-03     82.1792E-03
            2237            2847     89.8876E-03     99.0950E-03
            2237            2848     69.0541E-03     77.2698E-03
            2238            2833     75.9549E-03     82.1792E-03
            2238            2834     57.9930E-03     62.1315E-03
            2238            2848     69.0541E-03     77.2698E-03
            2238            2849     49.8020E-03     56.1495E-03
            2239            2834     57.9930E-03     62.1315E-03
            2239            2835     44.8110E-03     45.6108E-03
            2239            2849     49.8020E-03     56.1495E-03
            2239            2850     34.8877E-03     37.4323E-03
            2240             145     29.0390E-03     28.9638E-03
            2240             146     39.8572E-03     38.7127E-03
            2240            2835     44.8110E-03     45.6108E-03
            2240            2850     34.8877E-03     37.4323E-03
            2241             265     444.588E-03     442.729E-03
            2241             266     468.171E-03     470.789E-03
            2241            2836     420.618E-03     421.787E-03
            2241            2851     426.272E-03     432.260E-03
            2242            2836     420.618E-03     421.787E-03
            2242            2837     367.814E-03     374.195E-03
            2242            2851     426.272E-03     432.260E-03
            2242            2852     355.967E-03     364.505E-03
            2243            2837     367.814E-03     374.195E-03
            2243            2838     319.069E-03     328.274E-03
            2243            2852     355.967E-03     364.505E-03
            2243            2853     309.620E-03     317.373E-03
            2244            2838     319.069E-03     328.274E-03
            2244            2839     283.488E-03     293.142E-03
            2244            2853     309.620E-03     317.373E-03
            2244            2854     275.407E-03     283.524E-03
            2245            2839     283.488E-03     293.142E-03
            2245            2840     253.593E-03     263.371E-03
            2245            2854     275.407E-03     283.524E-03
            2245            2855     245.796E-03     254.730E-03
            2246            2840     253.593E-03     263.371E-03
            2246            2841     226.886E-03     236.917E-03
            2246            2855     245.796E-03     254.730E-03
            2246            2856     219.738E-03     229.553E-03
            2247            2841     226.886E-03     236.917E-03
            2247            2842     202.277E-03     212.375E-03
            2247            2856     219.738E-03     229.553E-03
            2247            2857     195.331E-03     205.923E-03
            2248            2842     202.277E-03     212.375E-03
            2248            2843     178.699E-03     188.895E-03
            2248            2857     195.331E-03     205.923E-03
            2248            2858     172.159E-03     183.360E-03
            2249            2843     178.699E-03     188.895E-03
            2249            2844     155.886E-03     166.042E-03
            2249            2858     172.159E-03     183.360E-03
            2249            2859     149.589E-03     161.177E-03
            2250            2844     155.886E-03     166.042E-03
            2250            2845     133.474E-03     143.521E-03
            2250            2859     149.589E-03     161.177E-03
            2250            2860     127.477E-03     139.233E-03
            2251            2845     133.474E-03     143.521E-03
            2251            2846     111.478E-03     121.211E-03
            2251            2860     127.477E-03     139.233E-03
            2251            2861     105.612E-03     117.308E-03
            2252            2846     111.478E-03     121.211E-03
            2252            2847     89.8876E-03     99.0950E-03
            2252            2861     105.612E-03     117.308E-03
            2252            2862     84.0345E-03     95.3902E-03
            2253            2847     89.8876E-03     99.0950E-03
            2253            2848     69.0541E-03     77.2698E-03
            2253            2862     84.0345E-03     95.3902E-03
            2253            2863     62.7588E-03     73.4768E-03
            2254            2848     69.0541E-03     77.2698E-03
            2254            2849     49.8020E-03     56.1495E-03
            2254            2863     62.7588E-03     73.4768E-03
            2254            2864     42.2699E-03     51.7382E-03
            2255            2849     49.8020E-03     56.1495E-03
            2255            2850     34.8877E-03     37.4323E-03
            2255            2864     42.2699E-03     51.7382E-03
            2255            2865     24.5636E-03     30.8403E-03
            2256             144     16.8072E-03     20.7821E-03
            2256             145     29.0390E-03     28.9638E-03
            2256            2850     34.8877E-03     37.4323E-03
            2256            2865     24.5636E-03     30.8403E-03
            2257             266     468.171E-03     470.789E-03
            2257             267     445.170E-03     452.845E-03
            2257            2851     426.272E-03     432.260E-03
            2257            2866     419.840E-03     420.542E-03
            2258            2851     426.272E-03     432.260E-03
            2258            2852     355.967E-03     364.505E-03
            2258            2866     419.840E-03     420.542E-03
            2258            2867     380.748E-03     373.535E-03
            2259            2852     355.967E-03     364.505E-03
            2259            2853     309.620E-03     317.373E-03
            2259            2867     380.748E-03     373.535E-03
            2259            2868     352.262E-03     346.015E-03
            2260            2853     309.620E-03     317.373E-03
            2260            2854     275.407E-03     283.524E-03
            2260            2868     352.262E-03     346.015E-03
            2260            2869     325.343E-03     321.514E-03
            2261            2854     275.407E-03     283.524E-03
            2261            2855     245.796E-03     254.730E-03
            2261            2869     325.343E-03     321.514E-03
            2261            2870     300.291E-03     298.643E-03
            2262            2855     245.796E-03     254.730E-03
            2262            2856     219.738E-03     229.553E-03
            2262            2870     300.291E-03     298.643E-03
            2262            2871     275.609E-03     276.217E-03
            2263            2856     219.738E-03     229.553E-03
            2263            2857     195.331E-03     205.923E-03
            2263            2871     275.609E-03     276.217E-03
            2263            2872     251.494E-03     253.689E-03
            2264            2857     195.331E-03     205.923E-03
            2264            2858     172.159E-03     183.360E-03
            2264            2872     251.494E-03     253.689E-03
            2264            2873     227.547E-03     231.104E-03
            2265            2858     172.159E-03     183.360E-03
            2265            2859     149.589E-03     161.177E-03
            2265            2873     227.547E-03     231.104E-03
            2265            2874     203.978E-03     208.349E-03
            2266            2859     149.589E-03     161.177E-03
            2266            2860     127.477E-03     139.233E-03
            2266            2874     203.978E-03     208.349E-03
            2266            2875     180.777E-03     185.710E-03
            2267            2860     127.477E-03     139.233E-03
            2267            2861     105.612E-03     117.308E-03
            2267            2875     180.777E-03     185.710E-03
            2267            2876     158.259E-03     163.332E-03
            2268            2861     105.612E-03     117.308E-03
            2268            2862     84.0345E-03     95.3902E-03
            2268            2876     158.259E-03     163.332E-03
            2268            2877     136.649E-03     141.732E-03
            2269            2862     84.0345E-03     95.3902E-03
            2269            2863     62.7588E-03     73.4768E-03
            2269            2877     136.649E-03     141.732E-03
            2269            2878     116.372E-03     121.215E-03
            2270            2863     62.7588E-03     73.4768E-03
            2270            2864     42.2699E-03     51.7382E-03
            2270            2878     116.372E-03     121.215E-03
            2270            2879     97.8274E-03     103.286E-03
            2271            2864     42.2699E-03     51.7382E-03
            2271            2865     24.5636E-03     30.8403E-03
            2271            2879     97.8274E-03     103.286E-03
            2271            2880     79.4079E-03     90.1840E-03
            2272             143     69.6388E-03     84.8972E-03
            2272             144     16.8072E-03     20.7821E-03
            2272            2865     24.5636E-03     30.8403E-03
            2272            2880     79.4079E-03     90.1840E-03
            2273             267     445.170E-03     452.845E-03
            2273             268     439.345E-03     425.773E-03
            2273            2866     419.840E-03     420.542E-03
            2273            2881     436.115E-03     424.215E-03
            2274            2866     419.840E-03     420.542E-03
            2274            2867     380.748E-03     373.535E-03
            2274            2881     436.115E-03     424.215E-03
            2274            2882     425.996E-03     414.941E-03
            2275            2867     380.748E-03     373.535E-03
            2275            2868     352.262E-03     346.015E-03
            2275            2882     425.996E-03     414.941E-03
            2275            2883     409.840E-03     398.498E-03
            2276            2868     352.262E-03     346.015E-03
            2276            2869     325.343E-03     321.514E-03
            2276            2883     409.840E-03     398.498E-03
            2276            2884     389.366E-03     379.550E-03
            2277            2869     325.343E-03     321.514E-03
            2277            2870     300.291E-03     298.643E-03
            2277            2884     389.366E-03     379.550E-03
            2277            2885     366.100E-03     358.060E-03
            2278            2870     300.291E-03     298.643E-03
            2278            2871     275.609E-03     276.217E-03
            2278            2885     366.100E-03     358.060E-03
            2278            2886     341.103E-03     334.823E-03
            2279            2871     275.609E-03     276.217E-03
            2279            2872     251.494E-03     253.689E-03
            2279            2886     341.103E-03     334.823E-03
            2279            2887     315.010E-03     310.244E-03
            2280            2872     251.494E-03     253.689E-03
            2280            2873     227.547E-03     231.104E-03
            2280            2887     315.010E-03     310.244E-03
            2280            2888     288.426E-03     284.811E-03
            2281            2873     227.547E-03     231.104E-03
            2281            2874     203.978E-03     208.349E-03
            2281            2888     288.426E-03     284.811E-03
            2281            2889     261.764E-03     259.058E-03
            2282            2874     203.978E-03     208.349E-03
            2282            2875     180.777E-03     185.710E-03
            2282            2889     261.764E-03     259.058E-03
            2282            2890     235.616E-03     233.464E-03
            2283            2875     180.777E-03     185.710E-03
            2283            2876     158.259E-03     163.332E-03
            2283            2890     235.616E-03     233.464E-03
            2283            2891     210.383E-03     208.690E-03
            2284            2876     158.259E-03     163.332E-03
            2284            2877     136.649E-03     141.732E-03
            2284            2891     210.383E-03     208.690E-03
            2284            2892     186.856E-03     185.615E-03
            2285            2877     136.649E-03     141.732E-03
            2285            2878     116.372E-03     121.215E-03
            2285            2892     186.856E-03     185.615E-03
            2285            2893     165.552E-03     165.408E-03
            2286            2878     116.372E-03     121.215E-03
            2286            2879     97.8274E-03     103.286E-03
            2286            2893     165.552E-03     165.408E-03
            2286            2894     146.910E-03     151.053E-03
            2287            2879     97.8274E-03     103.286E-03
            2287            2880     79.4079E-03     90.1840E-03
            2287            2894     146.910E-03     151.053E-03
            2287            2895     132.913E-03     145.263E-03
            2288             142     127.461E-03     144.585E-03
            2288             143     69.6388E-03     84.8972E-03
            2288            2880     79.4079E-03     90.1840E-03
            2288            2895     132.913E-03     145.263E-03
            2289             268     439.345E-03     425.773E-03
            2289             269     472.124E-03     470.720E-03
            2289            2881     436.115E-03     424.215E-03
            2289            2896     464.680E-03     466.003E-03
            2290            2881     436.115E-03     424.215E-03
            2290            2882     425.996E-03     414.941E-03
            2290            2896     464.680E-03     466.003E-03
            2290            2897     448.805E-03     451.956E-03
            2291            2882     425.996E-03     414.941E-03
            2291            2883     409.840E-03     398.498E-03
            2291            2897     448.805E-03     451.956E-03
            2291            2898     429.850E-03     430.981E-03
            2292            2883     409.840E-03     398.498E-03
            2292            2884     389.366E-03     379.550E-03
            2292            2898     429.850E-03     430.981E-03
            2292            2899     406.882E-03     406.190E-03
            2293            2884     389.366E-03     379.550E-03
            2293            2885     366.100E-03     358.060E-03
            2293            2899     406.882E-03     406.190E-03
            2293            2900     380.565E-03     379.230E-03
            2294            2885     366.100E-03     358.060E-03
            2294            2886     341.103E-03     334.823E-03
            2294            2900     380.565E-03     379.230E-03
            2294            2901     352.282E-03     350.862E-03
            2295            2886     341.103E-03     334.823E-03
            2295            2887     315.010E-03     310.244E-03
            2295            2901     352.282E-03     350.862E-03
            2295            2902     322.834E-03     321.583E-03
            2296            2887     315.010E-03     310.244E-03
            2296            2888     288.426E-03     284.811E-03
            2296            2902     322.834E-03     321.583E-03
            2296            2903     292.856E-03     291.942E-03
            2297            2888     288.426E-03     284.811E-03
            2297            2889     261.764E-03     259.058E-03
            2297            2903     292.856E-03     291.942E-03
            2297            2904     262.904E-03     262.303E-03
            2298            2889     261.764E-03     259.058E-03
            2298            2890     235.616E-03     233.464E-03
            2298            2904     262.904E-03     262.303E-03
            2298            2905     233.372E-03     233.162E-03
            2299            2890     235.616E-03     233.464E-03
            2299            2891     210.383E-03     208.690E-03
            2299            2905     233.372E-03     233.162E-03
            2299            2906     204.741E-03     205.085E-03
            2300            2891     210.383E-03     208.690E-03
            2300            2892     186.856E-03     185.615E-03
            2300            2906     204.741E-03     205.085E-03
            2300            2907     177.571E-03     178.908E-03
            2301            2892     186.856E-03     185.615E-03
            2301            2893     165.552E-03     165.408E-03
            2301            2907     177.571E-03     178.908E-03
            2301            2908     152.425E-03     156.162E-03
            2302            2893     165.552E-03     165.408E-03
            2302            2894     146.910E-03     151.053E-03
            2302            2908     152.425E-03     156.162E-03
            2302            2909     131.060E-03     139.277E-03
            2303            2894     146.910E-03     151.053E-03
            2303            2895     132.913E-03     145.263E-03
            2303            2909     131.060E-03     139.277E-03
            2303            2910     119.379E-03     126.095E-03
            2304             141     116.979E-03     119.569E-03
            2304             142     127.461E-03     144.585E-03
            2304            2895     132.913E-03     145.263E-03
            2304            2910     119.379E-03     126.095E-03
            2305             269     472.124E-03     470.720E-03
            2305             270     503.338E-03     505.208E-03
            2305            2896     464.680E-03     466.003E-03
            2305            2911     491.947E-03     496.895E-03
            2306            2896     464.680E-03     466.003E-03
            2306            2897     448.805E-03     451.956E-03
            2306            2911     491.947E-03     496.895E-03
            2306            2912     470.478E-03     478.786E-03
            2307            2897     448.805E-03     451.956E-03
            2307            2898     429.850E-03     430.981E-03
            2307            2912     470.478E-03     478.786E-03
            2307            2913     447.940E-03     455.822E-03
            2308            2898     429.850E-03     430.981E-03
            2308            2899     406.882E-03     406.190E-03
            2308            2913     447.940E-03     455.822E-03
            2308            2914     421.632E-03     427.898E-03
            2309            2899     406.882E-03     406.190E-03
            2309            2900     380.565E-03     379.230E-03
            2309            2914     421.632E-03     427.898E-03
            2309            2915     392.694E-03     397.185E-03
            2310            2900     380.565E-03     379.230E-03
            2310            2901     352.282E-03     350.862E-03
            2310            2915     392.694E-03     397.185E-03
            2310            2916     361.565E-03     364.928E-03
            2311            2901     352.282E-03     350.862E-03
            2311            2902     322.834E-03     321.583E-03
            2311            2916     361.565E-03     364.928E-03
            2311            2917     329.364E-03     332.032E-03
            2312            2902     322.834E-03     321.583E-03
            2312            2903     292.856E-03     291.942E-03
            2312            2917     329.364E-03     332.032E-03
            2312            2918     296.709E-03     298.955E-03
            2313            2903     292.856E-03     291.942E-03
            2313            2904     262.904E-03     262.303E-03
            2313            2918     296.709E-03     298.955E-03
            2313            2919     264.050E-03     266.197E-03
            2314            2904     262.904E-03     262.303E-03
            2314            2905     233.372E-03     233.162E-03
            2314            2919     264.050E-03     266.197E-03
            2314            2920     231.815E-03     234.089E-03
            2315            2905     233.372E-03     233.162E-03
            2315            2906     204.741E-03     205.085E-03
            2315            2920     231.815E-03     234.089E-03
            2315            2921     200.356E-03     203.172E-03
            2316            2906     204.741E-03     205.085E-03
            2316            2907     177.571E-03     178.908E-03
            2316            2921     200.356E-03     203.172E-03
            2316            2922     170.182E-03     174.077E-03
            2317            2907     177.571E-03     178.908E-03
            2317            2908     152.425E-03     156.162E-03
            2317            2922     170.182E-03     174.077E-03
            2317            2923     142.219E-03     148.273E-03
            2318            2908     152.425E-03     156.162E-03
            2318            2909     131.060E-03     139.277E-03
            2318            2923     142.219E-03     148.273E-03
            2318            2924     119.670E-03     125.821E-03
            2319            2909     131.060E-03     139.277E-03
            2319            2910     119.379E-03     126.095E-03
            2319            2924     119.670E-03     125.821E-03
            2319            2925     105.086E-03     107.544E-03
            2320             140     99.8728E-03     99.9254E-03
            2320             141     116.979E-03     119.569E-03
            2320            2910     119.379E-03     126.095E-03
            2320            2925     105.086E-03     107.544E-03
            2321             270     503.338E-03     505.208E-03
            2321             271     529.178E-03     530.529E-03
            2321            2911     491.947E-03     496.895E-03
            2321            2926     516.573E-03     520.887E-03
            2322            2911     491.947E-03     496.895E-03
            2322            2912     470.478E-03     478.786E-03
            2322            2926     516.573E-03     520.887E-03
            2322            2927     490.481E-03     499.701E-03
            2323            2912     470.478E-03     478.786E-03
            2323            2913     447.940E-03     455.822E-03
            2323            2927     490.481E-03     499.701E-03
            2323            2928     463.115E-03     474.111E-03
            2324            2913     447.940E-03     455.822E-03
            2324            2914     421.632E-03     427.898E-03
            2324            2928     463.115E-03     474.111E-03
            2324            2929     433.702E-03     443.852E-03
            2325            2914     421.632E-03     427.898E-03
            2325            2915     392.694E-03     397.185E-03
            2325            2929     433.702E-03     443.852E-03
            2325            2930     401.576E-03     410.394E-03
            2326            2915     392.694E-03     397.185E-03
            2326            2916     361.565E-03     364.928E-03
            2326            2930     401.576E-03     410.394E-03
            2326            2931     368.005E-03     375.357E-03
            2327            2916     361.565E-03     364.928E-03
            2327            2917     329.364E-03     332.032E-03
            2327            2931     368.005E-03     375.357E-03
            2327            2932     333.542E-03     339.711E-03
            2328            2917     329.364E-03     332.032E-03
            2328            2918     296.709E-03     298.955E-03
            2328            2932     333.542E-03     339.711E-03
            2328            2933     298.779E-03     304.168E-03
            2329            2918     296.709E-03     298.955E-03
            2329            2919     264.050E-03     266.197E-03
            2329            2933     298.779E-03     304.168E-03
            2329            2934     264.165E-03     269.066E-03
            2330            2919     264.050E-03     266.197E-03
            2330            2920     231.815E-03     234.089E-03
            2330            2934     264.165E-03     269.066E-03
            2330            2935     229.905E-03     234.753E-03
            2331            2920     231.815E-03     234.089E-03
            2331            2921     200.356E-03     203.172E-03
            2331            2935     229.905E-03     234.753E-03
            2331            2936     196.375E-03     201.502E-03
            2332            2921     200.356E-03     203.172E-03
            2332            2922     170.182E-03     174.077E-03
            2332            2936     196.375E-03     201.502E-03
            2332            2937     163.964E-03     169.972E-03
            2333            2922     170.182E-03     174.077E-03
            2333            2923     142.219E-03     148.273E-03
            2333            2937     163.964E-03     169.972E-03
            2333            2938     134.101E-03     140.548E-03
            2334            2923     142.219E-03     148.273E-03
            2334            2924     119.670E-03     125.821E-03
            2334            2938     134.101E-03     140.548E-03
            2334            2939     108.759E-03     113.959E-03
            2335            2924     119.670E-03     125.821E-03
            2335            2925     105.086E-03     107.544E-03
            2335            2939     108.759E-03     113.959E-03
            2335            2940     91.6407E-03     94.0450E-03
            2336             139     85.8098E-03     86.4723E-03
            2336             140     99.8728E-03     99.9254E-03
            2336            2925     105.086E-03     107.544E-03
            2336            2940     91.6407E-03     94.0450E-03
            2337             271     529.178E-03     530.529E-03
            2337             272     553.615E-03     555.675E-03
            2337            2926     516.573E-03     520.887E-03
            2337            2941     538.290E-03     543.308E-03
            2338            2926     516.573E-03     520.887E-03
            2338            2927     490.481E-03     499.701E-03
            2338            2941     538.290E-03     543.308E-03
            2338            2942     507.776E-03     517.268E-03
            2339            2927     490.481E-03     499.701E-03
            2339            2928     463.115E-03     474.111E-03
            2339            2942     507.776E-03     517.268E-03
            2339            2943     476.150E-03     487.894E-03
            2340            2928     463.115E-03     474.111E-03
            2340            2929     433.702E-03     443.852E-03
            2340            2943     476.150E-03     487.894E-03
            2340            2944     442.296E-03     454.660E-03
            2341            2929     433.702E-03     443.852E-03
            2341            2930     401.576E-03     410.394E-03
            2341            2944     442.296E-03     454.660E-03
            2341            2945     407.135E-03     418.648E-03
            2342            2930     401.576E-03     410.394E-03
            2342            2931     368.005E-03     375.357E-03
            2342            2945     407.135E-03     418.648E-03
            2342            2946     371.095E-03     381.300E-03
            2343            2931     368.005E-03     375.357E-03
            2343            2932     333.542E-03     339.711E-03
            2343            2946     371.095E-03     381.300E-03
            2343            2947     334.742E-03     343.754E-03
            2344            2932     333.542E-03     339.711E-03
            2344            2933     298.779E-03     304.168E-03
            2344            2947     334.742E-03     343.754E-03
            2344            2948     298.557E-03     306.552E-03
            2345            2933     298.779E-03     304.168E-03
            2345            2934     264.165E-03     269.066E-03
            2345            2948     298.557E-03     306.552E-03
            2345            2949     262.575E-03     269.937E-03
            2346            2934     264.165E-03     269.066E-03
            2346            2935     229.905E-03     234.753E-03
            2346            2949     262.575E-03     269.937E-03
            2346            2950     227.052E-03     234.100E-03
            2347            2935     229.905E-03     234.753E-03
            2347            2936     196.375E-03     201.502E-03
            2347            2950     227.052E-03     234.100E-03
            2347            2951     192.104E-03     199.251E-03
            2348            2936     196.375E-03     201.502E-03
            2348            2937     163.964E-03     169.972E-03
            2348            2951     192.104E-03     199.251E-03
            2348            2952     158.292E-03     165.602E-03
            2349            2937     163.964E-03     169.972E-03
            2349            2938     134.101E-03     140.548E-03
            2349            2952     158.292E-03     165.602E-03
            2349            2953     126.444E-03     133.453E-03
            2350            2938     134.101E-03     140.548E-03
            2350            2939     108.759E-03     113.959E-03
            2350            2953     126.444E-03     133.453E-03
            2350            2954     98.6086E-03     104.384E-03
            2351            2939     108.759E-03     113.959E-03
            2351            2940     91.6407E-03     94.0450E-03
            2351            2954     98.6086E-03     104.384E-03
            2351            2955     78.9356E-03     80.7649E-03
            2352             138     71.7828E-03     70.6137E-03
            2352             139     85.8098E-03     86.4723E-03
            2352            2940     91.6407E-03     94.0450E-03
            2352            2955     78.9356E-03     80.7649E-03
            2353             272     553.615E-03     555.675E-03
            2353             273     574.838E-03     579.506E-03
            2353            2941     538.290E-03     543.308E-03
            2353            2956     558.144E-03     564.089E-03
            2354            2941     538.290E-03     543.308E-03
            2354            2942     507.776E-03     517.268E-03
            2354            2956     558.144E-03     564.089E-03
            2354            2957     523.300E-03     532.573E-03
            2355            2942     507.776E-03     517.268E-03
            2355            2943     476.150E-03     487.894E-03
            2355            2957     523.300E-03     532.573E-03
            2355            2958     485.855E-03     498.283E-03
            2356            2943     476.150E-03     487.894E-03
            2356            2944     442.296E-03     454.660E-03
            2356            2958     485.855E-03     498.283E-03
            2356            2959     447.498E-03     460.872E-03
            2357            2944     442.296E-03     454.660E-03
            2357            2945     407.135E-03     418.648E-03
            2357            2959     447.498E-03     460.872E-03
            2357            2960     408.864E-03     421.803E-03
            2358            2945     407.135E-03     418.648E-03
            2358            2946     371.095E-03     381.300E-03
            2358            2960     408.864E-03     421.803E-03
            2358            2961     370.465E-03     382.561E-03
            2359            2946     371.095E-03     381.300E-03
            2359            2947     334.742E-03     343.754E-03
            2359            2961     370.465E-03     382.561E-03
            2359            2962     332.910E-03     343.847E-03
            2360            2947     334.742E-03     343.754E-03
            2360            2948     298.557E-03     306.552E-03
            2360            2962     332.910E-03     343.847E-03
            2360            2963     295.753E-03     305.726E-03
            2361            2948     298.557E-03     306.552E-03
            2361            2949     262.575E-03     269.937E-03
            2361            2963     295.753E-03     305.726E-03
            2361            2964     259.119E-03     268.382E-03
            2362            2949     262.575E-03     269.937E-03
            2362            2950     227.052E-03     234.100E-03
            2362            2964     259.119E-03     268.382E-03
            2362            2965     222.906E-03     231.735E-03
            2363            2950     227.052E-03     234.100E-03
            2363            2951     192.104E-03     199.251E-03
            2363            2965     222.906E-03     231.735E-03
            2363            2966     187.255E-03     195.892E-03
            2364            2951     192.104E-03     199.251E-03
            2364            2952     158.292E-03     165.602E-03
            2364            2966     187.255E-03     195.892E-03
            2364            2967     152.416E-03     160.859E-03
            2365            2952     158.292E-03     165.602E-03
            2365            2953     126.444E-03     133.453E-03
            2365            2967     152.416E-03     160.859E-03
            2365            2968     119.087E-03     127.088E-03
            2366            2953     126.444E-03     133.453E-03
            2366            2954     98.6086E-03     104.384E-03
            2366            2968     119.087E-03     127.088E-03
            2366            2969     88.9310E-03     95.3055E-03
            2367            2954     98.6086E-03     104.384E-03
            2367            2955     78.9356E-03     80.7649E-03
            2367            2969     88.9310E-03     95.3055E-03
            2367            2970     66.2625E-03     69.0339E-03
            2368             137     57.6164E-03     58.0676E-03
            2368             138     71.7828E-03     70.6137E-03
            2368            2955     78.9356E-03     80.7649E-03
            2368            2970     66.2625E-03     69.0339E-03
            2369             273     574.838E-03     579.506E-03
            2369             274     598.356E-03     599.347E-03
            2369            2956     558.144E-03     564.089E-03
            2369            2971     577.979E-03     582.919E-03
            2370            2956     558.144E-03     564.089E-03
            2370            2957     523.300E-03     532.573E-03
            2370            2971     577.979E-03     582.919E-03
            2370            2972     535.674E-03     546.231E-03
            2371            2957     523.300E-03     532.573E-03
            2371            2958     485.855E-03     498.283E-03
            2371            2972     535.674E-03     546.231E-03
            2371            2973     492.119E-03     504.728E-03
            2372            2958     485.855E-03     498.283E-03
            2372            2959     447.498E-03     460.872E-03
            2372            2973     492.119E-03     504.728E-03
            2372            2974     448.256E-03     461.733E-03
            2373            2959     447.498E-03     460.872E-03
            2373            2960     408.864E-03     421.803E-03
            2373            2974     448.256E-03     461.733E-03
            2373            2975     405.946E-03     419.673E-03
            2374            2960     408.864E-03     421.803E-03
            2374            2961     370.465E-03     382.561E-03
            2374            2975     405.946E-03     419.673E-03
            2374            2976     366.388E-03     379.306E-03
            2375            2961     370.465E-03     382.561E-03
            2375            2962     332.910E-03     343.847E-03
            2375            2976     366.388E-03     379.306E-03
            2375            2977     327.985E-03     340.033E-03
            2376            2962     332.910E-03     343.847E-03
            2376            2963     295.753E-03     305.726E-03
            2376            2977     327.985E-03     340.033E-03
            2376            2978     290.610E-03     301.885E-03
            2377            2963     295.753E-03     305.726E-03
            2377            2964     259.119E-03     268.382E-03
            2377            2978     290.610E-03     301.885E-03
            2377            2979     253.835E-03     264.454E-03
            2378            2964     259.119E-03     268.382E-03
            2378            2965     222.906E-03     231.735E-03
            2378            2979     253.835E-03     264.454E-03
            2378            2980     217.522E-03     227.725E-03
            2379            2965     222.906E-03     231.735E-03
            2379            2966     187.255E-03     195.892E-03
            2379            2980     217.522E-03     227.725E-03
            2379            2981     181.664E-03     191.479E-03
            2380            2966     187.255E-03     195.892E-03
            2380            2967     152.416E-03     160.859E-03
            2380            2981     181.664E-03     191.479E-03
            2380            2982     146.322E-03     155.869E-03
            2381            2967     152.416E-03     160.859E-03
            2381            2968     119.087E-03     127.088E-03
            2381            2982     146.322E-03     155.869E-03
            2381            2983     111.937E-03     120.963E-03
            2382            2968     119.087E-03     127.088E-03
            2382            2969     88.9310E-03     95.3055E-03
            2382            2983     111.937E-03     120.963E-03
            2382            2984     79.7126E-03     87.4139E-03
            2383            2969     88.9310E-03     95.3055E-03
            2383            2970     66.2625E-03     69.0339E-03
            2383            2984     79.7126E-03     87.4139E-03
            2383            2985     53.8892E-03     57.6913E-03
            2384             136     43.3863E-03     44.2047E-03
            2384             137     57.6164E-03     58.0676E-03
            2384            2970     66.2625E-03     69.0339E-03
            2384            2985     53.8892E-03     57.6913E-03
            2385             274     598.356E-03     599.347E-03
            2385             275     617.782E-03     626.695E-03
            2385            2971     577.979E-03     582.919E-03
            2385            2986     594.744E-03     603.466E-03
            2386            2971     577.979E-03     582.919E-03
            2386            2972     535.674E-03     546.231E-03
            2386            2986     594.744E-03     603.466E-03
            2386            2987     545.788E-03     555.350E-03
            2387            2972     535.674E-03     546.231E-03
            2387            2973     492.119E-03     504.728E-03
            2387            2987     545.788E-03     555.350E-03
            2387            2988     492.336E-03     504.310E-03
            2388            2973     492.119E-03     504.728E-03
            2388            2974     448.256E-03     461.733E-03
            2388            2988     492.336E-03     504.310E-03
            2388            2989     442.342E-03     455.901E-03
            2389            2974     448.256E-03     461.733E-03
            2389            2975     405.946E-03     419.673E-03
            2389            2989     442.342E-03     455.901E-03
            2389            2990     399.184E-03     412.510E-03
            2390            2975     405.946E-03     419.673E-03
            2390            2976     366.388E-03     379.306E-03
            2390            2990     399.184E-03     412.510E-03
            2390            2991     358.859E-03     371.740E-03
            2391            2976     366.388E-03     379.306E-03
            2391            2977     327.985E-03     340.033E-03
            2391            2991     358.859E-03     371.740E-03
            2391            2992     320.602E-03     333.056E-03
            2392            2977     327.985E-03     340.033E-03
            2392            2978     290.610E-03     301.885E-03
            2392            2992     320.602E-03     333.056E-03
            2392            2993     283.530E-03     295.494E-03
            2393            2978     290.610E-03     301.885E-03
            2393            2979     253.835E-03     264.454E-03
            2393            2993     283.530E-03     295.494E-03
            2393            2994     247.115E-03     258.763E-03
            2394            2979     253.835E-03     264.454E-03
            2394            2980     217.522E-03     227.725E-03
            2394            2994     247.115E-03     258.763E-03
            2394            2995     211.188E-03     222.471E-03
            2395            2980     217.522E-03     227.725E-03
            2395            2981     181.664E-03     191.479E-03
            2395            2995     211.188E-03     222.471E-03
            2395            2996     175.546E-03     186.553E-03
            2396            2981     181.664E-03     191.479E-03
            2396            2982     146.322E-03     155.869E-03
            2396            2996     175.546E-03     186.553E-03
            2396            2997     140.281E-03     150.803E-03
            2397            2982     146.322E-03     155.869E-03
            2397            2983     111.937E-03     120.963E-03
            2397            2997     140.281E-03     150.803E-03
            2397            2998     105.370E-03     115.469E-03
            2398            2983     111.937E-03     120.963E-03
            2398            2984     79.7126E-03     87.4139E-03
            2398            2998     105.370E-03     115.469E-03
            2398            2999     71.4272E-03     80.9405E-03
            2399            2984     79.7126E-03     87.4139E-03
            2399            2985     53.8892E-03     57.6913E-03
            2399            2999     71.4272E-03     80.9405E-03
            2399            3000     41.8482E-03     48.0829E-03
            2400             135     28.8793E-03     32.3235E-03
            2400             136     43.3863E-03     44.2047E-03
            2400            2985     53.8892E-03     57.6913E-03
            2400            3000     41.8482E-03     48.0829E-03
            2401             275     617.782E-03     626.695E-03
            2401             276     643.796E-03     641.496E-03
            2401            2986     594.744E-03     603.466E-03
            2401            3001     613.643E-03     615.507E-03
            2402            2986     594.744E-03     603.466E-03
            2402            2987     545.788E-03     555.350E-03
            2402            3001     613.643E-03     615.507E-03
            2402            3002     545.995E-03     554.562E-03
            2403            2987     545.788E-03     555.350E-03
            2403            2988     492.336E-03     504.310E-03
            2403            3002     545.995E-03     554.562E-03
            2403            3003     481.459E-03     493.093E-03
            2404            2988     492.336E-03     504.310E-03
            2404            2989     442.342E-03     455.901E-03
            2404            3003     481.459E-03     493.093E-03
            2404            3004     432.022E-03     443.809E-03
            2405            2989     442.342E-03     455.901E-03
            2405            2990     399.184E-03     412.510E-03
            2405            3004     432.022E-03     443.809E-03
            2405            3005     388.775E-03     400.587E-03
            2406            2990     399.184E-03     412.510E-03
            2406            2991     358.859E-03     371.740E-03
            2406            3005     388.775E-03     400.587E-03
            2406            3006     349.044E-03     361.143E-03
            2407            2991     358.859E-03     371.740E-03
            2407            2992     320.602E-03     333.056E-03
            2407            3006     349.044E-03     361.143E-03
            2407            3007     311.588E-03     323.815E-03
            2408            2992     320.602E-03     333.056E-03
            2408            2993     283.530E-03     295.494E-03
            2408            3007     311.588E-03     323.815E-03
            2408            3008     275.219E-03     287.660E-03
            2409            2993     283.530E-03     295.494E-03
            2409            2994     247.115E-03     258.763E-03
            2409            3008     275.219E-03     287.660E-03
            2409            3009     239.642E-03     252.130E-03
            2410            2994     247.115E-03     258.763E-03
            2410            2995     211.188E-03     222.471E-03
            2410            3009     239.642E-03     252.130E-03
            2410            3010     204.409E-03     216.890E-03
            2411            2995     211.188E-03     222.471E-03
            2411            2996     175.546E-03     186.553E-03
            2411            3010     204.409E-03     216.890E-03
            2411            3011     169.489E-03     181.725E-03
            2412            2996     175.546E-03     186.553E-03
            2412            2997     140.281E-03     150.803E-03
            2412            3011     169.489E-03     181.725E-03
            2412            3012     134.713E-03     146.577E-03
            2413            2997     140.281E-03     150.803E-03
            2413            2998     105.370E-03     115.469E-03
            2413            3012     134.713E-03     146.577E-03
            2413            3013     100.214E-03     111.301E-03
            2414            2998     105.370E-03     115.469E-03
            2414            2999     71.4272E-03     80.9405E-03
            2414            3013     100.214E-03     111.301E-03
            2414            3014     65.7542E-03     76.3658E-03
            2415            2999     71.4272E-03     80.9405E-03
            2415            3000     41.8482E-03     48.0829E-03
            2415            3014     65.7542E-03     76.3658E-03
            2415            3015     32.1990E-03     42.8962E-03
            2416             134     15.9106E-03     26.5980E-03
            2416             135     28.8793E-03     32.3235E-03
            2416            3000     41.8482E-03     48.0829E-03
            2416            3015     32.1990E-03     42.8962E-03
            2417             276     643.796E-03     641.496E-03
            2417             277     665.713E-03     665.891E-03
            2417            3001     613.643E-03     615.507E-03
            2417            3016     614.389E-03     619.085E-03
            2418            3001     613.643E-03     615.507E-03
            2418            3002     545.995E-03     554.562E-03
            2418            3016     614.389E-03     619.085E-03
            2418            3017     526.652E-03     534.748E-03
            2419            3002     545.995E-03     554.562E-03
            2419            3003     481.459E-03     493.093E-03
            2419            3017     526.652E-03     534.748E-03
            2419            3018     465.922E-03     473.038E-03
            2420            3003     481.459E-03     493.093E-03
            2420            3004     432.022E-03     443.809E-03
            2420            3018     465.922E-03     473.038E-03
            2420            3019     418.850E-03     426.741E-03
            2421            3004     432.022E-03     443.809E-03
            2421            3005     388.775E-03     400.587E-03
            2421            3019     418.850E-03     426.741E-03
            2421            3020     376.706E-03     385.964E-03
            2422            3005     388.775E-03     400.587E-03
            2422            3006     349.044E-03     361.143E-03
            2422            3020     376.706E-03     385.964E-03
            2422            3021     338.456E-03     349.157E-03
            2423            3006     349.044E-03     361.143E-03
            2423            3007     311.588E-03     323.815E-03
            2423            3021     338.456E-03     349.157E-03
            2423            3022     301.930E-03     313.906E-03
            2424            3007     311.588E-03     323.815E-03
            2424            3008     275.219E-03     287.660E-03
            2424            3022     301.930E-03     313.906E-03
            2424            3023     266.732E-03     279.703E-03
            2425            3008     275.219E-03     287.660E-03
            2425            3009     239.642E-03     252.130E-03
            2425            3023     266.732E-03     279.703E-03
            2425            3024     232.144E-03     245.786E-03
            2426            3009     239.642E-03     252.130E-03
            2426            3010     204.409E-03     216.890E-03
            2426            3024     232.144E-03     245.786E-03
            2426            3025     198.044E-03     212.001E-03
            2427            3010     204.409E-03     216.890E-03
            2427            3011     169.489E-03     181.725E-03
            2427            3025     198.044E-03     212.001E-03
            2427            3026     164.180E-03     178.105E-03
            2428            3011     169.489E-03     181.725E-03
            2428            3012     134.713E-03     146.577E-03
            2428            3026     164.180E-03     178.105E-03
            2428            3027     130.619E-03     144.071E-03
            2429            3012     134.713E-03     146.577E-03
            2429            3013     100.214E-03     111.301E-03
            2429            3027     130.619E-03     144.071E-03
            2429            3028     97.3040E-03     109.855E-03
            2430            3013     100.214E-03     111.301E-03
            2430            3014     65.7542E-03     76.3658E-03
            2430            3028     97.3040E-03     109.855E-03
            2430            3029     64.6990E-03     75.5544E-03
            2431            3014     65.7542E-03     76.3658E-03
            2431            3015     32.1990E-03     42.8962E-03
            2431            3029     64.6990E-03     75.5544E-03
            2431            3030     32.5182E-03     43.3976E-03
            2432             133     16.3705E-03     28.4331E-03
            2432             134     15.9106E-03     26.5980E-03
            2432            3015     32.1990E-03     42.8962E-03
            2432            3030     32.5182E-03     43.3976E-03
            2433             277     665.713E-03     665.891E-03
            2433             278     638.999E-03     649.766E-03
            2433            3016     614.389E-03     619.085E-03
            2433            3031     603.017E-03     604.089E-03
            2434            3016     614.389E-03     619.085E-03
            2434            3017     526.652E-03     534.748E-03
            2434            3031     603.017E-03     604.089E-03
            2434            3032     547.397E-03     537.333E-03
            2435            3017     526.652E-03     534.748E-03
            2435            3018     465.922E-03     473.038E-03
            2435            3032     547.397E-03     537.333E-03
            2435            3033     506.013E-03     497.468E-03
            2436            3018     465.922E-03     473.038E-03
            2436            3019     418.850E-03     426.741E-03
            2436            3033     506.013E-03     497.468E-03
            2436            3034     466.470E-03     461.518E-03
            2437            3019     418.850E-03     426.741E-03
            2437            3020     376.706E-03     385.964E-03
            2437            3034     466.470E-03     461.518E-03
            2437            3035     429.563E-03     427.702E-03
            2438            3020     376.706E-03     385.964E-03
            2438            3021     338.456E-03     349.157E-03
            2438            3035     429.563E-03     427.702E-03
            2438            3036     392.885E-03     394.211E-03
            2439            3021     338.456E-03     349.157E-03
            2439            3022     301.930E-03     313.906E-03
            2439            3036     392.885E-03     394.211E-03
            2439            3037     357.110E-03     360.603E-03
            2440            3022     301.930E-03     313.906E-03
            2440            3023     266.732E-03     279.703E-03
            2440            3037     357.110E-03     360.603E-03
            2440            3038     321.405E-03     326.703E-03
            2441            3023     266.732E-03     279.703E-03
            2441            3024     232.144E-03     245.786E-03
            2441            3038     321.405E-03     326.703E-03
            2441            3039     286.247E-03     292.581E-03
            2442            3024     232.144E-03     245.786E-03
            2442            3025     198.044E-03     212.001E-03
            2442            3039     286.247E-03     292.581E-03
            2442            3040     251.495E-03     258.467E-03
            2443            3025     198.044E-03     212.001E-03
            2443            3026     164.180E-03     178.105E-03
            2443            3040     251.495E-03     258.467E-03
            2443            3041     217.610E-03     224.617E-03
            2444            3026     164.180E-03     178.105E-03
            2444            3027     130.619E-03     144.071E-03
            2444            3041     217.610E-03     224.617E-03
            2444            3042     184.961E-03     191.671E-03
            2445            3027     130.619E-03     144.071E-03
            2445            3028     97.3040E-03     109.855E-03
            2445            3042     184.961E-03     191.671E-03
            2445            3043     154.224E-03     160.092E-03
            2446            3028     97.3040E-03     109.855E-03
            2446            3029     64.6990E-03     75.5544E-03
            2446            3043     154.224E-03     160.092E-03
            2446            3044     126.382E-03     132.018E-03
            2447            3029     64.6990E-03     75.5544E-03
            2447            3030     32.5182E-03     43.3976E-03
            2447            3044     126.382E-03     132.018E-03
            2447            3045     99.8738E-03     111.351E-03
            2448             132     86.3238E-03     103.396E-03
            2448             133     16.3705E-03     28.4331E-03
            2448            3030     32.5182E-03     43.3976E-03
            2448            3045     99.8738E-03     111.351E-03
            2449             278     638.999E-03     649.766E-03
            2449             279     636.099E-03     620.760E-03
            2449            3031     603.017E-03     604.089E-03
            2449            3046     624.093E-03     611.295E-03
            2450            3031     603.017E-03     604.089E-03
            2450            3032     547.397E-03     537.333E-03
            2450            3046     624.093E-03     611.295E-03
            2450            3047     597.036E-03     586.004E-03
            2451            3032     547.397E-03     537.333E-03
            2451            3033     506.013E-03     497.468E-03
            2451            3047     597.036E-03     586.004E-03
            2451            3048     566.642E-03     555.436E-03
            2452            3033     506.013E-03     497.468E-03
            2452            3034     466.470E-03     461.518E-03
            2452            3048     566.642E-03     555.436E-03
            2452            3049     533.435E-03     524.071E-03
            2453            3034     466.470E-03     461.518E-03
            2453            3035     429.563E-03     427.702E-03
            2453            3049     533.435E-03     524.071E-03
            2453            3050     497.377E-03     490.475E-03
            2454            3035     429.563E-03     427.702E-03
            2454            3036     392.885E-03     394.211E-03
            2454            3050     497.377E-03     490.475E-03
            2454            3051     460.083E-03     455.347E-03
            2455            3036     392.885E-03     394.211E-03
            2455            3037     357.110E-03     360.603E-03
            2455            3051     460.083E-03     455.347E-03
            2455            3052     421.650E-03     418.744E-03
            2456            3037     357.110E-03     360.603E-03
            2456            3038     321.405E-03     326.703E-03
            2456            3052     421.650E-03     418.744E-03
            2456            3053     382.914E-03     381.384E-03
            2457            3038     321.405E-03     326.703E-03
            2457            3039     286.247E-03     292.581E-03
            2457            3053     382.914E-03     381.384E-03
            2457            3054     344.201E-03     343.569E-03
            2458            3039     286.247E-03     292.581E-03
            2458            3040     251.495E-03     258.467E-03
            2458            3054     344.201E-03     343.569E-03
            2458            3055     306.114E-03     306.035E-03
            2459            3040     251.495E-03     258.467E-03
            2459            3041     217.610E-03     224.617E-03
            2459            3055     306.114E-03     306.035E-03
            2459            3056     269.196E-03     269.350E-03
            2460            3041     217.610E-03     224.617E-03
            2460            3042     184.961E-03     191.671E-03
            2460            3056     269.196E-03     269.350E-03
            2460            3057     234.336E-03     234.665E-03
            2461            3042     184.961E-03     191.671E-03
            2461            3043     154.224E-03     160.092E-03
            2461            3057     234.336E-03     234.665E-03
            2461            3058     202.442E-03     203.500E-03
            2462            3043     154.224E-03     160.092E-03
            2462            3044     126.382E-03     132.018E-03
            2462            3058     202.442E-03     203.500E-03
            2462            3059     174.513E-03     179.759E-03
            2463            3044     126.382E-03     132.018E-03
            2463            3045     99.8738E-03     111.351E-03
            2463            3059     174.513E-03     179.759E-03
            2463            3060     153.467E-03     168.187E-03
            2464             131     145.173E-03     165.823E-03
            2464             132     86.3238E-03     103.396E-03
            2464            3045     99.8738E-03     111.351E-03
            2464            3060     153.467E-03     168.187E-03
            2465             279     636.099E-03     620.760E-03
            2465             280     671.377E-03     669.233E-03
            2465            3046     624.093E-03     611.295E-03
            2465            3061     657.393E-03     659.863E-03
            2466            3046     624.093E-03     611.295E-03
            2466            3047     597.036E-03     586.004E-03
            2466            3061     657.393E-03     659.863E-03
            2466            3062     626.768E-03     632.906E-03
            2467            3047     597.036E-03     586.004E-03
            2467            3048     566.642E-03     555.436E-03
            2467            3062     626.768E-03     632.906E-03
            2467            3063     592.135E-03     596.239E-03
            2468            3048     566.642E-03     555.436E-03
            2468            3049     533.435E-03     524.071E-03
            2468            3063     592.135E-03     596.239E-03
            2468            3064     554.839E-03     557.070E-03
            2469            3049     533.435E-03     524.071E-03
            2469            3050     497.377E-03     490.475E-03
            2469            3064     554.839E-03     557.070E-03
            2469            3065     514.967E-03     516.227E-03
            2470            3050     497.377E-03     490.475E-03
            2470            3051     460.083E-03     455.347E-03
            2470            3065     514.967E-03     516.227E-03
            2470            3066     473.249E-03     474.403E-03
            2471            3051     460.083E-03     455.347E-03
            2471            3052     421.650E-03     418.744E-03
            2471            3066     473.249E-03     474.403E-03
            2471            3067     430.728E-03     432.013E-03
            2472            3052     421.650E-03     418.744E-03
            2472            3053     382.914E-03     381.384E-03
            2472            3067     430.728E-03     432.013E-03
            2472            3068     387.879E-03     389.407E-03
            2473            3053     382.914E-03     381.384E-03
            2473            3054     344.201E-03     343.569E-03
            2473            3068     387.879E-03     389.407E-03
            2473            3069     345.185E-03     347.019E-03
            2474            3054     344.201E-03     343.569E-03
            2474            3055     306.114E-03     306.035E-03
            2474            3069     345.185E-03     347.019E-03
            2474            3070     303.107E-03     305.175E-03
            2475            3055     306.114E-03     306.035E-03
            2475            3056     269.196E-03     269.350E-03
            2475            3070     303.107E-03     305.175E-03
            2475            3071     261.993E-03     264.522E-03
            2476            3056     269.196E-03     269.350E-03
            2476            3057     234.336E-03     234.665E-03
            2476            3071     261.993E-03     264.522E-03
            2476            3072     222.587E-03     225.924E-03
            2477            3057     234.336E-03     234.665E-03
            2477            3058     202.442E-03     203.500E-03
            2477            3072     222.587E-03     225.924E-03
            2477            3073     185.541E-03     191.218E-03
            2478            3058     202.442E-03     203.500E-03
            2478            3059     174.513E-03     179.759E-03
            2478            3073     185.541E-03     191.218E-03
            2478            3074     153.178E-03     164.016E-03
            2479            3059     174.513E-03     179.759E-03
            2479            3060     153.467E-03     168.187E-03
            2479            3074     153.178E-03     164.016E-03
            2479            3075     133.745E-03     142.923E-03
            2480             130     128.781E-03     133.016E-03
            2480             131     145.173E-03     165.823E-03
            2480            3060     153.467E-03     168.187E-03
            2480            3075     133.745E-03     142.923E-03
            2481             280     671.377E-03     669.233E-03
            2481             281     702.299E-03     707.988E-03
            2481            3061     657.393E-03     659.863E-03
            2481            3076     685.939E-03     694.255E-03
            2482            3061     657.393E-03     659.863E-03
            2482            3062     626.768E-03     632.906E-03
            2482            3076     685.939E-03     694.255E-03
            2482            3077     651.949E-03     664.066E-03
            2483            3062     626.768E-03     632.906E-03
            2483            3063     592.135E-03     596.239E-03
            2483            3077     651.949E-03     664.066E-03
            2483            3078     613.929E-03     626.547E-03
            2484            3063     592.135E-03     596.239E-03
            2484            3064     554.839E-03     557.070E-03
            2484            3078     613.929E-03     626.547E-03
            2484            3079     572.521E-03     583.080E-03
            2485            3064     554.839E-03     557.070E-03
            2485            3065     514.967E-03     516.227E-03
            2485            3079     572.521E-03     583.080E-03
            2485            3080     528.927E-03     537.360E-03
            2486            3065     514.967E-03     516.227E-03
            2486            3066     473.249E-03     474.403E-03
            2486            3080     528.927E-03     537.360E-03
            2486            3081     483.687E-03     490.588E-03
            2487            3066     473.249E-03     474.403E-03
            2487            3067     430.728E-03     432.013E-03
            2487            3081     483.687E-03     490.588E-03
            2487            3082     437.861E-03     443.664E-03
            2488            3067     430.728E-03     432.013E-03
            2488            3068     387.879E-03     389.407E-03
            2488            3082     437.861E-03     443.664E-03
            2488            3083     391.803E-03     397.011E-03
            2489            3068     387.879E-03     389.407E-03
            2489            3069     345.185E-03     347.019E-03
            2489            3083     391.803E-03     397.011E-03
            2489            3084     346.082E-03     350.949E-03
            2490            3069     345.185E-03     347.019E-03
            2490            3070     303.107E-03     305.175E-03
            2490            3084     346.082E-03     350.949E-03
            2490            3085     300.798E-03     305.713E-03
            2491            3070     303.107E-03     305.175E-03
            2491            3071     261.993E-03     264.522E-03
            2491            3085     300.798E-03     305.713E-03
            2491            3086     256.402E-03     261.744E-03
            2492            3071     261.993E-03     264.522E-03
            2492            3072     222.587E-03     225.924E-03
            2492            3086     256.402E-03     261.744E-03
            2492            3087     213.209E-03     219.668E-03
            2493            3072     222.587E-03     225.924E-03
            2493            3073     185.541E-03     191.218E-03
            2493            3087     213.209E-03     219.668E-03
            2493            3088     172.268E-03     181.187E-03
            2494            3073     185.541E-03     191.218E-03
            2494            3074     153.178E-03     164.016E-03
            2494            3088     172.268E-03     181.187E-03
            2494            3089     137.397E-03     146.808E-03
            2495            3074     153.178E-03     164.016E-03
            2495            3075     133.745E-03     142.923E-03
            2495            3089     137.397E-03     146.808E-03
            2495            3090     113.442E-03     118.346E-03
            2496             129     104.678E-03     106.246E-03
            2496             130     128.781E-03     133.016E-03
            2496            3075     133.745E-03     142.923E-03
            2496            3090     113.442E-03     118.346E-03
            2497             281     702.299E-03     707.988E-03
            2497             282     731.353E-03     731.613E-03
            2497            3076     685.939E-03     694.255E-03
            2497            3091     711.853E-03     718.306E-03
            2498            3076     685.939E-03     694.255E-03
            2498            3077     651.949E-03     664.066E-03
            2498            3091     711.853E-03     718.306E-03
            2498            3092     672.187E-03     686.632E-03
            2499            3077     651.949E-03     664.066E-03
            2499            3078     613.929E-03     626.547E-03
            2499            3092     672.187E-03     686.632E-03
            2499            3093     630.661E-03     646.635E-03
            2500            3078     613.929E-03     626.547E-03
            2500            3079     572.521E-03     583.080E-03
            2500            3093     630.661E-03     646.635E-03
            2500            3094     585.387E-03     600.779E-03
            2501            3079     572.521E-03     583.080E-03
            2501            3080     528.927E-03     537.360E-03
            2501            3094     585.387E-03     600.779E-03
            2501            3095     538.016E-03     551.595E-03
            2502            3080     528.927E-03     537.360E-03
            2502            3081     483.687E-03     490.588E-03
            2502            3095     538.016E-03     551.595E-03
            2502            3096     490.007E-03     501.403E-03
            2503            3081     483.687E-03     490.588E-03
            2503            3082     437.861E-03     443.664E-03
            2503            3096     490.007E-03     501.403E-03
            2503            3097     441.489E-03     451.353E-03
            2504            3082     437.861E-03     443.664E-03
            2504            3083     391.803E-03     397.011E-03
            2504            3097     441.489E-03     451.353E-03
            2504            3098     393.375E-03     401.994E-03
            2505            3083     391.803E-03     397.011E-03
            2505            3084     346.082E-03     350.949E-03
            2505            3098     393.375E-03     401.994E-03
            2505            3099     345.448E-03     353.395E-03
            2506            3084     346.082E-03     350.949E-03
            2506            3085     300.798E-03     305.713E-03
            2506            3099     345.448E-03     353.395E-03
            2506            3100     298.078E-03     305.816E-03
            2507            3085     300.798E-03     305.713E-03
            2507            3086     256.402E-03     261.744E-03
            2507            3100     298.078E-03     305.816E-03
            2507            3101     251.295E-03     259.343E-03
            2508            3086     256.402E-03     261.744E-03
            2508            3087     213.209E-03     219.668E-03
            2508            3101     251.295E-03     259.343E-03
            2508            3102     205.477E-03     214.543E-03
            2509            3087     213.209E-03     219.668E-03
            2509            3088     172.268E-03     181.187E-03
            2509            3102     205.477E-03     214.543E-03
            2509            3103     161.836E-03     171.868E-03
            2510            3088     172.268E-03     181.187E-03
            2510            3089     137.397E-03     146.808E-03
            2510            3103     161.836E-03     171.868E-03
            2510            3104     122.931E-03     131.900E-03
            2511            3089     137.397E-03     146.808E-03
            2511            3090     113.442E-03     118.346E-03
            2511            3104     122.931E-03     131.900E-03
            2511            3105     94.5850E-03     99.7658E-03
            2512             128     84.1313E-03     86.7731E-03
            2512             129     104.678E-03     106.246E-03
            2512            3090     113.442E-03     118.346E-03
            2512            3105     94.5850E-03     99.7658E-03
            2513             282     731.353E-03     731.613E-03
            2513             283     752.131E-03     759.687E-03
            2513            3091     711.853E-03     718.306E-03
            2513            3106     732.338E-03     741.292E-03
            2514            3091     711.853E-03     718.306E-03
            2514            3092     672.187E-03     686.632E-03
            2514            3106     732.338E-03     741.292E-03
            2514            3107     689.864E-03     703.217E-03
            2515            3092     672.187E-03     686.632E-03
            2515            3093     630.661E-03     646.635E-03
            2515            3107     689.864E-03     703.217E-03
            2515            3108     642.085E-03     659.742E-03
            2516            3093     630.661E-03     646.635E-03
            2516            3094     585.387E-03     600.779E-03
            2516            3108     642.085E-03     659.742E-03
            2516            3109     592.448E-03     610.280E-03
            2517            3094     585.387E-03     600.779E-03
            2517            3095     538.016E-03     551.595E-03
            2517            3109     592.448E-03     610.280E-03
            2517            3110     541.839E-03     558.111E-03
            2518            3095     538.016E-03     551.595E-03
            2518            3096     490.007E-03     501.403E-03
            2518            3110     541.839E-03     558.111E-03
            2518            3111     491.036E-03     505.655E-03
            2519            3096     490.007E-03     501.403E-03
            2519            3097     441.489E-03     451.353E-03
            2519            3111     491.036E-03     505.655E-03
            2519            3112     441.243E-03     453.961E-03
            2520            3097     441.489E-03     451.353E-03
            2520            3098     393.375E-03     401.994E-03
            2520            3112     441.243E-03     453.961E-03
            2520            3113     391.683E-03     403.095E-03
            2521            3098     393.375E-03     401.994E-03
            2521            3099     345.448E-03     353.395E-03
            2521            3113     391.683E-03     403.095E-03
            2521            3114     342.738E-03     353.270E-03
            2522            3099     345.448E-03     353.395E-03
            2522            3100     298.078E-03     305.816E-03
            2522            3114     342.738E-03     353.270E-03
            2522            3115     294.156E-03     304.292E-03
            2523            3100     298.078E-03     305.816E-03
            2523            3101     251.295E-03     259.343E-03
            2523            3115     294.156E-03     304.292E-03
            2523            3116     246.040E-03     256.344E-03
            2524            3101     251.295E-03     259.343E-03
            2524            3102     205.477E-03     214.543E-03
            2524            3116     246.040E-03     256.344E-03
            2524            3117     198.662E-03     209.509E-03
            2525            3102     205.477E-03     214.543E-03
            2525            3103     161.836E-03     171.868E-03
            2525            3117     198.662E-03     209.509E-03
            2525            3118     152.781E-03     163.674E-03
            2526            3103     161.836E-03     171.868E-03
            2526            3104     122.931E-03     131.900E-03
            2526            3118     152.781E-03     163.674E-03
            2526            3119     110.064E-03     120.494E-03
            2527            3104     122.931E-03     131.900E-03
            2527            3105     94.5850E-03     99.7658E-03
            2527            3119     110.064E-03     120.494E-03
            2527            3120     76.7929E-03     82.5807E-03
            2528             127     63.7577E-03     65.1781E-03
            2528             128     84.1313E-03     86.7731E-03
            2528            3105     94.5850E-03     99.7658E-03
            2528            3120     76.7929E-03     82.5807E-03
            2529             283     752.131E-03     759.687E-03
            2529             284     778.247E-03     778.649E-03
            2529            3106     732.338E-03     741.292E-03
            2529            3121     753.529E-03     760.342E-03
            2530            3106     732.338E-03     741.292E-03
            2530            3107     689.864E-03     703.217E-03
            2530            3121     753.529E-03     760.342E-03
            2530            3122     702.157E-03     717.439E-03
            2531            3107     689.864E-03     703.217E-03
            2531            3108     642.085E-03     659.742E-03
            2531            3122     702.157E-03     717.439E-03
            2531            3123     648.584E-03     666.148E-03
            2532            3108     642.085E-03     659.742E-03
            2532            3109     592.448E-03     610.280E-03
            2532            3123     648.584E-03     666.148E-03
            2532            3124     593.197E-03     611.434E-03
            2533            3109     592.448E-03     610.280E-03
            2533            3110     541.839E-03     558.111E-03
            2533            3124     593.197E-03     611.434E-03
            2533            3125     538.930E-03     556.613E-03
            2534            3110     541.839E-03     558.111E-03
            2534            3111     491.036E-03     505.655E-03
            2534            3125     538.930E-03     556.613E-03
            2534            3126     487.322E-03     503.277E-03
            2535            3111     491.036E-03     505.655E-03
            2535            3112     441.243E-03     453.961E-03
            2535            3126     487.322E-03     503.277E-03
            2535            3127     436.591E-03     451.083E-03
            2536            3112     441.243E-03     453.961E-03
            2536            3113     391.683E-03     403.095E-03
            2536            3127     436.591E-03     451.083E-03
            2536            3128     386.904E-03     400.177E-03
            2537            3113     391.683E-03     403.095E-03
            2537            3114     342.738E-03     353.270E-03
            2537            3128     386.904E-03     400.177E-03
            2537            3129     337.672E-03     350.122E-03
            2538            3114     342.738E-03     353.270E-03
            2538            3115     294.156E-03     304.292E-03
            2538            3129     337.672E-03     350.122E-03
            2538            3130     288.850E-03     300.905E-03
            2539            3115     294.156E-03     304.292E-03
            2539            3116     246.040E-03     256.344E-03
            2539            3130     288.850E-03     300.905E-03
            2539            3131     240.372E-03     252.328E-03
            2540            3116     246.040E-03     256.344E-03
            2540            3117     198.662E-03     209.509E-03
            2540            3131     240.372E-03     252.328E-03
            2540            3132     192.267E-03     204.332E-03
            2541            3117     198.662E-03     209.509E-03
            2541            3118     152.781E-03     163.674E-03
            2541            3132     192.267E-03     204.332E-03
            2541            3133     144.798E-03     157.320E-03
            2542            3118     152.781E-03     163.674E-03
            2542            3119     110.064E-03     120.494E-03
            2542            3133     144.798E-03     157.320E-03
            2542            3134     99.3866E-03     110.911E-03
            2543            3119     110.064E-03     120.494E-03
            2543            3120     76.7929E-03     82.5807E-03
            2543            3134     99.3866E-03     110.911E-03
            2543            3135     60.2289E-03     68.3903E-03
            2544             126     42.9969E-03     49.0887E-03
            2544             127     63.7577E-03     65.1781E-03
            2544            3120     76.7929E-03     82.5807E-03
            2544            3135     60.2289E-03     68.3903E-03
            2545             284     778.247E-03     778.649E-03
            2545             285     796.169E-03     807.592E-03
            2545            3121     753.529E-03     760.342E-03
            2545            3136     769.476E-03     781.000E-03
            2546            3121     753.529E-03     760.342E-03
            2546            3122     702.157E-03     717.439E-03
            2546            3136     769.476E-03     781.000E-03
            2546            3137     711.580E-03     724.960E-03
            2547            3122     702.157E-03     717.439E-03
            2547            3123     648.584E-03     666.148E-03
            2547            3137     711.580E-03     724.960E-03
            2547            3138     646.855E-03     663.446E-03
            2548            3123     648.584E-03     666.148E-03
            2548            3124     593.197E-03     611.434E-03
            2548            3138     646.855E-03     663.446E-03
            2548            3139     585.319E-03     603.154E-03
            2549            3124     593.197E-03     611.434E-03
            2549            3125     538.930E-03     556.613E-03
            2549            3139     585.319E-03     603.154E-03
            2549            3140     530.652E-03     547.668E-03
            2550            3125     538.930E-03     556.613E-03
            2550            3126     487.322E-03     503.277E-03
            2550            3140     530.652E-03     547.668E-03
            2550            3141     478.591E-03     494.564E-03
            2551            3126     487.322E-03     503.277E-03
            2551            3127     436.591E-03     451.083E-03
            2551            3141     478.591E-03     494.564E-03
            2551            3142     428.436E-03     443.517E-03
            2552            3127     436.591E-03     451.083E-03
            2552            3128     386.904E-03     400.177E-03
            2552            3142     428.436E-03     443.517E-03
            2552            3143     379.262E-03     393.593E-03
            2553            3128     386.904E-03     400.177E-03
            2553            3129     337.672E-03     350.122E-03
            2553            3143     379.262E-03     393.593E-03
            2553            3144     330.647E-03     344.510E-03
            2554            3129     337.672E-03     350.122E-03
            2554            3130     288.850E-03     300.905E-03
            2554            3144     330.647E-03     344.510E-03
            2554            3145     282.381E-03     295.922E-03
            2555            3130     288.850E-03     300.905E-03
            2555            3131     240.372E-03     252.328E-03
            2555            3145     282.381E-03     295.922E-03
            2555            3146     234.316E-03     247.663E-03
            2556            3131     240.372E-03     252.328E-03
            2556            3132     192.267E-03     204.332E-03
            2556            3146     234.316E-03     247.663E-03
            2556            3147     186.439E-03     199.674E-03
            2557            3132     192.267E-03     204.332E-03
            2557            3133     144.798E-03     157.320E-03
            2557            3147     186.439E-03     199.674E-03
            2557            3148     138.680E-03     151.985E-03
            2558            3133     144.798E-03     157.320E-03
            2558            3134     99.3866E-03     110.911E-03
            2558            3148     138.680E-03     151.985E-03
            2558            3149     91.1124E-03     105.221E-03
            2559            3134     99.3866E-03     110.911E-03
            2559            3135     60.2289E-03     68.3903E-03
            2559            3149     91.1124E-03     105.221E-03
            2559            3150     47.0038E-03     58.4005E-03
            2560             125     26.5921E-03     34.6150E-03
            2560             126     42.9969E-03     49.0887E-03
            2560            3135     60.2289E-03     68.3903E-03
            2560            3150     47.0038E-03     58.4005E-03
            2561             285     796.169E-03     807.592E-03
            2561             286     822.255E-03     819.245E-03
            2561            3136     769.476E-03     781.000E-03
            2561            3151     787.359E-03     790.173E-03
            2562            3136     769.476E-03     781.000E-03
            2562            3137     711.580E-03     724.960E-03
            2562            3151     787.359E-03     790.173E-03
            2562            3152     708.523E-03     719.964E-03
            2563            3137     711.580E-03     724.960E-03
            2563            3138     646.855E-03     663.446E-03
            2563            3152     708.523E-03     719.964E-03
            2563            3153     631.921E-03     646.736E-03
            2564            3138     646.855E-03     663.446E-03
            2564            3139     585.319E-03     603.154E-03
            2564            3153     631.921E-03     646.736E-03
            2564            3154     571.481E-03     586.331E-03
            2565            3139     585.319E-03     603.154E-03
            2565            3140     530.652E-03     547.668E-03
            2565            3154     571.481E-03     586.331E-03
            2565            3155     517.337E-03     531.934E-03
            2566            3140     530.652E-03     547.668E-03
            2566            3141     478.591E-03     494.564E-03
            2566            3155     517.337E-03     531.934E-03
            2566            3156     466.427E-03     481.230E-03
            2567            3141     478.591E-03     494.564E-03
            2567            3142     428.436E-03     443.517E-03
            2567            3156     466.427E-03     481.230E-03
            2567            3157     417.632E-03     432.463E-03
            2568            3142     428.436E-03     443.517E-03
            2568            3143     379.262E-03     393.593E-03
            2568            3157     417.632E-03     432.463E-03
            2568            3158     369.689E-03     384.687E-03
            2569            3143     379.262E-03     393.593E-03
            2569            3144     330.647E-03     344.510E-03
            2569            3158     369.689E-03     384.687E-03
            2569            3159     322.384E-03     337.440E-03
            2570            3144     330.647E-03     344.510E-03
            2570            3145     282.381E-03     295.922E-03
            2570            3159     322.384E-03     337.440E-03
            2570            3160     275.325E-03     290.340E-03
            2571            3145     282.381E-03     295.922E-03
            2571            3146     234.316E-03     247.663E-03
            2571            3160     275.325E-03     290.340E-03
            2571            3161     228.465E-03     243.313E-03
            2572            3146     234.316E-03     247.663E-03
            2572            3147     186.439E-03     199.674E-03
            2572            3161     228.465E-03     243.313E-03
            2572            3162     181.752E-03     196.210E-03
            2573            3147     186.439E-03     199.674E-03
            2573            3148     138.680E-03     151.985E-03
            2573            3162     181.752E-03     196.210E-03
            2573            3163     135.167E-03     149.069E-03
            2574            3148     138.680E-03     151.985E-03
            2574            3149     91.1124E-03     105.221E-03
            2574            3163     135.167E-03     149.069E-03
            2574            3164     88.3390E-03     102.816E-03
            2575            3149     91.1124E-03     105.221E-03
            2575            3150     47.0038E-03     58.4005E-03
            2575            3164     88.3390E-03     102.816E-03
            2575            3165     42.7442E-03     58.7895E-03
            2576             124     20.6909E-03     37.4363E-03
            2576             125     26.5921E-03     34.6150E-03
            2576            3150     47.0038E-03     58.4005E-03
            2576            3165     42.7442E-03     58.7895E-03
            2577             286     822.255E-03     819.245E-03
            2577             287     842.676E-03     840.737E-03
            2577            3151     787.359E-03     790.173E-03
            2577            3166     784.187E-03     787.759E-03
            2578            3151     787.359E-03     790.173E-03
            2578            3152     708.523E-03     719.964E-03
            2578            3166     784.187E-03     787.759E-03
            2578            3167     682.959E-03     691.036E-03
            2579            3152     708.523E-03     719.964E-03
            2579            3153     631.921E-03     646.736E-03
            2579            3167     682.959E-03     691.036E-03
            2579            3168     611.070E-03     618.477E-03
            2580            3153     631.921E-03     646.736E-03
            2580            3154     571.481E-03     586.331E-03
            2580            3168     611.070E-03     618.477E-03
            2580            3169     553.840E-03     562.644E-03
            2581            3154     571.481E-03     586.331E-03
            2581            3155     517.337E-03     531.934E-03
            2581            3169     553.840E-03     562.644E-03
            2581            3170     501.295E-03     512.233E-03
            2582            3155     517.337E-03     531.934E-03
            2582            3156     466.427E-03     481.230E-03
            2582            3170     501.295E-03     512.233E-03
            2582            3171     452.687E-03     465.585E-03
            2583            3156     466.427E-03     481.230E-03
            2583            3157     417.632E-03     432.463E-03
            2583            3171     452.687E-03     465.585E-03
            2583            3172     405.478E-03     420.059E-03
            2584            3157     417.632E-03     432.463E-03
            2584            3158     369.689E-03     384.687E-03
            2584            3172     405.478E-03     420.059E-03
            2584            3173     359.474E-03     375.288E-03
            2585            3158     369.689E-03     384.687E-03
            2585            3159     322.384E-03     337.440E-03
            2585            3173     359.474E-03     375.288E-03
            2585            3174     313.893E-03     330.469E-03
            2586            3159     322.384E-03     337.440E-03
            2586            3160     275.325E-03     290.340E-03
            2586            3174     313.893E-03     330.469E-03
            2586            3175     268.713E-03     285.638E-03
            2587            3160     275.325E-03     290.340E-03
            2587            3161     228.465E-03     243.313E-03
            2587            3175     268.713E-03     285.638E-03
            2587            3176     223.788E-03     240.532E-03
            2588            3161     228.465E-03     243.313E-03
            2588            3162     181.752E-03     196.210E-03
            2588            3176     223.788E-03     240.532E-03
            2588            3177     179.242E-03     195.313E-03
            2589            3162     181.752E-03     196.210E-03
            2589            3163     135.167E-03     149.069E-03
            2589            3177     179.242E-03     195.313E-03
            2589            3178     135.336E-03     150.095E-03
            2590            3163     135.167E-03     149.069E-03
            2590            3164     88.3390E-03     102.816E-03
            2590            3178     135.336E-03     150.095E-03
            2590            3179     92.8764E-03     105.555E-03
            2591            3164     88.3390E-03     102.816E-03
            2591            3165     42.7442E-03     58.7895E-03
            2591            3179     92.8764E-03     105.555E-03
            2591            3180     53.1536E-03     67.2032E-03
            2592             123     34.1476E-03     50.8000E-03
            2592             124     20.6909E-03     37.4363E-03
            2592            3165     42.7442E-03     58.7895E-03
            2592            3180     53.1536E-03     67.2032E-03
            2593             287     842.676E-03     840.737E-03
            2593             288     811.231E-03     826.902E-03
            2593            3166     784.187E-03     787.759E-03
            2593            3181     767.584E-03     772.129E-03
            2594            3166     784.187E-03     787.759E-03
            2594            3167     682.959E-03     691.036E-03
            2594            3181     767.584E-03     772.129E-03
            2594            3182     700.846E-03     692.366E-03
            2595            3167     682.959E-03     691.036E-03
            2595            3168     611.070E-03     618.477E-03
            2595            3182     700.846E-03     692.366E-03
            2595            3183     650.024E-03     643.985E-03
            2596            3168     611.070E-03     618.477E-03
            2596            3169     553.840E-03     562.644E-03
            2596            3183     650.024E-03     643.985E-03
            2596            3184     599.186E-03     597.729E-03
            2597            3169     553.840E-03     562.644E-03
            2597            3170     501.295E-03     512.233E-03
            2597            3184     599.186E-03     597.729E-03
            2597            3185     551.000E-03     552.639E-03
            2598            3170     501.295E-03     512.233E-03
            2598            3171     452.687E-03     465.585E-03
            2598            3185     551.000E-03     552.639E-03
            2598            3186     502.538E-03     506.943E-03
            2599            3171     452.687E-03     465.585E-03
            2599            3172     405.478E-03     420.059E-03
            2599            3186     502.538E-03     506.943E-03
            2599            3187     454.895E-03     460.757E-03
            2600            3172     405.478E-03     420.059E-03
            2600            3173     359.474E-03     375.288E-03
            2600            3187     454.895E-03     460.757E-03
            2600            3188     407.173E-03     414.280E-03
            2601            3173     359.474E-03     375.288E-03
            2601            3174     313.893E-03     330.469E-03
            2601            3188     407.173E-03     414.280E-03
            2601            3189     359.794E-03     367.391E-03
            2602            3174     313.893E-03     330.469E-03
            2602            3175     268.713E-03     285.638E-03
            2602            3189     359.794E-03     367.391E-03
            2602            3190     312.566E-03     320.590E-03
            2603            3175     268.713E-03     285.638E-03
            2603            3176     223.788E-03     240.532E-03
            2603            3190     312.566E-03     320.590E-03
            2603            3191     265.989E-03     273.938E-03
            2604            3176     223.788E-03     240.532E-03
            2604            3177     179.242E-03     195.313E-03
            2604            3191     265.989E-03     273.938E-03
            2604            3192     220.525E-03     228.162E-03
            2605            3177     179.242E-03     195.313E-03
            2605            3178     135.336E-03     150.095E-03
            2605            3192     220.525E-03     228.162E-03
            2605            3193     177.173E-03     183.733E-03
            2606            3178     135.336E-03     150.095E-03
            2606            3179     92.8764E-03     105.555E-03
            2606            3193     177.173E-03     183.733E-03
            2606            3194     137.950E-03     143.556E-03
            2607            3179     92.8764E-03     105.555E-03
            2607            3180     53.1536E-03     67.2032E-03
            2607            3194     137.950E-03     143.556E-03
            2607            3195     103.368E-03     113.439E-03
            2608             122     86.8562E-03     101.869E-03
            2608             123     34.1476E-03     50.8000E-03
            2608            3180     53.1536E-03     67.2032E-03
            2608            3195     103.368E-03     113.439E-03
            2609             288     811.231E-03     826.902E-03
            2609             289     807.634E-03     797.963E-03
            2609            3181     767.584E-03     772.129E-03
            2609            3196     791.663E-03     784.324E-03
            2610            3181     767.584E-03     772.129E-03
            2610            3182     700.846E-03     692.366E-03
            2610            3196     791.663E-03     784.324E-03
            2610            3197     754.545E-03     749.518E-03
            2611            3182     700.846E-03     692.366E-03
            2611            3183     650.024E-03     643.985E-03
            2611            3197     754.545E-03     749.518E-03
            2611            3198     711.235E-03     707.186E-03
            2612            3183     650.024E-03     643.985E-03
            2612            3184     599.186E-03     597.729E-03
            2612            3198     711.235E-03     707.186E-03
            2612            3199     664.460E-03     661.668E-03
            2613            3184     599.186E-03     597.729E-03
            2613            3185     551.000E-03     552.639E-03
            2613            3199     664.460E-03     661.668E-03
            2613            3200     613.969E-03     612.580E-03
            2614            3185     551.000E-03     552.639E-03
            2614            3186     502.538E-03     506.943E-03
            2614            3200     613.969E-03     612.580E-03
            2614            3201     562.451E-03     562.113E-03
            2615            3186     502.538E-03     506.943E-03
            2615            3187     454.895E-03     460.757E-03
            2615            3201     562.451E-03     562.113E-03
            2615            3202     510.582E-03     510.535E-03
            2616            3187     454.895E-03     460.757E-03
            2616            3188     407.173E-03     414.280E-03
            2616            3202     510.582E-03     510.535E-03
            2616            3203     458.388E-03     458.622E-03
            2617            3188     407.173E-03     414.280E-03
            2617            3189     359.794E-03     367.391E-03
            2617            3203     458.388E-03     458.622E-03
            2617            3204     406.332E-03     406.557E-03
            2618            3189     359.794E-03     367.391E-03
            2618            3190     312.566E-03     320.590E-03
            2618            3204     406.332E-03     406.557E-03
            2618            3205     354.538E-03     354.832E-03
            2619            3190     312.566E-03     320.590E-03
            2619            3191     265.989E-03     273.938E-03
            2619            3205     354.538E-03     354.832E-03
            2619            3206     303.509E-03     303.782E-03
            2620            3191     265.989E-03     273.938E-03
            2620            3192     220.525E-03     228.162E-03
            2620            3206     303.509E-03     303.782E-03
            2620            3207     253.970E-03     254.355E-03
            2621            3192     220.525E-03     228.162E-03
            2621            3193     177.173E-03     183.733E-03
            2621            3207     253.970E-03     254.355E-03
            2621            3208     207.008E-03     207.692E-03
            2622            3193     177.173E-03     183.733E-03
            2622            3194     137.950E-03     143.556E-03
            2622            3208     207.008E-03     207.692E-03
            2622            3209     164.611E-03     167.777E-03
            2623            3194     137.950E-03     143.556E-03
            2623            3195     103.368E-03     113.439E-03
            2623            3209     164.611E-03     167.777E-03
            2623            3210     131.365E-03     143.033E-03
            2624             121     117.766E-03     135.642E-03
            2624             122     86.8562E-03     101.869E-03
            2624            3195     103.368E-03     113.439E-03
            2624            3210     131.365E-03     143.033E-03
            2625             289     807.634E-03     797.963E-03
            2625             290     848.497E-03     846.164E-03
            2625            3196     791.663E-03     784.324E-03
            2625            3211     829.908E-03     836.643E-03
            2626            3196     791.663E-03     784.324E-03
            2626            3197     754.545E-03     749.518E-03
            2626            3211     829.908E-03     836.643E-03
            2626            3212     785.348E-03     800.116E-03
            2627            3197     754.545E-03     749.518E-03
            2627            3198     711.235E-03     707.186E-03
            2627            3212     785.348E-03     800.116E-03
            2627            3213     733.326E-03     744.412E-03
            2628            3198     711.235E-03     707.186E-03
            2628            3199     664.460E-03     661.668E-03
            2628            3213     733.326E-03     744.412E-03
            2628            3214     678.258E-03     686.204E-03
            2629            3199     664.460E-03     661.668E-03
            2629            3200     613.969E-03     612.580E-03
            2629            3214     678.258E-03     686.204E-03
            2629            3215     621.633E-03     628.167E-03
            2630            3200     613.969E-03     612.580E-03
            2630            3201     562.451E-03     562.113E-03
            2630            3215     621.633E-03     628.167E-03
            2630            3216     565.856E-03     571.529E-03
            2631            3201     562.451E-03     562.113E-03
            2631            3202     510.582E-03     510.535E-03
            2631            3216     565.856E-03     571.529E-03
            2631            3217     510.075E-03     515.540E-03
            2632            3202     510.582E-03     510.535E-03
            2632            3203     458.388E-03     458.622E-03
            2632            3217     510.075E-03     515.540E-03
            2632            3218     454.814E-03     460.134E-03
            2633            3203     458.388E-03     458.622E-03
            2633            3204     406.332E-03     406.557E-03
            2633            3218     454.814E-03     460.134E-03
            2633            3219     399.867E-03     405.163E-03
            2634            3204     406.332E-03     406.557E-03
            2634            3205     354.538E-03     354.832E-03
            2634            3219     399.867E-03     405.163E-03
            2634            3220     345.470E-03     350.606E-03
            2635            3205     354.538E-03     354.832E-03
            2635            3206     303.509E-03     303.782E-03
            2635            3220     345.470E-03     350.606E-03
            2635            3221     291.641E-03     296.697E-03
            2636            3206     303.509E-03     303.782E-03
            2636            3207     253.970E-03     254.355E-03
            2636            3221     291.641E-03     296.697E-03
            2636            3222     238.812E-03     243.906E-03
            2637            3207     253.970E-03     254.355E-03
            2637            3208     207.008E-03     207.692E-03
            2637            3222     238.812E-03     243.906E-03
            2637            3223     187.374E-03     193.568E-03
            2638            3208     207.008E-03     207.692E-03
            2638            3209     164.611E-03     167.777E-03
            2638            3223     187.374E-03     193.568E-03
            2638            3224     139.208E-03     149.238E-03
            2639            3209     164.611E-03     167.777E-03
            2639            3210     131.365E-03     143.033E-03
            2639            3224     139.208E-03     149.238E-03
            2639            3225     104.064E-03     112.696E-03
            2640             120     91.7440E-03     96.1411E-03
            2640             121     117.766E-03     135.642E-03
            2640            3210     131.365E-03     143.033E-03
            2640            3225     104.064E-03     112.696E-03
            2641             290     848.497E-03     846.164E-03
            2641             291     876.387E-03     895.873E-03
            2641            3211     829.908E-03     836.643E-03
            2641            3226     854.666E-03     874.412E-03
            2642            3211     829.908E-03     836.643E-03
            2642            3212     785.348E-03     800.116E-03
            2642            3226     854.666E-03     874.412E-03
            2642            3227     805.262E-03     825.002E-03
            2643            3212     785.348E-03     800.116E-03
            2643            3213     733.326E-03     744.412E-03
            2643            3227     805.262E-03     825.002E-03
            2643            3228     743.250E-03     762.324E-03
            2644            3213     733.326E-03     744.412E-03
            2644            3214     678.258E-03     686.204E-03
            2644            3228     743.250E-03     762.324E-03
            2644            3229     680.248E-03     696.591E-03
            2645            3214     678.258E-03     686.204E-03
            2645            3215     621.633E-03     628.167E-03
            2645            3229     680.248E-03     696.591E-03
            2645            3230     622.127E-03     635.269E-03
            2646            3215     621.633E-03     628.167E-03
            2646            3216     565.856E-03     571.529E-03
            2646            3230     622.127E-03     635.269E-03
            2646            3231     564.090E-03     575.707E-03
            2647            3216     565.856E-03     571.529E-03
            2647            3217     510.075E-03     515.540E-03
            2647            3231     564.090E-03     575.707E-03
            2647            3232     506.905E-03     517.854E-03
            2648            3217     510.075E-03     515.540E-03
            2648            3218     454.814E-03     460.134E-03
            2648            3232     506.905E-03     517.854E-03
            2648            3233     450.064E-03     460.779E-03
            2649            3218     454.814E-03     460.134E-03
            2649            3219     399.867E-03     405.163E-03
            2649            3233     450.064E-03     460.779E-03
            2649            3234     393.689E-03     404.261E-03
            2650            3219     399.867E-03     405.163E-03
            2650            3220     345.470E-03     350.606E-03
            2650            3234     393.689E-03     404.261E-03
            2650            3235     337.661E-03     348.133E-03
            2651            3220     345.470E-03     350.606E-03
            2651            3221     291.641E-03     296.697E-03
            2651            3235     337.661E-03     348.133E-03
            2651            3236     282.108E-03     292.459E-03
            2652            3221     291.641E-03     296.697E-03
            2652            3222     238.812E-03     243.906E-03
            2652            3236     282.108E-03     292.459E-03
            2652            3237     226.952E-03     237.348E-03
            2653            3222     238.812E-03     243.906E-03
            2653            3223     187.374E-03     193.568E-03
            2653            3237     226.952E-03     237.348E-03
            2653            3238     172.308E-03     183.990E-03
            2654            3223     187.374E-03     193.568E-03
            2654            3224     139.208E-03     149.238E-03
            2654            3238     172.308E-03     183.990E-03
            2654            3239     120.119E-03     133.505E-03
            2655            3224     139.208E-03     149.238E-03
            2655            3225     104.064E-03     112.696E-03
            2655            3239     120.119E-03     133.505E-03
            2655            3240     77.2336E-03     85.4020E-03
            2656             119     59.3951E-03     61.9421E-03
            2656             120     91.7440E-03     96.1411E-03
            2656            3225     104.064E-03     112.696E-03
            2656            3240     77.2336E-03     85.4020E-03
            2657             291     876.387E-03     895.873E-03
            2657             292     910.657E-03     907.457E-03
            2657            3226     854.666E-03     874.412E-03
            2657            3241     879.534E-03     886.904E-03
            2658            3226     854.666E-03     874.412E-03
            2658            3227     805.262E-03     825.002E-03
            2658            3241     879.534E-03     886.904E-03
            2658            3242     806.435E-03     827.137E-03
            2659            3227     805.262E-03     825.002E-03
            2659            3228     743.250E-03     762.324E-03
            2659            3242     806.435E-03     827.137E-03
            2659            3243     733.332E-03     755.340E-03
            2660            3228     743.250E-03     762.324E-03
            2660            3229     680.248E-03     696.591E-03
            2660            3243     733.332E-03     755.340E-03
            2660            3244     672.465E-03     691.906E-03
            2661            3229     680.248E-03     696.591E-03
            2661            3230     622.127E-03     635.269E-03
            2661            3244     672.465E-03     691.906E-03
            2661            3245     614.027E-03     631.554E-03
            2662            3230     622.127E-03     635.269E-03
            2662            3231     564.090E-03     575.707E-03
            2662            3245     614.027E-03     631.554E-03
            2662            3246     556.834E-03     573.467E-03
            2663            3231     564.090E-03     575.707E-03
            2663            3232     506.905E-03     517.854E-03
            2663            3246     556.834E-03     573.467E-03
            2663            3247     500.038E-03     516.308E-03
            2664            3232     506.905E-03     517.854E-03
            2664            3233     450.064E-03     460.779E-03
            2664            3247     500.038E-03     516.308E-03
            2664            3248     443.440E-03     459.610E-03
            2665            3233     450.064E-03     460.779E-03
            2665            3234     393.689E-03     404.261E-03
            2665            3248     443.440E-03     459.610E-03
            2665            3249     387.019E-03     403.164E-03
            2666            3234     393.689E-03     404.261E-03
            2666            3235     337.661E-03     348.133E-03
            2666            3249     387.019E-03     403.164E-03
            2666            3250     330.757E-03     346.835E-03
            2667            3235     337.661E-03     348.133E-03
            2667            3236     282.108E-03     292.459E-03
            2667            3250     330.757E-03     346.835E-03
            2667            3251     274.614E-03     290.607E-03
            2668            3236     282.108E-03     292.459E-03
            2668            3237     226.952E-03     237.348E-03
            2668            3251     274.614E-03     290.607E-03
            2668            3252     218.605E-03     234.643E-03
            2669            3237     226.952E-03     237.348E-03
            2669            3238     172.308E-03     183.990E-03
            2669            3252     218.605E-03     234.643E-03
            2669            3253     162.855E-03     179.030E-03
            2670            3238     172.308E-03     183.990E-03
            2670            3239     120.119E-03     133.505E-03
            2670            3253     162.855E-03     179.030E-03
            2670            3254     107.907E-03     123.404E-03
            2671            3239     120.119E-03     133.505E-03
            2671            3240     77.2336E-03     85.4020E-03
            2671            3254     107.907E-03     123.404E-03
            2671            3255     55.4073E-03     72.4490E-03
            2672             118     30.1089E-03     49.2485E-03
            2672             119     59.3951E-03     61.9421E-03
            2672            3240     77.2336E-03     85.4020E-03
            2672            3255     55.4073E-03     72.4490E-03
            2673             292     910.657E-03     907.457E-03
            2673             293     932.049E-03     934.153E-03
            2673            3241     879.534E-03     886.904E-03
            2673            3256     877.080E-03     885.963E-03
            2674            3241     879.534E-03     886.904E-03
            2674            3242     806.435E-03     827.137E-03
            2674            3256     877.080E-03     885.963E-03
            2674            3257     781.737E-03     797.986E-03
            2675            3242     806.435E-03     827.137E-03
            2675            3243     733.332E-03     755.340E-03
            2675            3257     781.737E-03     797.986E-03
            2675            3258     712.851E-03     730.533E-03
            2676            3243     733.332E-03     755.340E-03
            2676            3244     672.465E-03     691.906E-03
            2676            3258     712.851E-03     730.533E-03
            2676            3259     655.537E-03     674.590E-03
            2677            3244     672.465E-03     691.906E-03
            2677            3245     614.027E-03     631.554E-03
            2677            3259     655.537E-03     674.590E-03
            2677            3260     599.485E-03     619.931E-03
            2678            3245     614.027E-03     631.554E-03
            2678            3246     556.834E-03     573.467E-03
            2678            3260     599.485E-03     619.931E-03
            2678            3261     544.932E-03     566.154E-03
            2679            3246     556.834E-03     573.467E-03
            2679            3247     500.038E-03     516.308E-03
            2679            3261     544.932E-03     566.154E-03
            2679            3262     490.224E-03     511.774E-03
            2680            3247     500.038E-03     516.308E-03
            2680            3248     443.440E-03     459.610E-03
            2680            3262     490.224E-03     511.774E-03
            2680            3263     435.410E-03     457.176E-03
            2681            3248     443.440E-03     459.610E-03
            2681            3249     387.019E-03     403.164E-03
            2681            3263     435.410E-03     457.176E-03
            2681            3264     380.314E-03     402.121E-03
            2682            3249     387.019E-03     403.164E-03
            2682            3250     330.757E-03     346.835E-03
            2682            3264     380.314E-03     402.121E-03
            2682            3265     325.028E-03     346.908E-03
            2683            3250     330.757E-03     346.835E-03
            2683            3251     274.614E-03     290.607E-03
            2683            3265     325.028E-03     346.908E-03
            2683            3266     269.595E-03     291.432E-03
            2684            3251     274.614E-03     290.607E-03
            2684            3252     218.605E-03     234.643E-03
            2684            3266     269.595E-03     291.432E-03
            2684            3267     214.227E-03     235.947E-03
            2685            3252     218.605E-03     234.643E-03
            2685            3253     162.855E-03     179.030E-03
            2685            3267     214.227E-03     235.947E-03
            2685            3268     159.300E-03     179.925E-03
            2686            3253     162.855E-03     179.030E-03
            2686            3254     107.907E-03     123.404E-03
            2686            3268     159.300E-03     179.925E-03
            2686            3269     105.206E-03     123.906E-03
            2687            3254     107.907E-03     123.404E-03
            2687            3255     55.4073E-03     72.4490E-03
            2687            3269     105.206E-03     123.906E-03
            2687            3270     52.4411E-03     70.5545E-03
            2688             117     26.3794E-03     44.9796E-03
            2688             118     30.1089E-03     49.2485E-03
            2688            3255     55.4073E-03     72.4490E-03
            2688            3270     52.4411E-03     70.5545E-03
            2689              11     909.395E-03     930.372E-03
            2689             293     932.049E-03     934.153E-03
            2689             481     865.630E-03     874.417E-03
            2689            3256     877.080E-03     885.963E-03
            2690             480     797.882E-03     794.361E-03
            2690             481     865.630E-03     874.417E-03
            2690            3256     877.080E-03     885.963E-03
            2690            3257     781.737E-03     797.986E-03
            2691             479     743.715E-03     745.097E-03
            2691             480     797.882E-03     794.361E-03
            2691            3257     781.737E-03     797.986E-03
            2691            3258     712.851E-03     730.533E-03
            2692             478     688.112E-03     694.711E-03
            2692             479     743.715E-03     745.097E-03
            2692            3258     712.851E-03     730.533E-03
            2692            3259     655.537E-03     674.590E-03
            2693             477     633.789E-03     642.704E-03
            2693             478     688.112E-03     694.711E-03
            2693            3259     655.537E-03     674.590E-03
            2693            3260     599.485E-03     619.931E-03
            2694             476     578.164E-03     588.939E-03
            2694             477     633.789E-03     642.704E-03
            2694            3260     599.485E-03     619.931E-03
            2694            3261     544.932E-03     566.154E-03
            2695             475     522.847E-03     534.037E-03
            2695             476     578.164E-03     588.939E-03
            2695            3261     544.932E-03     566.154E-03
            2695            3262     490.224E-03     511.774E-03
            2696             474     466.513E-03     478.129E-03
            2696             475     522.847E-03     534.037E-03
            2696            3262     490.224E-03     511.774E-03
            2696            3263     435.410E-03     457.176E-03
            2697             473     410.025E-03     421.808E-03
            2697             474     466.513E-03     478.129E-03
            2697            3263     435.410E-03     457.176E-03
            2697            3264     380.314E-03     402.121E-03
            2698             472     353.029E-03     365.126E-03
            2698             473     410.025E-03     421.808E-03
            2698            3264     380.314E-03     402.121E-03
            2698            3265     325.028E-03     346.908E-03
            2699             471     296.149E-03     308.519E-03
            2699             472     353.029E-03     365.126E-03
            2699            3265     325.028E-03     346.908E-03
            2699            3266     269.595E-03     291.432E-03
            2700             470     239.543E-03     252.018E-03
            2700             471     296.149E-03     308.519E-03
            2700            3266     269.595E-03     291.432E-03
            2700            3267     214.227E-03     235.947E-03
            2701             469     184.034E-03     195.952E-03
            2701             470     239.543E-03     252.018E-03
            2701            3267     214.227E-03     235.947E-03
            2701            3268     159.300E-03     179.925E-03
            2702             468     131.141E-03     141.476E-03
            2702             469     184.034E-03     195.952E-03
            2702            3268     159.300E-03     179.925E-03
            2702            3269     105.206E-03     123.906E-03
            2703             467     83.8733E-03     95.8715E-03
            2703             468     131.141E-03     141.476E-03
            2703            3269     105.206E-03     123.906E-03
            2703            3270     52.4411E-03     70.5545E-03
            2704               4     61.9609E-03     76.9161E-03
            2704             117     26.3794E-03     44.9796E-03
            2704             467     83.8733E-03     95.8715E-03
            2704            3270     52.4411E-03     70.5545E-03
            2809              11     909.395E-03     930.372E-03
            2809             481     865.630E-03     874.417E-03
            2809             527     919.728E-03     903.142E-03
            2809            3348     897.064E-03     889.448E-03
            2810             480     797.882E-03     794.361E-03
            2810             481     865.630E-03     874.417E-03
            2810            3348     897.064E-03     889.448E-03
            2810            3349     848.767E-03     848.777E-03
            2811             479     743.715E-03     745.097E-03
            2811             480     797.882E-03     794.361E-03
            2811            3349     848.767E-03     848.777E-03
            2811            3350     796.740E-03     794.929E-03
            2812             478     688.112E-03     694.711E-03
            2812             479     743.715E-03     745.097E-03
            2812            3350     796.740E-03     794.929E-03
            2812            3351     739.253E-03     738.760E-03
            2813             477     633.789E-03     642.704E-03
            2813             478     688.112E-03     694.711E-03
            2813            3351     739.253E-03     738.760E-03
            2813            3352     679.442E-03     680.374E-03
            2814             476     578.164E-03     588.939E-03
            2814             477     633.789E-03     642.704E-03
            2814            3352     679.442E-03     680.374E-03
            2814            3353     620.269E-03     621.399E-03
            2815             475     522.847E-03     534.037E-03
            2815             476     578.164E-03     588.939E-03
            2815            3353     620.269E-03     621.399E-03
            2815            3354     560.187E-03     561.869E-03
            2816             474     466.513E-03     478.129E-03
            2816             475     522.847E-03     534.037E-03
            2816            3354     560.187E-03     561.869E-03
            2816            3355     500.284E-03     502.155E-03
            2817             473     410.025E-03     421.808E-03
            2817             474     466.513E-03     478.129E-03
            2817            3355     500.284E-03     502.155E-03
            2817            3356     440.022E-03     442.188E-03
            2818             472     353.029E-03     365.126E-03
            2818             473     410.025E-03     421.808E-03
            2818            3356     440.022E-03     442.188E-03
            2818            3357     379.880E-03     382.333E-03
            2819             471     296.149E-03     308.519E-03
            2819             472     353.029E-03     365.126E-03
            2819            3357     379.880E-03     382.333E-03
            2819            3358     319.873E-03     322.576E-03
            2820             470     239.543E-03     252.018E-03
            2820             471     296.149E-03     308.519E-03
            2820            3358     319.873E-03     322.576E-03
            2820            3359     260.369E-03     263.329E-03
            2821             469     184.034E-03     195.952E-03
            2821             470     239.543E-03     252.018E-03
            2821            3359     260.369E-03     263.329E-03
            2821            3360     201.741E-03     205.102E-03
            2822             468     131.141E-03     141.476E-03
            2822             469     184.034E-03     195.952E-03
            2822            3360     201.741E-03     205.102E-03
            2822            3361     144.945E-03     148.745E-03
            2823             467     83.8733E-03     95.8715E-03
            2823             468     131.141E-03     141.476E-03
            2823            3361     144.945E-03     148.745E-03
            2823            3362     97.4705E-03     108.318E-03
            2824               4     61.9609E-03     76.9161E-03
            2824             466     77.8191E-03     95.4677E-03
            2824             467     83.8733E-03     95.8715E-03
            2824            3362     97.4705E-03     108.318E-03
            2825             526     949.307E-03     961.187E-03
            2825             527     919.728E-03     903.142E-03
            2825            3348     897.064E-03     889.448E-03
            2825            3363     929.795E-03     943.986E-03
            2826            3348     897.064E-03     889.448E-03
            2826            3349     848.767E-03     848.777E-03
            2826            3363     929.795E-03     943.986E-03
            2826            3364     878.113E-03     893.479E-03
            2827            3349     848.767E-03     848.777E-03
            2827            3350     796.740E-03     794.929E-03
            2827            3364     878.113E-03     893.479E-03
            2827            3365     811.355E-03     824.716E-03
            2828            3350     796.740E-03     794.929E-03
            2828            3351     739.253E-03     738.760E-03
            2828            3365     811.355E-03     824.716E-03
            2828            3366     746.060E-03     756.652E-03
            2829            3351     739.253E-03     738.760E-03
            2829            3352     679.442E-03     680.374E-03
            2829            3366     746.060E-03     756.652E-03
            2829            3367     683.485E-03     692.198E-03
            2830            3352     679.442E-03     680.374E-03
            2830            3353     620.269E-03     621.399E-03
            2830            3367     683.485E-03     692.198E-03
            2830            3368     620.682E-03     629.171E-03
            2831            3353     620.269E-03     621.399E-03
            2831            3354     560.187E-03     561.869E-03
            2831            3368     620.682E-03     629.171E-03
            2831            3369     558.601E-03     567.025E-03
            2832            3354     560.187E-03     561.869E-03
            2832            3355     500.284E-03     502.155E-03
            2832            3369     558.601E-03     567.025E-03
            2832            3370     496.671E-03     505.272E-03
            2833            3355     500.284E-03     502.155E-03
            2833            3356     440.022E-03     442.188E-03
            2833            3370     496.671E-03     505.272E-03
            2833            3371     435.054E-03     443.736E-03
            2834            3356     440.022E-03     442.188E-03
            2834            3357     379.880E-03     382.333E-03
            2834            3371     435.054E-03     443.736E-03
            2834            3372     373.608E-03     382.290E-03
            2835            3357     379.880E-03     382.333E-03
            2835            3358     319.873E-03     322.576E-03
            2835            3372     373.608E-03     382.290E-03
            2835            3373     312.360E-03     320.976E-03
            2836            3358     319.873E-03     322.576E-03
            2836            3359     260.369E-03     263.329E-03
            2836            3373     312.360E-03     320.976E-03
            2836            3374     251.294E-03     259.745E-03
            2837            3359     260.369E-03     263.329E-03
            2837            3360     201.741E-03     205.102E-03
            2837            3374     251.294E-03     259.745E-03
            2837            3375     190.437E-03     199.086E-03
            2838            3360     201.741E-03     205.102E-03
            2838            3361     144.945E-03     148.745E-03
            2838            3375     190.437E-03     199.086E-03
            2838            3376     128.106E-03     140.991E-03
            2839            3361     144.945E-03     148.745E-03
            2839            3362     97.4705E-03     108.318E-03
            2839            3376     128.106E-03     140.991E-03
            2839            3377     75.6422E-03     89.1317E-03
            2840             465     55.0854E-03     65.3214E-03
            2840             466     77.8191E-03     95.4677E-03
            2840            3362     97.4705E-03     108.318E-03
            2840            3377     75.6422E-03     89.1317E-03
            2841             525     982.551E-03     988.057E-03
            2841             526     949.307E-03     961.187E-03
            2841            3363     929.795E-03     943.986E-03
            2841            3378     952.862E-03     965.945E-03
            2842            3363     929.795E-03     943.986E-03
            2842            3364     878.113E-03     893.479E-03
            2842            3378     952.862E-03     965.945E-03
            2842            3379     881.444E-03     903.404E-03
            2843            3364     878.113E-03     893.479E-03
            2843            3365     811.355E-03     824.716E-03
            2843            3379     881.444E-03     903.404E-03
            2843            3380     806.075E-03     827.744E-03
            2844            3365     811.355E-03     824.716E-03
            2844            3366     746.060E-03     756.652E-03
            2844            3380     806.075E-03     827.744E-03
            2844            3381     741.534E-03     759.711E-03
            2845            3366     746.060E-03     756.652E-03
            2845            3367     683.485E-03     692.198E-03
            2845            3381     741.534E-03     759.711E-03
            2845            3382     679.047E-03     695.098E-03
            2846            3367     683.485E-03     692.198E-03
            2846            3368     620.682E-03     629.171E-03
            2846            3382     679.047E-03     695.098E-03
            2846            3383     616.575E-03     632.229E-03
            2847            3368     620.682E-03     629.171E-03
            2847            3369     558.601E-03     567.025E-03
            2847            3383     616.575E-03     632.229E-03
            2847            3384     554.622E-03     570.057E-03
            2848            3369     558.601E-03     567.025E-03
            2848            3370     496.671E-03     505.272E-03
            2848            3384     554.622E-03     570.057E-03
            2848            3385     492.735E-03     508.135E-03
            2849            3370     496.671E-03     505.272E-03
            2849            3371     435.054E-03     443.736E-03
            2849            3385     492.735E-03     508.135E-03
            2849            3386     431.096E-03     446.426E-03
            2850            3371     435.054E-03     443.736E-03
            2850            3372     373.608E-03     382.290E-03
            2850            3386     431.096E-03     446.426E-03
            2850            3387     369.572E-03     384.699E-03
            2851            3372     373.608E-03     382.290E-03
            2851            3373     312.360E-03     320.976E-03
            2851            3387     369.572E-03     384.699E-03
            2851            3388     308.179E-03     323.072E-03
            2852            3373     312.360E-03     320.976E-03
            2852            3374     251.294E-03     259.745E-03
            2852            3388     308.179E-03     323.072E-03
            2852            3389     246.949E-03     261.482E-03
            2853            3374     251.294E-03     259.745E-03
            2853            3375     190.437E-03     199.086E-03
            2853            3389     246.949E-03     261.482E-03
            2853            3390     185.577E-03     200.374E-03
            2854            3375     190.437E-03     199.086E-03
            2854            3376     128.106E-03     140.991E-03
            2854            3390     185.577E-03     200.374E-03
            2854            3391     124.603E-03     142.486E-03
            2855            3376     128.106E-03     140.991E-03
            2855            3377     75.6422E-03     89.1317E-03
            2855            3391     124.603E-03     142.486E-03
            2855            3392     65.6737E-03     85.3963E-03
            2856             464     36.8868E-03     55.8758E-03
            2856             465     55.0854E-03     65.3214E-03
            2856            3377     75.6422E-03     89.1317E-03
            2856            3392     65.6737E-03     85.3963E-03
            2857             524         1.00593         1.00763
            2857             525     982.551E-03     988.057E-03
            2857            3378     952.862E-03     965.945E-03
            2857            3393     949.126E-03     961.743E-03
            2858            3378     952.862E-03     965.945E-03
            2858            3379     881.444E-03     903.404E-03
            2858            3393     949.126E-03     961.743E-03
            2858            3394     853.576E-03     876.385E-03
            2859            3379     881.444E-03     903.404E-03
            2859            3380     806.075E-03     827.744E-03
            2859            3394     853.576E-03     876.385E-03
            2859            3395     786.487E-03     808.050E-03
            2860            3380     806.075E-03     827.744E-03
            2860            3381     741.534E-03     759.711E-03
            2860            3395     786.487E-03     808.050E-03
            2860            3396     726.877E-03     749.059E-03
            2861            3381     741.534E-03     759.711E-03
            2861            3382     679.047E-03     695.098E-03
            2861            3396     726.877E-03     749.059E-03
            2861            3397     666.999E-03     689.940E-03
            2862            3382     679.047E-03     695.098E-03
            2862            3383     616.575E-03     632.229E-03
            2862            3397     666.999E-03     689.940E-03
            2862            3398     608.174E-03     630.817E-03
            2863            3383     616.575E-03     632.229E-03
            2863            3384     554.622E-03     570.057E-03
            2863            3398     608.174E-03     630.817E-03
            2863            3399     548.351E-03     570.904E-03
            2864            3384     554.622E-03     570.057E-03
            2864            3385     492.735E-03     508.135E-03
            2864            3399     548.351E-03     570.904E-03
            2864            3400     488.512E-03     510.722E-03
            2865            3385     492.735E-03     508.135E-03
            2865            3386     431.096E-03     446.426E-03
            2865            3400     488.512E-03     510.722E-03
            2865            3401     428.246E-03     450.118E-03
            2866            3386     431.096E-03     446.426E-03
            2866            3387     369.572E-03     384.699E-03
            2866            3401     428.246E-03     450.118E-03
            2866            3402     367.931E-03     389.522E-03
            2867            3387     369.572E-03     384.699E-03
            2867            3388     308.179E-03     323.072E-03
            2867            3402     367.931E-03     389.522E-03
            2867            3403     307.636E-03     328.819E-03
            2868            3388     308.179E-03     323.072E-03
            2868            3389     246.949E-03     261.482E-03
            2868            3403     307.636E-03     328.819E-03
            2868            3404     247.680E-03     268.443E-03
            2869            3389     246.949E-03     261.482E-03
            2869            3390     185.577E-03     200.374E-03
            2869            3404     247.680E-03     268.443E-03
            2869            3405     188.415E-03     208.887E-03
            2870            3390     185.577E-03     200.374E-03
            2870            3391     124.603E-03     142.486E-03
            2870            3405     188.415E-03     208.887E-03
            2870            3406     132.940E-03     151.310E-03
            2871            3391     124.603E-03     142.486E-03
            2871            3392     65.6737E-03     85.3963E-03
            2871            3406     132.940E-03     151.310E-03
            2871            3407     79.9091E-03     100.227E-03
            2872             463     53.0264E-03     77.2285E-03
            2872             464     36.8868E-03     55.8758E-03
            2872            3392     65.6737E-03     85.3963E-03
            2872            3407     79.9091E-03     100.227E-03
            2873             523     970.950E-03         1.00279
            2873             524         1.00593         1.00763
            2873            3393     949.126E-03     961.743E-03
            2873            3408     922.347E-03     945.441E-03
            2874            3393     949.126E-03     961.743E-03
            2874            3394     853.576E-03     876.385E-03
            2874            3408     922.347E-03     945.441E-03
            2874            3409     845.343E-03     859.072E-03
            2875            3394     853.576E-03     876.385E-03
            2875            3395     786.487E-03     808.050E-03
            2875            3409     845.343E-03     859.072E-03
            2875            3410     785.120E-03     800.983E-03
            2876            3395     786.487E-03     808.050E-03
            2876            3396     726.877E-03     749.059E-03
            2876            3410     785.120E-03     800.983E-03
            2876            3411     725.355E-03     743.670E-03
            2877            3396     726.877E-03     749.059E-03
            2877            3397     666.999E-03     689.940E-03
            2877            3411     725.355E-03     743.670E-03
            2877            3412     667.205E-03     686.030E-03
            2878            3397     666.999E-03     689.940E-03
            2878            3398     608.174E-03     630.817E-03
            2878            3412     667.205E-03     686.030E-03
            2878            3413     608.126E-03     627.401E-03
            2879            3398     608.174E-03     630.817E-03
            2879            3399     548.351E-03     570.904E-03
            2879            3413     608.126E-03     627.401E-03
            2879            3414     549.173E-03     568.159E-03
            2880            3399     548.351E-03     570.904E-03
            2880            3400     488.512E-03     510.722E-03
            2880            3414     549.173E-03     568.159E-03
            2880            3415     489.531E-03     508.355E-03
            2881            3400     488.512E-03     510.722E-03
            2881            3401     428.246E-03     450.118E-03
            2881            3415     489.531E-03     508.355E-03
            2881            3416     429.829E-03     448.377E-03
            2882            3401     428.246E-03     450.118E-03
            2882            3402     367.931E-03     389.522E-03
            2882            3416     429.829E-03     448.377E-03
            2882            3417     369.851E-03     388.215E-03
            2883            3402     367.931E-03     389.522E-03
            2883            3403     307.636E-03     328.819E-03
            2883            3417     369.851E-03     388.215E-03
            2883            3418     309.963E-03     328.146E-03
            2884            3403     307.636E-03     328.819E-03
            2884            3404     247.680E-03     268.443E-03
            2884            3418     309.963E-03     328.146E-03
            2884            3419     250.266E-03     268.222E-03
            2885            3404     247.680E-03     268.443E-03
            2885            3405     188.415E-03     208.887E-03
            2885            3419     250.266E-03     268.222E-03
            2885            3420     191.572E-03     208.817E-03
            2886            3405     188.415E-03     208.887E-03
            2886            3406     132.940E-03     151.310E-03
            2886            3420     191.572E-03     208.817E-03
            2886            3421     134.867E-03     150.576E-03
            2887            3406     132.940E-03     151.310E-03
            2887            3407     79.9091E-03     100.227E-03
            2887            3421     134.867E-03     150.576E-03
            2887            3422     83.1404E-03     96.8884E-03
            2888             462     59.0729E-03     71.8743E-03
            2888             463     53.0264E-03     77.2285E-03
            2888            3407     79.9091E-03     100.227E-03
            2888            3422     83.1404E-03     96.8884E-03
            2889              20     994.167E-03         1.02879
            2889             522     934.997E-03     961.056E-03
            2889             523     970.950E-03         1.00279
            2889            3408     922.347E-03     945.441E-03
            2890             521     843.792E-03     859.537E-03
            2890             522     934.997E-03     961.056E-03
            2890            3408     922.347E-03     945.441E-03
            2890            3409     845.343E-03     859.072E-03
            2891             520     778.098E-03     795.359E-03
            2891             521     843.792E-03     859.537E-03
            2891            3409     845.343E-03     859.072E-03
            2891            3410     785.120E-03     800.983E-03
            2892             519     715.650E-03     735.930E-03
            2892             520     778.098E-03     795.359E-03
            2892            3410     785.120E-03     800.983E-03
            2892            3411     725.355E-03     743.670E-03
            2893             518     656.635E-03     678.354E-03
            2893             519     715.650E-03     735.930E-03
            2893            3411     725.355E-03     743.670E-03
            2893            3412     667.205E-03     686.030E-03
            2894             517     597.663E-03     620.552E-03
            2894             518     656.635E-03     678.354E-03
            2894            3412     667.205E-03     686.030E-03
            2894            3413     608.126E-03     627.401E-03
            2895             516     539.143E-03     562.222E-03
            2895             517     597.663E-03     620.552E-03
            2895            3413     608.126E-03     627.401E-03
            2895            3414     549.173E-03     568.159E-03
            2896             515     480.152E-03     503.510E-03
            2896             516     539.143E-03     562.222E-03
            2896            3414     549.173E-03     568.159E-03
            2896            3415     489.531E-03     508.355E-03
            2897             514     421.086E-03     444.386E-03
            2897             515     480.152E-03     503.510E-03
            2897            3415     489.531E-03     508.355E-03
            2897            3416     429.829E-03     448.377E-03
            2898             513     361.617E-03     385.074E-03
            2898             514     421.086E-03     444.386E-03
            2898            3416     429.829E-03     448.377E-03
            2898            3417     369.851E-03     388.215E-03
            2899             512     302.158E-03     325.568E-03
            2899             513     361.617E-03     385.074E-03
            2899            3417     369.851E-03     388.215E-03
            2899            3418     309.963E-03     328.146E-03
            2900             511     242.588E-03     265.853E-03
            2900             512     302.158E-03     325.568E-03
            2900            3418     309.963E-03     328.146E-03
            2900            3419     250.266E-03     268.222E-03
            2901             510     183.418E-03     206.050E-03
            2901             511     242.588E-03     265.853E-03
            2901            3419     250.266E-03     268.222E-03
            2901            3420     191.572E-03     208.817E-03
            2902             509     124.987E-03     146.072E-03
            2902             510     183.418E-03     206.050E-03
            2902            3420     191.572E-03     208.817E-03
            2902            3421     134.867E-03     150.576E-03
            2903             508     69.3895E-03     86.9173E-03
            2903             509     124.987E-03     146.072E-03
            2903            3421     134.867E-03     150.576E-03
            2903            3422     83.1404E-03     96.8884E-03
            2904              18     42.7849E-03     57.9752E-03
            2904             462     59.0729E-03     71.8743E-03
            2904             508     69.3895E-03     86.9173E-03
            2904            3422     83.1404E-03     96.8884E-03
            4322              23     829.251E-03     848.444E-03
            4322             597     841.296E-03     856.736E-03
            4322             739     791.711E-03     803.419E-03
            4322            4567     788.519E-03     811.454E-03
            4323             739     791.711E-03     803.419E-03
            4323             740     737.591E-03     740.460E-03
            4323            4567     788.519E-03     811.454E-03
            4323            4568     702.573E-03     732.720E-03
            4324             740     737.591E-03     740.460E-03
            4324             741     696.265E-03     703.217E-03
            4324            4568     702.573E-03     732.720E-03
            4324            4569     645.432E-03     675.607E-03
            4325             741     696.265E-03     703.217E-03
            4325             742     649.755E-03     661.219E-03
            4325            4569     645.432E-03     675.607E-03
            4325            4570     596.525E-03     626.227E-03
            4326             742     649.755E-03     661.219E-03
            4326             743     602.610E-03     615.725E-03
            4326            4570     596.525E-03     626.227E-03
            4326            4571     546.812E-03     576.688E-03
            4327             743     602.610E-03     615.725E-03
            4327             744     552.845E-03     567.315E-03
            4327            4571     546.812E-03     576.688E-03
            4327            4572     497.452E-03     527.471E-03
            4328             744     552.845E-03     567.315E-03
            4328             745     502.604E-03     517.258E-03
            4328            4572     497.452E-03     527.471E-03
            4328            4573     447.904E-03     477.787E-03
            4329             745     502.604E-03     517.258E-03
            4329             746     451.564E-03     466.706E-03
            4329            4573     447.904E-03     477.787E-03
            4329            4574     398.376E-03     428.419E-03
            4330             746     451.564E-03     466.706E-03
            4330             747     400.569E-03     415.641E-03
            4330            4574     398.376E-03     428.419E-03
            4330            4575     348.980E-03     378.879E-03
            4331             747     400.569E-03     415.641E-03
            4331             748     349.524E-03     364.955E-03
            4331            4575     348.980E-03     378.879E-03
            4331            4576     299.677E-03     329.616E-03
            4332             748     349.524E-03     364.955E-03
            4332             749     299.139E-03     314.660E-03
            4332            4576     299.677E-03     329.616E-03
            4332            4577     250.608E-03     280.462E-03
            4333             749     299.139E-03     314.660E-03
            4333             750     249.583E-03     265.767E-03
            4333            4577     250.608E-03     280.462E-03
            4333            4578     202.011E-03     231.597E-03
            4334             750     249.583E-03     265.767E-03
            4334             751     202.507E-03     218.539E-03
            4334            4578     202.011E-03     231.597E-03
            4334            4579     154.385E-03     183.432E-03
            4335             751     202.507E-03     218.539E-03
            4335             752     159.269E-03     174.827E-03
            4335            4579     154.385E-03     183.432E-03
            4335            4580     109.086E-03     136.449E-03
            4336             752     159.269E-03     174.827E-03
            4336             753     120.895E-03     140.791E-03
            4336            4580     109.086E-03     136.449E-03
            4336            4581     73.9241E-03     89.9906E-03
            4337              22     103.087E-03     127.555E-03
            4337             753     120.895E-03     140.791E-03
            4337             754     60.4320E-03     66.8651E-03
            4337            4581     73.9241E-03     89.9906E-03
            4338             597     841.296E-03     856.736E-03
            4338             598     788.245E-03     781.636E-03
            4338            4567     788.519E-03     811.454E-03
            4338            4582     771.240E-03     774.524E-03
            4339            4567     788.519E-03     811.454E-03
            4339            4568     702.573E-03     732.720E-03
            4339            4582     771.240E-03     774.524E-03
            4339            4583     721.126E-03     734.764E-03
            4340            4568     702.573E-03     732.720E-03
            4340            4569     645.432E-03     675.607E-03
            4340            4583     721.126E-03     734.764E-03
            4340            4584     663.154E-03     675.131E-03
            4341            4569     645.432E-03     675.607E-03
            4341            4570     596.525E-03     626.227E-03
            4341            4584     663.154E-03     675.131E-03
            4341            4585     612.726E-03     622.891E-03
            4342            4570     596.525E-03     626.227E-03
            4342            4571     546.812E-03     576.688E-03
            4342            4585     612.726E-03     622.891E-03
            4342            4586     562.300E-03     572.020E-03
            4343            4571     546.812E-03     576.688E-03
            4343            4572     497.452E-03     527.471E-03
            4343            4586     562.300E-03     572.020E-03
            4343            4587     512.376E-03     521.999E-03
            4344            4572     497.452E-03     527.471E-03
            4344            4573     447.904E-03     477.787E-03
            4344            4587     512.376E-03     521.999E-03
            4344            4588     462.849E-03     472.653E-03
            4345            4573     447.904E-03     477.787E-03
            4345            4574     398.376E-03     428.419E-03
            4345            4588     462.849E-03     472.653E-03
            4345            4589     413.719E-03     423.415E-03
            4346            4574     398.376E-03     428.419E-03
            4346            4575     348.980E-03     378.879E-03
            4346            4589     413.719E-03     423.415E-03
            4346            4590     364.838E-03     374.600E-03
            4347            4575     348.980E-03     378.879E-03
            4347            4576     299.677E-03     329.616E-03
            4347            4590     364.838E-03     374.600E-03
            4347            4591     316.424E-03     326.071E-03
            4348            4576     299.677E-03     329.616E-03
            4348            4577     250.608E-03     280.462E-03
            4348            4591     316.424E-03     326.071E-03
            4348            4592     268.549E-03     278.114E-03
            4349            4577     250.608E-03     280.462E-03
            4349            4578     202.011E-03     231.597E-03
            4349            4592     268.549E-03     278.114E-03
            4349            4593     221.885E-03     230.884E-03
            4350            4578     202.011E-03     231.597E-03
            4350            4579     154.385E-03     183.432E-03
            4350            4593     221.885E-03     230.884E-03
            4350            4594     176.445E-03     185.293E-03
            4351            4579     154.385E-03     183.432E-03
            4351            4580     109.086E-03     136.449E-03
            4351            4594     176.445E-03     185.293E-03
            4351            4595     134.820E-03     144.211E-03
            4352            4580     109.086E-03     136.449E-03
            4352            4581     73.9241E-03     89.9906E-03
            4352            4595     134.820E-03     144.211E-03
            4352            4596     105.522E-03     108.859E-03
            4353             754     60.4320E-03     66.8651E-03
            4353             755     95.3981E-03     92.2799E-03
            4353            4581     73.9241E-03     89.9906E-03
            4353            4596     105.522E-03     108.859E-03
            4354             598     788.245E-03     781.636E-03
            4354             599     718.755E-03     715.605E-03
            4354            4582     771.240E-03     774.524E-03
            4354            4597     721.123E-03     714.905E-03
            4355            4582     771.240E-03     774.524E-03
            4355            4583     721.126E-03     734.764E-03
            4355            4597     721.123E-03     714.905E-03
            4355            4598     707.882E-03     696.894E-03
            4356            4583     721.126E-03     734.764E-03
            4356            4584     663.154E-03     675.131E-03
            4356            4598     707.882E-03     696.894E-03
            4356            4599     667.347E-03     656.563E-03
            4357            4584     663.154E-03     675.131E-03
            4357            4585     612.726E-03     622.891E-03
            4357            4599     667.347E-03     656.563E-03
            4357            4600     619.799E-03     609.770E-03
            4358            4585     612.726E-03     622.891E-03
            4358            4586     562.300E-03     572.020E-03
            4358            4600     619.799E-03     609.770E-03
            4358            4601     572.765E-03     562.401E-03
            4359            4586     562.300E-03     572.020E-03
            4359            4587     512.376E-03     521.999E-03
            4359            4601     572.765E-03     562.401E-03
            4359            4602     524.898E-03     514.885E-03
            4360            4587     512.376E-03     521.999E-03
            4360            4588     462.849E-03     472.653E-03
            4360            4602     524.898E-03     514.885E-03
            4360            4603     477.330E-03     467.201E-03
            4361            4588     462.849E-03     472.653E-03
            4361            4589     413.719E-03     423.415E-03
            4361            4603     477.330E-03     467.201E-03
            4361            4604     429.539E-03     419.584E-03
            4362            4589     413.719E-03     423.415E-03
            4362            4590     364.838E-03     374.600E-03
            4362            4604     429.539E-03     419.584E-03
            4362            4605     382.105E-03     372.185E-03
            4363            4590     364.838E-03     374.600E-03
            4363            4591     316.424E-03     326.071E-03
            4363            4605     382.105E-03     372.185E-03
            4363            4606     335.023E-03     325.333E-03
            4364            4591     316.424E-03     326.071E-03
            4364            4592     268.549E-03     278.114E-03
            4364            4606     335.023E-03     325.333E-03
            4364            4607     288.874E-03     279.331E-03
            4365            4592     268.549E-03     278.114E-03
            4365            4593     221.885E-03     230.884E-03
            4365            4607     288.874E-03     279.331E-03
            4365            4608     243.985E-03     235.003E-03
            4366            4593     221.885E-03     230.884E-03
            4366            4594     176.445E-03     185.293E-03
            4366            4608     243.985E-03     235.003E-03
            4366            4609     201.488E-03     193.203E-03
            4367            4594     176.445E-03     185.293E-03
            4367            4595     134.820E-03     144.211E-03
            4367            4609     201.488E-03     193.203E-03
            4367            4610     163.372E-03     157.537E-03
            4368            4595     134.820E-03     144.211E-03
            4368            4596     105.522E-03     108.859E-03
            4368            4610     163.372E-03     157.537E-03
            4368            4611     132.376E-03     135.038E-03
            4369             755     95.3981E-03     92.2799E-03
            4369             756     119.066E-03     128.037E-03
            4369            4596     105.522E-03     108.859E-03
            4369            4611     132.376E-03     135.038E-03
            4370             599     718.755E-03     715.605E-03
            4370             600     731.509E-03     747.340E-03
            4370            4597     721.123E-03     714.905E-03
            4370            4612     693.118E-03     699.827E-03
            4371            4597     721.123E-03     714.905E-03
            4371            4598     707.882E-03     696.894E-03
            4371            4612     693.118E-03     699.827E-03
            4371            4613     633.247E-03     627.775E-03
            4372            4598     707.882E-03     696.894E-03
            4372            4599     667.347E-03     656.563E-03
            4372            4613     633.247E-03     627.775E-03
            4372            4614     585.917E-03     580.300E-03
            4373            4599     667.347E-03     656.563E-03
            4373            4600     619.799E-03     609.770E-03
            4373            4614     585.917E-03     580.300E-03
            4373            4615     537.362E-03     533.539E-03
            4374            4600     619.799E-03     609.770E-03
            4374            4601     572.765E-03     562.401E-03
            4374            4615     537.362E-03     533.539E-03
            4374            4616     491.904E-03     489.502E-03
            4375            4601     572.765E-03     562.401E-03
            4375            4602     524.898E-03     514.885E-03
            4375            4616     491.904E-03     489.502E-03
            4375            4617     448.087E-03     447.372E-03
            4376            4602     524.898E-03     514.885E-03
            4376            4603     477.330E-03     467.201E-03
            4376            4617     448.087E-03     447.372E-03
            4376            4618     405.410E-03     405.367E-03
            4377            4603     477.330E-03     467.201E-03
            4377            4604     429.539E-03     419.584E-03
            4377            4618     405.410E-03     405.367E-03
            4377            4619     363.111E-03     364.151E-03
            4378            4604     429.539E-03     419.584E-03
            4378            4605     382.105E-03     372.185E-03
            4378            4619     363.111E-03     364.151E-03
            4378            4620     321.431E-03     322.829E-03
            4379            4605     382.105E-03     372.185E-03
            4379            4606     335.023E-03     325.333E-03
            4379            4620     321.431E-03     322.829E-03
            4379            4621     280.046E-03     281.996E-03
            4380            4606     335.023E-03     325.333E-03
            4380            4607     288.874E-03     279.331E-03
            4380            4621     280.046E-03     281.996E-03
            4380            4622     239.357E-03     241.493E-03
            4381            4607     288.874E-03     279.331E-03
            4381            4608     243.985E-03     235.003E-03
            4381            4622     239.357E-03     241.493E-03
            4381            4623     199.435E-03     201.955E-03
            4382            4608     243.985E-03     235.003E-03
            4382            4609     201.488E-03     193.203E-03
            4382            4623     199.435E-03     201.955E-03
            4382            4624     161.168E-03     163.917E-03
            4383            4609     201.488E-03     193.203E-03
            4383            4610     163.372E-03     157.537E-03
            4383            4624     161.168E-03     163.917E-03
            4383            4625     125.293E-03     129.393E-03
            4384            4610     163.372E-03     157.537E-03
            4384            4611     132.376E-03     135.038E-03
            4384            4625     125.293E-03     129.393E-03
            4384            4626     92.3803E-03     101.549E-03
            4385             756     119.066E-03     128.037E-03
            4385             757     76.7026E-03     89.8687E-03
            4385            4611     132.376E-03     135.038E-03
            4385            4626     92.3803E-03     101.549E-03
            4386             600     731.509E-03     747.340E-03
            4386             601     769.332E-03     773.748E-03
            4386            4612     693.118E-03     699.827E-03
            4386            4627     701.737E-03     711.779E-03
            4387            4612     693.118E-03     699.827E-03
            4387            4613     633.247E-03     627.775E-03
            4387            4627     701.737E-03     711.779E-03
            4387            4628     588.741E-03     603.339E-03
            4388            4613     633.247E-03     627.775E-03
            4388            4614     585.917E-03     580.300E-03
            4388            4628     588.741E-03     603.339E-03
            4388            4629     515.005E-03     528.772E-03
            4389            4614     585.917E-03     580.300E-03
            4389            4615     537.362E-03     533.539E-03
            4389            4629     515.005E-03     528.772E-03
            4389            4630     460.770E-03     475.510E-03
            4390            4615     537.362E-03     533.539E-03
            4390            4616     491.904E-03     489.502E-03
            4390            4630     460.770E-03     475.510E-03
            4390            4631     413.542E-03     429.919E-03
            4391            4616     491.904E-03     489.502E-03
            4391            4617     448.087E-03     447.372E-03
            4391            4631     413.542E-03     429.919E-03
            4391            4632     371.706E-03     389.629E-03
            4392            4617     448.087E-03     447.372E-03
            4392            4618     405.410E-03     405.367E-03
            4392            4632     371.706E-03     389.629E-03
            4392            4633     332.093E-03     351.322E-03
            4393            4618     405.410E-03     405.367E-03
            4393            4619     363.111E-03     364.151E-03
            4393            4633     332.093E-03     351.322E-03
            4393            4634     294.156E-03     314.340E-03
            4394            4619     363.111E-03     364.151E-03
            4394            4620     321.431E-03     322.829E-03
            4394            4634     294.156E-03     314.340E-03
            4394            4635     256.892E-03     277.645E-03
            4395            4620     321.431E-03     322.829E-03
            4395            4621     280.046E-03     281.996E-03
            4395            4635     256.892E-03     277.645E-03
            4395            4636     220.161E-03     241.156E-03
            4396            4621     280.046E-03     281.996E-03
            4396            4622     239.357E-03     241.493E-03
            4396            4636     220.161E-03     241.156E-03
            4396            4637     183.717E-03     204.525E-03
            4397            4622     239.357E-03     241.493E-03
            4397            4623     199.435E-03     201.955E-03
            4397            4637     183.717E-03     204.525E-03
            4397            4638     147.636E-03     167.890E-03
            4398            4623     199.435E-03     201.955E-03
            4398            4624     161.168E-03     163.917E-03
            4398            4638     147.636E-03     167.890E-03
            4398            4639     112.102E-03     131.216E-03
            4399            4624     161.168E-03     163.917E-03
            4399            4625     125.293E-03     129.393E-03
            4399            4639     112.102E-03     131.216E-03
            4399            4640     77.7069E-03     94.9260E-03
            4400            4625     125.293E-03     129.393E-03
            4400            4626     92.3803E-03     101.549E-03
            4400            4640     77.7069E-03     94.9260E-03
            4400            4641     47.4814E-03     60.5136E-03
            4401             757     76.7026E-03     89.8687E-03
            4401             758     34.0517E-03     44.0540E-03
            4401            4626     92.3803E-03     101.549E-03
            4401            4641     47.4814E-03     60.5136E-03
            4402             601     769.332E-03     773.748E-03
            4402             602     729.923E-03     726.679E-03
            4402            4627     701.737E-03     711.779E-03
            4402            4642     691.878E-03     694.116E-03
            4403            4627     701.737E-03     711.779E-03
            4403            4628     588.741E-03     603.339E-03
            4403            4642     691.878E-03     694.116E-03
            4403            4643     607.833E-03     619.322E-03
            4404            4628     588.741E-03     603.339E-03
            4404            4629     515.005E-03     528.772E-03
            4404            4643     607.833E-03     619.322E-03
            4404            4644     530.396E-03     546.790E-03
            4405            4629     515.005E-03     528.772E-03
            4405            4630     460.770E-03     475.510E-03
            4405            4644     530.396E-03     546.790E-03
            4405            4645     474.153E-03     491.360E-03
            4406            4630     460.770E-03     475.510E-03
            4406            4631     413.542E-03     429.919E-03
            4406            4645     474.153E-03     491.360E-03
            4406            4646     426.669E-03     443.959E-03
            4407            4631     413.542E-03     429.919E-03
            4407            4632     371.706E-03     389.629E-03
            4407            4646     426.669E-03     443.959E-03
            4407            4647     383.782E-03     401.368E-03
            4408            4632     371.706E-03     389.629E-03
            4408            4633     332.093E-03     351.322E-03
            4408            4647     383.782E-03     401.368E-03
            4408            4648     343.812E-03     361.374E-03
            4409            4633     332.093E-03     351.322E-03
            4409            4634     294.156E-03     314.340E-03
            4409            4648     343.812E-03     361.374E-03
            4409            4649     305.096E-03     322.735E-03
            4410            4634     294.156E-03     314.340E-03
            4410            4635     256.892E-03     277.645E-03
            4410            4649     305.096E-03     322.735E-03
            4410            4650     267.314E-03     284.866E-03
            4411            4635     256.892E-03     277.645E-03
            4411            4636     220.161E-03     241.156E-03
            4411            4650     267.314E-03     284.866E-03
            4411            4651     229.975E-03     247.332E-03
            4412            4636     220.161E-03     241.156E-03
            4412            4637     183.717E-03     204.525E-03
            4412            4651     229.975E-03     247.332E-03
            4412            4652     193.148E-03     210.093E-03
            4413            4637     183.717E-03     204.525E-03
            4413            4638     147.636E-03     167.890E-03
            4413            4652     193.148E-03     210.093E-03
            4413            4653     156.956E-03     173.036E-03
            4414            4638     147.636E-03     167.890E-03
            4414            4639     112.102E-03     131.216E-03
            4414            4653     156.956E-03     173.036E-03
            4414            4654     121.813E-03     136.481E-03
            4415            4639     112.102E-03     131.216E-03
            4415            4640     77.7069E-03     94.9260E-03
            4415            4654     121.813E-03     136.481E-03
            4415            4655     89.3398E-03     101.095E-03
            4416            4640     77.7069E-03     94.9260E-03
            4416            4641     47.4814E-03     60.5136E-03
            4416            4655     89.3398E-03     101.095E-03
            4416            4656     62.7169E-03     69.0026E-03
            4417             758     34.0517E-03     44.0540E-03
            4417             759     51.2997E-03     54.1900E-03
            4417            4641     47.4814E-03     60.5136E-03
            4417            4656     62.7169E-03     69.0026E-03
            4418             602     729.923E-03     726.679E-03
            4418             603     684.833E-03     696.319E-03
            4418            4642     691.878E-03     694.116E-03
            4418            4657     657.771E-03     668.409E-03
            4419            4642     691.878E-03     694.116E-03
            4419            4643     607.833E-03     619.322E-03
            4419            4657     657.771E-03     668.409E-03
            4419            4658     600.722E-03     612.237E-03
            4420            4643     607.833E-03     619.322E-03
            4420            4644     530.396E-03     546.790E-03
            4420            4658     600.722E-03     612.237E-03
            4420            4659     539.579E-03     554.769E-03
            4421            4644     530.396E-03     546.790E-03
            4421            4645     474.153E-03     491.360E-03
            4421            4659     539.579E-03     554.769E-03
            4421            4660     484.125E-03     501.574E-03
            4422            4645     474.153E-03     491.360E-03
            4422            4646     426.669E-03     443.959E-03
            4422            4660     484.125E-03     501.574E-03
            4422            4661     437.768E-03     455.010E-03
            4423            4646     426.669E-03     443.959E-03
            4423            4647     383.782E-03     401.368E-03
            4423            4661     437.768E-03     455.010E-03
            4423            4662     395.018E-03     411.542E-03
            4424            4647     383.782E-03     401.368E-03
            4424            4648     343.812E-03     361.374E-03
            4424            4662     395.018E-03     411.542E-03
            4424            4663     354.679E-03     370.524E-03
            4425            4648     343.812E-03     361.374E-03
            4425            4649     305.096E-03     322.735E-03
            4425            4663     354.679E-03     370.524E-03
            4425            4664     315.671E-03     330.794E-03
            4426            4649     305.096E-03     322.735E-03
            4426            4650     267.314E-03     284.866E-03
            4426            4664     315.671E-03     330.794E-03
            4426            4665     277.416E-03     292.046E-03
            4427            4650     267.314E-03     284.866E-03
            4427            4651     229.975E-03     247.332E-03
            4427            4665     277.416E-03     292.046E-03
            4427            4666     239.836E-03     253.961E-03
            4428            4651     229.975E-03     247.332E-03
            4428            4652     193.148E-03     210.093E-03
            4428            4666     239.836E-03     253.961E-03
            4428            4667     202.914E-03     216.440E-03
            4429            4652     193.148E-03     210.093E-03
            4429            4653     156.956E-03     173.036E-03
            4429            4667     202.914E-03     216.440E-03
            4429            4668     166.994E-03     179.641E-03
            4430            4653     156.956E-03     173.036E-03
            4430            4654     121.813E-03     136.481E-03
            4430            4668     166.994E-03     179.641E-03
            4430            4669     132.933E-03     143.784E-03
            4431            4654     121.813E-03     136.481E-03
            4431            4655     89.3398E-03     101.095E-03
            4431            4669     132.933E-03     143.784E-03
            4431            4670     102.280E-03     110.163E-03
            4432            4655     89.3398E-03     101.095E-03
            4432            4656     62.7169E-03     69.0026E-03
            4432            4670     102.280E-03     110.163E-03
            4432            4671     78.7769E-03     81.2790E-03
            4433             759     51.2997E-03     54.1900E-03
            4433             760     69.5530E-03     68.3765E-03
            4433            4656     62.7169E-03     69.0026E-03
            4433            4671     78.7769E-03     81.2790E-03
            4434             603     684.833E-03     696.319E-03
            4434             604     650.630E-03     650.838E-03
            4434            4657     657.771E-03     668.409E-03
            4434            4672     627.251E-03     632.878E-03
            4435            4657     657.771E-03     668.409E-03
            4435            4658     600.722E-03     612.237E-03
            4435            4672     627.251E-03     632.878E-03
            4435            4673     580.410E-03     593.345E-03
            4436            4658     600.722E-03     612.237E-03
            4436            4659     539.579E-03     554.769E-03
            4436            4673     580.410E-03     593.345E-03
            4436            4674     534.458E-03     549.624E-03
            4437            4659     539.579E-03     554.769E-03
            4437            4660     484.125E-03     501.574E-03
            4437            4674     534.458E-03     549.624E-03
            4437            4675     488.550E-03     504.588E-03
            4438            4660     484.125E-03     501.574E-03
            4438            4661     437.768E-03     455.010E-03
            4438            4675     488.550E-03     504.588E-03
            4438            4676     444.496E-03     460.438E-03
            4439            4661     437.768E-03     455.010E-03
            4439            4662     395.018E-03     411.542E-03
            4439            4676     444.496E-03     460.438E-03
            4439            4677     403.535E-03     418.142E-03
            4440            4662     395.018E-03     411.542E-03
            4440            4663     354.679E-03     370.524E-03
            4440            4677     403.535E-03     418.142E-03
            4440            4678     363.567E-03     376.934E-03
            4441            4663     354.679E-03     370.524E-03
            4441            4664     315.671E-03     330.794E-03
            4441            4678     363.567E-03     376.934E-03
            4441            4679     324.672E-03     337.013E-03
            4442            4664     315.671E-03     330.794E-03
            4442            4665     277.416E-03     292.046E-03
            4442            4679     324.672E-03     337.013E-03
            4442            4680     286.436E-03     297.977E-03
            4443            4665     277.416E-03     292.046E-03
            4443            4666     239.836E-03     253.961E-03
            4443            4680     286.436E-03     297.977E-03
            4443            4681     248.901E-03     259.917E-03
            4444            4666     239.836E-03     253.961E-03
            4444            4667     202.914E-03     216.440E-03
            4444            4681     248.901E-03     259.917E-03
            4444            4682     212.268E-03     222.778E-03
            4445            4667     202.914E-03     216.440E-03
            4445            4668     166.994E-03     179.641E-03
            4445            4682     212.268E-03     222.778E-03
            4445            4683     177.005E-03     186.695E-03
            4446            4668     166.994E-03     179.641E-03
            4446            4669     132.933E-03     143.784E-03
            4446            4683     177.005E-03     186.695E-03
            4446            4684     144.099E-03     152.379E-03
            4447            4669     132.933E-03     143.784E-03
            4447            4670     102.280E-03     110.163E-03
            4447            4684     144.099E-03     152.379E-03
            4447            4685     115.445E-03     120.673E-03
            4448            4670     102.280E-03     110.163E-03
            4448            4671     78.7769E-03     81.2790E-03
            4448            4685     115.445E-03     120.673E-03
            4448            4686     94.6228E-03     95.2611E-03
            4449             760     69.5530E-03     68.3765E-03
            4449             761     86.7335E-03     84.9525E-03
            4449            4671     78.7769E-03     81.2790E-03
            4449            4686     94.6228E-03     95.2611E-03
            4450             604     650.630E-03     650.838E-03
            4450             605     609.760E-03     615.627E-03
            4450            4672     627.251E-03     632.878E-03
            4450            4687     592.538E-03     599.684E-03
            4451            4672     627.251E-03     632.878E-03
            4451            4673     580.410E-03     593.345E-03
            4451            4687     592.538E-03     599.684E-03
            4451            4688     557.833E-03     568.831E-03
            4452            4673     580.410E-03     593.345E-03
            4452            4674     534.458E-03     549.624E-03
            4452            4688     557.833E-03     568.831E-03
            4452            4689     521.681E-03     536.253E-03
            4453            4674     534.458E-03     549.624E-03
            4453            4675     488.550E-03     504.588E-03
            4453            4689     521.681E-03     536.253E-03
            4453            4690     484.762E-03     499.351E-03
            4454            4675     488.550E-03     504.588E-03
            4454            4676     444.496E-03     460.438E-03
            4454            4690     484.762E-03     499.351E-03
            4454            4691     446.698E-03     459.785E-03
            4455            4676     444.496E-03     460.438E-03
            4455            4677     403.535E-03     418.142E-03
            4455            4691     446.698E-03     459.785E-03
            4455            4692     407.836E-03     419.452E-03
            4456            4677     403.535E-03     418.142E-03
            4456            4678     363.567E-03     376.934E-03
            4456            4692     407.836E-03     419.452E-03
            4456            4693     369.477E-03     379.497E-03
            4457            4678     363.567E-03     376.934E-03
            4457            4679     324.672E-03     337.013E-03
            4457            4693     369.477E-03     379.497E-03
            4457            4694     331.230E-03     340.140E-03
            4458            4679     324.672E-03     337.013E-03
            4458            4680     286.436E-03     297.977E-03
            4458            4694     331.230E-03     340.140E-03
            4458            4695     293.630E-03     301.780E-03
            4459            4680     286.436E-03     297.977E-03
            4459            4681     248.901E-03     259.917E-03
            4459            4695     293.630E-03     301.780E-03
            4459            4696     256.685E-03     264.401E-03
            4460            4681     248.901E-03     259.917E-03
            4460            4682     212.268E-03     222.778E-03
            4460            4696     256.685E-03     264.401E-03
            4460            4697     220.761E-03     228.369E-03
            4461            4682     212.268E-03     222.778E-03
            4461            4683     177.005E-03     186.695E-03
            4461            4697     220.761E-03     228.369E-03
            4461            4698     186.529E-03     193.889E-03
            4462            4683     177.005E-03     186.695E-03
            4462            4684     144.099E-03     152.379E-03
            4462            4698     186.529E-03     193.889E-03
            4462            4699     155.056E-03     161.349E-03
            4463            4684     144.099E-03     152.379E-03
            4463            4685     115.445E-03     120.673E-03
            4463            4699     155.056E-03     161.349E-03
            4463            4700     128.520E-03     132.612E-03
            4464            4685     115.445E-03     120.673E-03
            4464            4686     94.6228E-03     95.2611E-03
            4464            4700     128.520E-03     132.612E-03
            4464            4701     110.350E-03     109.724E-03
            4465             761     86.7335E-03     84.9525E-03
            4465             762     103.836E-03     99.9083E-03
            4465            4686     94.6228E-03     95.2611E-03
            4465            4701     110.350E-03     109.724E-03
            4466             605     609.760E-03     615.627E-03
            4466             606     573.282E-03     573.173E-03
            4466            4687     592.538E-03     599.684E-03
            4466            4702     558.409E-03     563.367E-03
            4467            4687     592.538E-03     599.684E-03
            4467            4688     557.833E-03     568.831E-03
            4467            4702     558.409E-03     563.367E-03
            4467            4703     530.963E-03     542.449E-03
            4468            4688     557.833E-03     568.831E-03
            4468            4689     521.681E-03     536.253E-03
            4468            4703     530.963E-03     542.449E-03
            4468            4704     505.194E-03     517.672E-03
            4469            4689     521.681E-03     536.253E-03
            4469            4690     484.762E-03     499.351E-03
            4469            4704     505.194E-03     517.672E-03
            4469            4705     476.073E-03     487.343E-03
            4470            4690     484.762E-03     499.351E-03
            4470            4691     446.698E-03     459.785E-03
            4470            4705     476.073E-03     487.343E-03
            4470            4706     443.257E-03     452.397E-03
            4471            4691     446.698E-03     459.785E-03
            4471            4692     407.836E-03     419.452E-03
            4471            4706     443.257E-03     452.397E-03
            4471            4707     408.018E-03     415.143E-03
            4472            4692     407.836E-03     419.452E-03
            4472            4693     369.477E-03     379.497E-03
            4472            4707     408.018E-03     415.143E-03
            4472            4708     371.488E-03     377.312E-03
            4473            4693     369.477E-03     379.497E-03
            4473            4694     331.230E-03     340.140E-03
            4473            4708     371.488E-03     377.312E-03
            4473            4709     334.945E-03     339.761E-03
            4474            4694     331.230E-03     340.140E-03
            4474            4695     293.630E-03     301.780E-03
            4474            4709     334.945E-03     339.761E-03
            4474            4710     298.569E-03     302.888E-03
            4475            4695     293.630E-03     301.780E-03
            4475            4696     256.685E-03     264.401E-03
            4475            4710     298.569E-03     302.888E-03
            4475            4711     262.981E-03     267.166E-03
            4476            4696     256.685E-03     264.401E-03
            4476            4697     220.761E-03     228.369E-03
            4476            4711     262.981E-03     267.166E-03
            4476            4712     228.429E-03     232.874E-03
            4477            4697     220.761E-03     228.369E-03
            4477            4698     186.529E-03     193.889E-03
            4477            4712     228.429E-03     232.874E-03
            4477            4713     195.556E-03     200.812E-03
            4478            4698     186.529E-03     193.889E-03
            4478            4699     155.056E-03     161.349E-03
            4478            4713     195.556E-03     200.812E-03
            4478            4714     165.962E-03     171.292E-03
            4479            4699     155.056E-03     161.349E-03
            4479            4700     128.520E-03     132.612E-03
            4479            4714     165.962E-03     171.292E-03
            4479            4715     141.623E-03     144.993E-03
            4480            4700     128.520E-03     132.612E-03
            4480            4701     110.350E-03     109.724E-03
            4480            4715     141.623E-03     144.993E-03
            4480            4716     125.628E-03     125.781E-03
            4481             762     103.836E-03     99.9083E-03
            4481             763     120.272E-03     118.657E-03
            4481            4701     110.350E-03     109.724E-03
            4481            4716     125.628E-03     125.781E-03
            4482             606     573.282E-03     573.173E-03
            4482             607     530.093E-03     531.776E-03
            4482            4702     558.409E-03     563.367E-03
            4482            4717     519.853E-03     524.990E-03
            4483            4702     558.409E-03     563.367E-03
            4483            4703     530.963E-03     542.449E-03
            4483            4717     519.853E-03     524.990E-03
            4483            4718     502.446E-03     511.770E-03
            4484            4703     530.963E-03     542.449E-03
            4484            4704     505.194E-03     517.672E-03
            4484            4718     502.446E-03     511.770E-03
            4484            4719     485.969E-03     494.412E-03
            4485            4704     505.194E-03     517.672E-03
            4485            4705     476.073E-03     487.343E-03
            4485            4719     485.969E-03     494.412E-03
            4485            4720     463.754E-03     469.040E-03
            4486            4705     476.073E-03     487.343E-03
            4486            4706     443.257E-03     452.397E-03
            4486            4720     463.754E-03     469.040E-03
            4486            4721     435.357E-03     438.401E-03
            4487            4706     443.257E-03     452.397E-03
            4487            4707     408.018E-03     415.143E-03
            4487            4721     435.357E-03     438.401E-03
            4487            4722     403.483E-03     405.101E-03
            4488            4707     408.018E-03     415.143E-03
            4488            4708     371.488E-03     377.312E-03
            4488            4722     403.483E-03     405.101E-03
            4488            4723     369.863E-03     370.570E-03
            4489            4708     371.488E-03     377.312E-03
            4489            4709     334.945E-03     339.761E-03
            4489            4723     369.863E-03     370.570E-03
            4489            4724     335.529E-03     335.871E-03
            4490            4709     334.945E-03     339.761E-03
            4490            4710     298.569E-03     302.888E-03
            4490            4724     335.529E-03     335.871E-03
            4490            4725     301.444E-03     301.627E-03
            4491            4710     298.569E-03     302.888E-03
            4491            4711     262.981E-03     267.166E-03
            4491            4725     301.444E-03     301.627E-03
            4491            4726     267.918E-03     268.353E-03
            4492            4711     262.981E-03     267.166E-03
            4492            4712     228.429E-03     232.874E-03
            4492            4726     267.918E-03     268.353E-03
            4492            4727     235.607E-03     236.675E-03
            4493            4712     228.429E-03     232.874E-03
            4493            4713     195.556E-03     200.812E-03
            4493            4727     235.607E-03     236.675E-03
            4493            4728     204.907E-03     207.349E-03
            4494            4713     195.556E-03     200.812E-03
            4494            4714     165.962E-03     171.292E-03
            4494            4728     204.907E-03     207.349E-03
            4494            4729     176.941E-03     181.942E-03
            4495            4714     165.962E-03     171.292E-03
            4495            4715     141.623E-03     144.993E-03
            4495            4729     176.941E-03     181.942E-03
            4495            4730     155.098E-03     159.941E-03
            4496            4715     141.623E-03     144.993E-03
            4496            4716     125.628E-03     125.781E-03
            4496            4730     155.098E-03     159.941E-03
            4496            4731     141.342E-03     141.784E-03
            4497             763     120.272E-03     118.657E-03
            4497             764     136.392E-03     134.175E-03
            4497            4716     125.628E-03     125.781E-03
            4497            4731     141.342E-03     141.784E-03
            4498             607     530.093E-03     531.776E-03
            4498             608     481.157E-03     479.012E-03
            4498            4717     519.853E-03     524.990E-03
            4498            4732     477.477E-03     478.853E-03
            4499            4717     519.853E-03     524.990E-03
            4499            4718     502.446E-03     511.770E-03
            4499            4732     477.477E-03     478.853E-03
            4499            4733     473.458E-03     475.838E-03
            4500            4718     502.446E-03     511.770E-03
            4500            4719     485.969E-03     494.412E-03
            4500            4733     473.458E-03     475.838E-03
            4500            4734     465.830E-03     464.190E-03
            4501            4719     485.969E-03     494.412E-03
            4501            4720     463.754E-03     469.040E-03
            4501            4734     465.830E-03     464.190E-03
            4501            4735     447.577E-03     443.760E-03
            4502            4720     463.754E-03     469.040E-03
            4502            4721     435.357E-03     438.401E-03
            4502            4735     447.577E-03     443.760E-03
            4502            4736     423.240E-03     418.452E-03
            4503            4721     435.357E-03     438.401E-03
            4503            4722     403.483E-03     405.101E-03
            4503            4736     423.240E-03     418.452E-03
            4503            4737     394.993E-03     390.121E-03
            4504            4722     403.483E-03     405.101E-03
            4504            4723     369.863E-03     370.570E-03
            4504            4737     394.993E-03     390.121E-03
            4504            4738     364.785E-03     360.187E-03
            4505            4723     369.863E-03     370.570E-03
            4505            4724     335.529E-03     335.871E-03
            4505            4738     364.785E-03     360.187E-03
            4505            4739     333.770E-03     329.522E-03
            4506            4724     335.529E-03     335.871E-03
            4506            4725     301.444E-03     301.627E-03
            4506            4739     333.770E-03     329.522E-03
            4506            4740     302.688E-03     298.940E-03
            4507            4725     301.444E-03     301.627E-03
            4507            4726     267.918E-03     268.353E-03
            4507            4740     302.688E-03     298.940E-03
            4507            4741     272.264E-03     269.005E-03
            4508            4726     267.918E-03     268.353E-03
            4508            4727     235.607E-03     236.675E-03
            4508            4741     272.264E-03     269.005E-03
            4508            4742     242.906E-03     240.534E-03
            4509            4727     235.607E-03     236.675E-03
            4509            4728     204.907E-03     207.349E-03
            4509            4742     242.906E-03     240.534E-03
            4509            4743     215.351E-03     214.394E-03
            4510            4728     204.907E-03     207.349E-03
            4510            4729     176.941E-03     181.942E-03
            4510            4743     215.351E-03     214.394E-03
            4510            4744     189.939E-03     192.332E-03
            4511            4729     176.941E-03     181.942E-03
            4511            4730     155.098E-03     159.941E-03
            4511            4744     189.939E-03     192.332E-03
            4511            4745     168.507E-03     176.688E-03
            4512            4730     155.098E-03     159.941E-03
            4512            4731     141.342E-03     141.784E-03
            4512            4745     168.507E-03     176.688E-03
            4512            4746     157.476E-03     163.911E-03
            4513             764     136.392E-03     134.175E-03
            4513             765     155.688E-03     157.134E-03
            4513            4731     141.342E-03     141.784E-03
            4513            4746     157.476E-03     163.911E-03
            4514             608     481.157E-03     479.012E-03
            4514             609     428.507E-03     410.300E-03
            4514            4732     477.477E-03     478.853E-03
            4514            4747     437.940E-03     420.319E-03
            4515            4732     477.477E-03     478.853E-03
            4515            4733     473.458E-03     475.838E-03
            4515            4747     437.940E-03     420.319E-03
            4515            4748     447.875E-03     430.258E-03
            4516            4733     473.458E-03     475.838E-03
            4516            4734     465.830E-03     464.190E-03
            4516            4748     447.875E-03     430.258E-03
            4516            4749     442.774E-03     425.361E-03
            4517            4734     465.830E-03     464.190E-03
            4517            4735     447.577E-03     443.760E-03
            4517            4749     442.774E-03     425.361E-03
            4517            4750     427.941E-03     412.407E-03
            4518            4735     447.577E-03     443.760E-03
            4518            4736     423.240E-03     418.452E-03
            4518            4750     427.941E-03     412.407E-03
            4518            4751     407.451E-03     394.236E-03
            4519            4736     423.240E-03     418.452E-03
            4519            4737     394.993E-03     390.121E-03
            4519            4751     407.451E-03     394.236E-03
            4519            4752     383.656E-03     372.474E-03
            4520            4737     394.993E-03     390.121E-03
            4520            4738     364.785E-03     360.187E-03
            4520            4752     383.656E-03     372.474E-03
            4520            4753     357.759E-03     348.284E-03
            4521            4738     364.785E-03     360.187E-03
            4521            4739     333.770E-03     329.522E-03
            4521            4753     357.759E-03     348.284E-03
            4521            4754     330.871E-03     322.772E-03
            4522            4739     333.770E-03     329.522E-03
            4522            4740     302.688E-03     298.940E-03
            4522            4754     330.871E-03     322.772E-03
            4522            4755     303.719E-03     296.642E-03
            4523            4740     302.688E-03     298.940E-03
            4523            4741     272.264E-03     269.005E-03
            4523            4755     303.719E-03     296.642E-03
            4523            4756     277.012E-03     270.784E-03
            4524            4741     272.264E-03     269.005E-03
            4524            4742     242.906E-03     240.534E-03
            4524            4756     277.012E-03     270.784E-03
            4524            4757     251.341E-03     245.897E-03
            4525            4742     242.906E-03     240.534E-03
            4525            4743     215.351E-03     214.394E-03
            4525            4757     251.341E-03     245.897E-03
            4525            4758     227.495E-03     223.104E-03
            4526            4743     215.351E-03     214.394E-03
            4526            4744     189.939E-03     192.332E-03
            4526            4758     227.495E-03     223.104E-03
            4526            4759     205.971E-03     203.548E-03
            4527            4744     189.939E-03     192.332E-03
            4527            4745     168.507E-03     176.688E-03
            4527            4759     205.971E-03     203.548E-03
            4527            4760     186.899E-03     190.582E-03
            4528            4745     168.507E-03     176.688E-03
            4528            4746     157.476E-03     163.911E-03
            4528            4760     186.899E-03     190.582E-03
            4528            4761     172.228E-03     186.650E-03
            4529             765     155.688E-03     157.134E-03
            4529             766     166.362E-03     186.807E-03
            4529            4746     157.476E-03     163.911E-03
            4529            4761     172.228E-03     186.650E-03
            4530             609     428.507E-03     410.300E-03
            4530             610     443.228E-03     451.984E-03
            4530            4747     437.940E-03     420.319E-03
            4530            4762     417.624E-03     418.971E-03
            4531            4747     437.940E-03     420.319E-03
            4531            4748     447.875E-03     430.258E-03
            4531            4762     417.624E-03     418.971E-03
            4531            4763     378.947E-03     371.794E-03
            4532            4748     447.875E-03     430.258E-03
            4532            4749     442.774E-03     425.361E-03
            4532            4763     378.947E-03     371.794E-03
            4532            4764     352.268E-03     345.952E-03
            4533            4749     442.774E-03     425.361E-03
            4533            4750     427.941E-03     412.407E-03
            4533            4764     352.268E-03     345.952E-03
            4533            4765     327.346E-03     323.558E-03
            4534            4750     427.941E-03     412.407E-03
            4534            4751     407.451E-03     394.236E-03
            4534            4765     327.346E-03     323.558E-03
            4534            4766     304.554E-03     302.896E-03
            4535            4751     407.451E-03     394.236E-03
            4535            4752     383.656E-03     372.474E-03
            4535            4766     304.554E-03     302.896E-03
            4535            4767     282.147E-03     282.653E-03
            4536            4752     383.656E-03     372.474E-03
            4536            4753     357.759E-03     348.284E-03
            4536            4767     282.147E-03     282.653E-03
            4536            4768     260.422E-03     262.397E-03
            4537            4753     357.759E-03     348.284E-03
            4537            4754     330.871E-03     322.772E-03
            4537            4768     260.422E-03     262.397E-03
            4537            4769     238.915E-03     242.061E-03
            4538            4754     330.871E-03     322.772E-03
            4538            4755     303.719E-03     296.642E-03
            4538            4769     238.915E-03     242.061E-03
            4538            4770     217.901E-03     221.717E-03
            4539            4755     303.719E-03     296.642E-03
            4539            4756     277.012E-03     270.784E-03
            4539            4770     217.901E-03     221.717E-03
            4539            4771     197.492E-03     201.739E-03
            4540            4756     277.012E-03     270.784E-03
            4540            4757     251.341E-03     245.897E-03
            4540            4771     197.492E-03     201.739E-03
            4540            4772     178.053E-03     182.317E-03
            4541            4757     251.341E-03     245.897E-03
            4541            4758     227.495E-03     223.104E-03
            4541            4772     178.053E-03     182.317E-03
            4541            4773     160.054E-03     164.369E-03
            4542            4758     227.495E-03     223.104E-03
            4542            4759     205.971E-03     203.548E-03
            4542            4773     160.054E-03     164.369E-03
            4542            4774     144.014E-03     148.104E-03
            4543            4759     205.971E-03     203.548E-03
            4543            4760     186.899E-03     190.582E-03
            4543            4774     144.014E-03     148.104E-03
            4543            4775     130.603E-03     135.954E-03
            4544            4760     186.899E-03     190.582E-03
            4544            4761     172.228E-03     186.650E-03
            4544            4775     130.603E-03     135.954E-03
            4544            4776     116.444E-03     131.311E-03
            4545             766     166.362E-03     186.807E-03
            4545             767     108.327E-03     131.093E-03
            4545            4761     172.228E-03     186.650E-03
            4545            4776     116.444E-03     131.311E-03
            4546             610     443.228E-03     451.984E-03
            4546             611     476.573E-03     484.783E-03
            4546            4762     417.624E-03     418.971E-03
            4546            4777     420.901E-03     432.955E-03
            4547            4762     417.624E-03     418.971E-03
            4547            4763     378.947E-03     371.794E-03
            4547            4777     420.901E-03     432.955E-03
            4547            4778     330.881E-03     345.706E-03
            4548            4763     378.947E-03     371.794E-03
            4548            4764     352.268E-03     345.952E-03
            4548            4778     330.881E-03     345.706E-03
            4548            4779     277.214E-03     290.832E-03
            4549            4764     352.268E-03     345.952E-03
            4549            4765     327.346E-03     323.558E-03
            4549            4779     277.214E-03     290.832E-03
            4549            4780     241.636E-03     255.115E-03
            4550            4765     327.346E-03     323.558E-03
            4550            4766     304.554E-03     302.896E-03
            4550            4780     241.636E-03     255.115E-03
            4550            4781     213.359E-03     227.237E-03
            4551            4766     304.554E-03     302.896E-03
            4551            4767     282.147E-03     282.653E-03
            4551            4781     213.359E-03     227.237E-03
            4551            4782     190.557E-03     204.900E-03
            4552            4767     282.147E-03     282.653E-03
            4552            4768     260.422E-03     262.397E-03
            4552            4782     190.557E-03     204.900E-03
            4552            4783     170.451E-03     185.134E-03
            4553            4768     260.422E-03     262.397E-03
            4553            4769     238.915E-03     242.061E-03
            4553            4783     170.451E-03     185.134E-03
            4553            4784     152.355E-03     167.215E-03
            4554            4769     238.915E-03     242.061E-03
            4554            4770     217.901E-03     221.717E-03
            4554            4784     152.355E-03     167.215E-03
            4554            4785     135.407E-03     150.175E-03
            4555            4770     217.901E-03     221.717E-03
            4555            4771     197.492E-03     201.739E-03
            4555            4785     135.407E-03     150.175E-03
            4555            4786     119.485E-03     133.916E-03
            4556            4771     197.492E-03     201.739E-03
            4556            4772     178.053E-03     182.317E-03
            4556            4786     119.485E-03     133.916E-03
            4556            4787     104.455E-03     118.263E-03
            4557            4772     178.053E-03     182.317E-03
            4557            4773     160.054E-03     164.369E-03
            4557            4787     104.455E-03     118.263E-03
            4557            4788     90.6043E-03     103.497E-03
            4558            4773     160.054E-03     164.369E-03
            4558            4774     144.014E-03     148.104E-03
            4558            4788     90.6043E-03     103.497E-03
            4558            4789     78.2851E-03     89.9680E-03
            4559            4774     144.014E-03     148.104E-03
            4559            4775     130.603E-03     135.954E-03
            4559            4789     78.2851E-03     89.9680E-03
            4559            4790     67.9045E-03     78.8532E-03
            4560            4775     130.603E-03     135.954E-03
            4560            4776     116.444E-03     131.311E-03
            4560            4790     67.9045E-03     78.8532E-03
            4560            4791     62.0270E-03     71.0928E-03
            4561             767     108.327E-03     131.093E-03
            4561             768     60.7793E-03     68.1282E-03
            4561            4776     116.444E-03     131.311E-03
            4561            4791     62.0270E-03     71.0928E-03
            4562             611     476.573E-03     484.783E-03
            4562             612     436.047E-03     433.300E-03
            4562            4777     420.901E-03     432.955E-03
            4562            4792     404.812E-03     405.554E-03
            4563            4777     420.901E-03     432.955E-03
            4563            4778     330.881E-03     345.706E-03
            4563            4792     404.812E-03     405.554E-03
            4563            4793     339.495E-03     346.749E-03
            4564            4778     330.881E-03     345.706E-03
            4564            4779     277.214E-03     290.832E-03
            4564            4793     339.495E-03     346.749E-03
            4564            4794     284.085E-03     295.508E-03
            4565            4779     277.214E-03     290.832E-03
            4565            4780     241.636E-03     255.115E-03
            4565            4794     284.085E-03     295.508E-03
            4565            4795     247.962E-03     260.415E-03
            4566            4780     241.636E-03     255.115E-03
            4566            4781     213.359E-03     227.237E-03
            4566            4795     247.962E-03     260.415E-03
            4566            4796     220.532E-03     233.186E-03
            4567            4781     213.359E-03     227.237E-03
            4567            4782     190.557E-03     204.900E-03
            4567            4796     220.532E-03     233.186E-03
            4567            4797     197.787E-03     210.670E-03
            4568            4782     190.557E-03     204.900E-03
            4568            4783     170.451E-03     185.134E-03
            4568            4797     197.787E-03     210.670E-03
            4568            4798     178.208E-03     190.948E-03
            4569            4783     170.451E-03     185.134E-03
            4569            4784     152.355E-03     167.215E-03
            4569            4798     178.208E-03     190.948E-03
            4569            4799     160.236E-03     172.786E-03
            4570            4784     152.355E-03     167.215E-03
            4570            4785     135.407E-03     150.175E-03
            4570            4799     160.236E-03     172.786E-03
            4570            4800     143.568E-03     155.720E-03
            4571            4785     135.407E-03     150.175E-03
            4571            4786     119.485E-03     133.916E-03
            4571            4800     143.568E-03     155.720E-03
            4571            4801     127.813E-03     139.400E-03
            4572            4786     119.485E-03     133.916E-03
            4572            4787     104.455E-03     118.263E-03
            4572            4801     127.813E-03     139.400E-03
            4572            4802     113.118E-03     123.902E-03
            4573            4787     104.455E-03     118.263E-03
            4573            4788     90.6043E-03     103.497E-03
            4573            4802     113.118E-03     123.902E-03
            4573            4803     99.7455E-03     109.347E-03
            4574            4788     90.6043E-03     103.497E-03
            4574            4789     78.2851E-03     89.9680E-03
            4574            4803     99.7455E-03     109.347E-03
            4574            4804     88.0761E-03     96.3391E-03
            4575            4789     78.2851E-03     89.9680E-03
            4575            4790     67.9045E-03     78.8532E-03
            4575            4804     88.0761E-03     96.3391E-03
            4575            4805     79.5526E-03     85.3569E-03
            4576            4790     67.9045E-03     78.8532E-03
            4576            4791     62.0270E-03     71.0928E-03
            4576            4805     79.5526E-03     85.3569E-03
            4576            4806     76.3662E-03     76.5854E-03
            4577             768     60.7793E-03     68.1282E-03
            4577             769     76.3022E-03     72.7399E-03
            4577            4791     62.0270E-03     71.0928E-03
            4577            4806     76.3662E-03     76.5854E-03
            4578             612     436.047E-03     433.300E-03
            4578             613     390.859E-03     398.830E-03
            4578            4792     404.812E-03     405.554E-03
            4578            4807     369.125E-03     375.465E-03
            4579            4792     404.812E-03     405.554E-03
            4579            4793     339.495E-03     346.749E-03
            4579            4807     369.125E-03     375.465E-03
            4579            4808     326.450E-03     332.239E-03
            4580            4793     339.495E-03     346.749E-03
            4580            4794     284.085E-03     295.508E-03
            4580            4808     326.450E-03     332.239E-03
            4580            4809     285.660E-03     294.080E-03
            4581            4794     284.085E-03     295.508E-03
            4581            4795     247.962E-03     260.415E-03
            4581            4809     285.660E-03     294.080E-03
            4581            4810     251.815E-03     262.520E-03
            4582            4795     247.962E-03     260.415E-03
            4582            4796     220.532E-03     233.186E-03
            4582            4810     251.815E-03     262.520E-03
            4582            4811     226.497E-03     237.705E-03
            4583            4796     220.532E-03     233.186E-03
            4583            4797     197.787E-03     210.670E-03
            4583            4811     226.497E-03     237.705E-03
            4583            4812     204.986E-03     216.042E-03
            4584            4797     197.787E-03     210.670E-03
            4584            4798     178.208E-03     190.948E-03
            4584            4812     204.986E-03     216.042E-03
            4584            4813     185.835E-03     196.629E-03
            4585            4798     178.208E-03     190.948E-03
            4585            4799     160.236E-03     172.786E-03
            4585            4813     185.835E-03     196.629E-03
            4585            4814     168.237E-03     178.500E-03
            4586            4799     160.236E-03     172.786E-03
            4586            4800     143.568E-03     155.720E-03
            4586            4814     168.237E-03     178.500E-03
            4586            4815     151.628E-03     161.343E-03
            4587            4800     143.568E-03     155.720E-03
            4587            4801     127.813E-03     139.400E-03
            4587            4815     151.628E-03     161.343E-03
            4587            4816     136.034E-03     145.024E-03
            4588            4801     127.813E-03     139.400E-03
            4588            4802     113.118E-03     123.902E-03
            4588            4816     136.034E-03     145.024E-03
            4588            4817     121.572E-03     129.575E-03
            4589            4802     113.118E-03     123.902E-03
            4589            4803     99.7455E-03     109.347E-03
            4589            4817     121.572E-03     129.575E-03
            4589            4818     108.580E-03     115.240E-03
            4590            4803     99.7455E-03     109.347E-03
            4590            4804     88.0761E-03     96.3391E-03
            4590            4818     108.580E-03     115.240E-03
            4590            4819     97.8500E-03     102.420E-03
            4591            4804     88.0761E-03     96.3391E-03
            4591            4805     79.5526E-03     85.3569E-03
            4591            4819     97.8500E-03     102.420E-03
            4591            4820     90.5793E-03     91.3508E-03
            4592            4805     79.5526E-03     85.3569E-03
            4592            4806     76.3662E-03     76.5854E-03
            4592            4820     90.5793E-03     91.3508E-03
            4592            4821     86.3715E-03     83.6163E-03
            4593             769     76.3022E-03     72.7399E-03
            4593             770     84.8558E-03     81.0049E-03
            4593            4806     76.3662E-03     76.5854E-03
            4593            4821     86.3715E-03     83.6163E-03
            4594             613     390.859E-03     398.830E-03
            4594             614     356.028E-03     355.757E-03
            4594            4807     369.125E-03     375.465E-03
            4594            4822     337.490E-03     340.074E-03
            4595            4807     369.125E-03     375.465E-03
            4595            4808     326.450E-03     332.239E-03
            4595            4822     337.490E-03     340.074E-03
            4595            4823     303.832E-03     310.229E-03
            4596            4808     326.450E-03     332.239E-03
            4596            4809     285.660E-03     294.080E-03
            4596            4823     303.832E-03     310.229E-03
            4596            4824     276.187E-03     284.033E-03
            4597            4809     285.660E-03     294.080E-03
            4597            4810     251.815E-03     262.520E-03
            4597            4824     276.187E-03     284.033E-03
            4597            4825     251.609E-03     260.500E-03
            4598            4810     251.815E-03     262.520E-03
            4598            4811     226.497E-03     237.705E-03
            4598            4825     251.609E-03     260.500E-03
            4598            4826     229.686E-03     239.162E-03
            4599            4811     226.497E-03     237.705E-03
            4599            4812     204.986E-03     216.042E-03
            4599            4826     229.686E-03     239.162E-03
            4599            4827     210.575E-03     219.701E-03
            4600            4812     204.986E-03     216.042E-03
            4600            4813     185.835E-03     196.629E-03
            4600            4827     210.575E-03     219.701E-03
            4600            4828     192.531E-03     201.082E-03
            4601            4813     185.835E-03     196.629E-03
            4601            4814     168.237E-03     178.500E-03
            4601            4828     192.531E-03     201.082E-03
            4601            4829     175.409E-03     183.361E-03
            4602            4814     168.237E-03     178.500E-03
            4602            4815     151.628E-03     161.343E-03
            4602            4829     175.409E-03     183.361E-03
            4602            4830     159.055E-03     166.349E-03
            4603            4815     151.628E-03     161.343E-03
            4603            4816     136.034E-03     145.024E-03
            4603            4830     159.055E-03     166.349E-03
            4603            4831     143.615E-03     150.173E-03
            4604            4816     136.034E-03     145.024E-03
            4604            4817     121.572E-03     129.575E-03
            4604            4831     143.615E-03     150.173E-03
            4604            4832     129.344E-03     134.925E-03
            4605            4817     121.572E-03     129.575E-03
            4605            4818     108.580E-03     115.240E-03
            4605            4832     129.344E-03     134.925E-03
            4605            4833     116.778E-03     120.911E-03
            4606            4818     108.580E-03     115.240E-03
            4606            4819     97.8500E-03     102.420E-03
            4606            4833     116.778E-03     120.911E-03
            4606            4834     106.625E-03     108.300E-03
            4607            4819     97.8500E-03     102.420E-03
            4607            4820     90.5793E-03     91.3508E-03
            4607            4834     106.625E-03     108.300E-03
            4607            4835     99.1570E-03     98.1820E-03
            4608            4820     90.5793E-03     91.3508E-03
            4608            4821     86.3715E-03     83.6163E-03
            4608            4835     99.1570E-03     98.1820E-03
            4608            4836     95.1421E-03     91.3966E-03
            4609             770     84.8558E-03     81.0049E-03
            4609             771     94.1436E-03     88.7723E-03
            4609            4821     86.3715E-03     83.6163E-03
            4609            4836     95.1421E-03     91.3966E-03
            4610             614     356.028E-03     355.757E-03
            4610             615     317.485E-03     320.835E-03
            4610            4822     337.490E-03     340.074E-03
            4610            4837     304.124E-03     307.375E-03
            4611            4822     337.490E-03     340.074E-03
            4611            4823     303.832E-03     310.229E-03
            4611            4837     304.124E-03     307.375E-03
            4611            4838     280.560E-03     285.424E-03
            4612            4823     303.832E-03     310.229E-03
            4612            4824     276.187E-03     284.033E-03
            4612            4838     280.560E-03     285.424E-03
            4612            4839     261.896E-03     269.230E-03
            4613            4824     276.187E-03     284.033E-03
            4613            4825     251.609E-03     260.500E-03
            4613            4839     261.896E-03     269.230E-03
            4613            4840     245.964E-03     253.807E-03
            4614            4825     251.609E-03     260.500E-03
            4614            4826     229.686E-03     239.162E-03
            4614            4840     245.964E-03     253.807E-03
            4614            4841     230.137E-03     237.569E-03
            4615            4826     229.686E-03     239.162E-03
            4615            4827     210.575E-03     219.701E-03
            4615            4841     230.137E-03     237.569E-03
            4615            4842     213.784E-03     220.656E-03
            4616            4827     210.575E-03     219.701E-03
            4616            4828     192.531E-03     201.082E-03
            4616            4842     213.784E-03     220.656E-03
            4616            4843     197.504E-03     203.576E-03
            4617            4828     192.531E-03     201.082E-03
            4617            4829     175.409E-03     183.361E-03
            4617            4843     197.504E-03     203.576E-03
            4617            4844     181.146E-03     186.564E-03
            4618            4829     175.409E-03     183.361E-03
            4618            4830     159.055E-03     166.349E-03
            4618            4844     181.146E-03     186.564E-03
            4618            4845     165.271E-03     170.099E-03
            4619            4830     159.055E-03     166.349E-03
            4619            4831     143.615E-03     150.173E-03
            4619            4845     165.271E-03     170.099E-03
            4619            4846     150.096E-03     154.361E-03
            4620            4831     143.615E-03     150.173E-03
            4620            4832     129.344E-03     134.925E-03
            4620            4846     150.096E-03     154.361E-03
            4620            4847     136.147E-03     139.648E-03
            4621            4832     129.344E-03     134.925E-03
            4621            4833     116.778E-03     120.911E-03
            4621            4847     136.147E-03     139.648E-03
            4621            4848     123.901E-03     126.119E-03
            4622            4833     116.778E-03     120.911E-03
            4622            4834     106.625E-03     108.300E-03
            4622            4848     123.901E-03     126.119E-03
            4622            4849     113.919E-03     114.399E-03
            4623            4834     106.625E-03     108.300E-03
            4623            4835     99.1570E-03     98.1820E-03
            4623            4849     113.919E-03     114.399E-03
            4623            4850     106.887E-03     104.855E-03
            4624            4835     99.1570E-03     98.1820E-03
            4624            4836     95.1421E-03     91.3966E-03
            4624            4850     106.887E-03     104.855E-03
            4624            4851     102.946E-03     98.5909E-03
            4625             771     94.1436E-03     88.7723E-03
            4625             772     101.726E-03     96.5705E-03
            4625            4836     95.1421E-03     91.3966E-03
            4625            4851     102.946E-03     98.5909E-03
            4626             615     317.485E-03     320.835E-03
            4626             616     283.458E-03     282.468E-03
            4626            4837     304.124E-03     307.375E-03
            4626            4852     271.837E-03     273.531E-03
            4627            4837     304.124E-03     307.375E-03
            4627            4838     280.560E-03     285.424E-03
            4627            4852     271.837E-03     273.531E-03
            4627            4853     255.041E-03     260.243E-03
            4628            4838     280.560E-03     285.424E-03
            4628            4839     261.896E-03     269.230E-03
            4628            4853     255.041E-03     260.243E-03
            4628            4854     246.233E-03     252.448E-03
            4629            4839     261.896E-03     269.230E-03
            4629            4840     245.964E-03     253.807E-03
            4629            4854     246.233E-03     252.448E-03
            4629            4855     237.867E-03     244.095E-03
            4630            4840     245.964E-03     253.807E-03
            4630            4841     230.137E-03     237.569E-03
            4630            4855     237.867E-03     244.095E-03
            4630            4856     227.595E-03     232.799E-03
            4631            4841     230.137E-03     237.569E-03
            4631            4842     213.784E-03     220.656E-03
            4631            4856     227.595E-03     232.799E-03
            4631            4857     214.803E-03     218.812E-03
            4632            4842     213.784E-03     220.656E-03
            4632            4843     197.504E-03     203.576E-03
            4632            4857     214.803E-03     218.812E-03
            4632            4858     200.184E-03     203.442E-03
            4633            4843     197.504E-03     203.576E-03
            4633            4844     181.146E-03     186.564E-03
            4633            4858     200.184E-03     203.442E-03
            4633            4859     185.074E-03     187.693E-03
            4634            4844     181.146E-03     186.564E-03
            4634            4845     165.271E-03     170.099E-03
            4634            4859     185.074E-03     187.693E-03
            4634            4860     169.872E-03     172.123E-03
            4635            4845     165.271E-03     170.099E-03
            4635            4846     150.096E-03     154.361E-03
            4635            4860     169.872E-03     172.123E-03
            4635            4861     155.298E-03     157.279E-03
            4636            4846     150.096E-03     154.361E-03
            4636            4847     136.147E-03     139.648E-03
            4636            4861     155.298E-03     157.279E-03
            4636            4862     141.746E-03     143.485E-03
            4637            4847     136.147E-03     139.648E-03
            4637            4848     123.901E-03     126.119E-03
            4637            4862     141.746E-03     143.485E-03
            4637            4863     129.894E-03     131.032E-03
            4638            4848     123.901E-03     126.119E-03
            4638            4849     113.919E-03     114.399E-03
            4638            4863     129.894E-03     131.032E-03
            4638            4864     120.309E-03     120.139E-03
            4639            4849     113.919E-03     114.399E-03
            4639            4850     106.887E-03     104.855E-03
            4639            4864     120.309E-03     120.139E-03
            4639            4865     113.615E-03     111.615E-03
            4640            4850     106.887E-03     104.855E-03
            4640            4851     102.946E-03     98.5909E-03
            4640            4865     113.615E-03     111.615E-03
            4640            4866     110.126E-03     105.718E-03
            4641             772     101.726E-03     96.5705E-03
            4641             773     109.160E-03     103.361E-03
            4641            4851     102.946E-03     98.5909E-03
            4641            4866     110.126E-03     105.718E-03
            4642             616     283.458E-03     282.468E-03
            4642             617     245.053E-03     245.024E-03
            4642            4852     271.837E-03     273.531E-03
            4642            4867     237.709E-03     239.014E-03
            4643            4852     271.837E-03     273.531E-03
            4643            4853     255.041E-03     260.243E-03
            4643            4867     237.709E-03     239.014E-03
            4643            4868     229.564E-03     233.713E-03
            4644            4853     255.041E-03     260.243E-03
            4644            4854     246.233E-03     252.448E-03
            4644            4868     229.564E-03     233.713E-03
            4644            4869     229.503E-03     234.723E-03
            4645            4854     246.233E-03     252.448E-03
            4645            4855     237.867E-03     244.095E-03
            4645            4869     229.503E-03     234.723E-03
            4645            4870     229.035E-03     232.567E-03
            4646            4855     237.867E-03     244.095E-03
            4646            4856     227.595E-03     232.799E-03
            4646            4870     229.035E-03     232.567E-03
            4646            4871     223.299E-03     225.106E-03
            4647            4856     227.595E-03     232.799E-03
            4647            4857     214.803E-03     218.812E-03
            4647            4871     223.299E-03     225.106E-03
            4647            4872     213.171E-03     213.878E-03
            4648            4857     214.803E-03     218.812E-03
            4648            4858     200.184E-03     203.442E-03
            4648            4872     213.171E-03     213.878E-03
            4648            4873     200.667E-03     200.589E-03
            4649            4858     200.184E-03     203.442E-03
            4649            4859     185.074E-03     187.693E-03
            4649            4873     200.667E-03     200.589E-03
            4649            4874     186.833E-03     186.437E-03
            4650            4859     185.074E-03     187.693E-03
            4650            4860     169.872E-03     172.123E-03
            4650            4874     186.833E-03     186.437E-03
            4650            4875     172.833E-03     172.337E-03
            4651            4860     169.872E-03     172.123E-03
            4651            4861     155.298E-03     157.279E-03
            4651            4875     172.833E-03     172.337E-03
            4651            4876     159.160E-03     158.814E-03
            4652            4861     155.298E-03     157.279E-03
            4652            4862     141.746E-03     143.485E-03
            4652            4876     159.160E-03     158.814E-03
            4652            4877     146.374E-03     146.386E-03
            4653            4862     141.746E-03     143.485E-03
            4653            4863     129.894E-03     131.032E-03
            4653            4877     146.374E-03     146.386E-03
            4653            4878     134.981E-03     135.507E-03
            4654            4863     129.894E-03     131.032E-03
            4654            4864     120.309E-03     120.139E-03
            4654            4878     134.981E-03     135.507E-03
            4654            4879     125.976E-03     126.065E-03
            4655            4864     120.309E-03     120.139E-03
            4655            4865     113.615E-03     111.615E-03
            4655            4879     125.976E-03     126.065E-03
            4655            4880     119.724E-03     118.240E-03
            4656            4865     113.615E-03     111.615E-03
            4656            4866     110.126E-03     105.718E-03
            4656            4880     119.724E-03     118.240E-03
            4656            4881     116.726E-03     113.479E-03
            4657             773     109.160E-03     103.361E-03
            4657             774     116.188E-03     112.059E-03
            4657            4866     110.126E-03     105.718E-03
            4657            4881     116.726E-03     113.479E-03
            4658             617     245.053E-03     245.024E-03
            4658             618     207.640E-03     203.386E-03
            4658            4867     237.709E-03     239.014E-03
            4658            4882     202.214E-03     201.981E-03
            4659            4867     237.709E-03     239.014E-03
            4659            4868     229.564E-03     233.713E-03
            4659            4882     202.214E-03     201.981E-03
            4659            4883     203.027E-03     206.660E-03
            4660            4868     229.564E-03     233.713E-03
            4660            4869     229.503E-03     234.723E-03
            4660            4883     203.027E-03     206.660E-03
            4660            4884     214.648E-03     216.263E-03
            4661            4869     229.503E-03     234.723E-03
            4661            4870     229.035E-03     232.567E-03
            4661            4884     214.648E-03     216.263E-03
            4661            4885     219.829E-03     218.770E-03
            4662            4870     229.035E-03     232.567E-03
            4662            4871     223.299E-03     225.106E-03
            4662            4885     219.829E-03     218.770E-03
            4662            4886     216.938E-03     214.354E-03
            4663            4871     223.299E-03     225.106E-03
            4663            4872     213.171E-03     213.878E-03
            4663            4886     216.938E-03     214.354E-03
            4663            4887     209.266E-03     205.864E-03
            4664            4872     213.171E-03     213.878E-03
            4664            4873     200.667E-03     200.589E-03
            4664            4887     209.266E-03     205.864E-03
            4664            4888     198.622E-03     194.984E-03
            4665            4873     200.667E-03     200.589E-03
            4665            4874     186.833E-03     186.437E-03
            4665            4888     198.622E-03     194.984E-03
            4665            4889     186.665E-03     183.054E-03
            4666            4874     186.833E-03     186.437E-03
            4666            4875     172.833E-03     172.337E-03
            4666            4889     186.665E-03     183.054E-03
            4666            4890     174.218E-03     170.907E-03
            4667            4875     172.833E-03     172.337E-03
            4667            4876     159.160E-03     158.814E-03
            4667            4890     174.218E-03     170.907E-03
            4667            4891     161.992E-03     159.254E-03
            4668            4876     159.160E-03     158.814E-03
            4668            4877     146.374E-03     146.386E-03
            4668            4891     161.992E-03     159.254E-03
            4668            4892     150.455E-03     148.575E-03
            4669            4877     146.374E-03     146.386E-03
            4669            4878     134.981E-03     135.507E-03
            4669            4892     150.455E-03     148.575E-03
            4669            4893     139.895E-03     139.418E-03
            4670            4878     134.981E-03     135.507E-03
            4670            4879     125.976E-03     126.065E-03
            4670            4893     139.895E-03     139.418E-03
            4670            4894     130.993E-03     132.379E-03
            4671            4879     125.976E-03     126.065E-03
            4671            4880     119.724E-03     118.240E-03
            4671            4894     130.993E-03     132.379E-03
            4671            4895     125.634E-03     126.197E-03
            4672            4880     119.724E-03     118.240E-03
            4672            4881     116.726E-03     113.479E-03
            4672            4895     125.634E-03     126.197E-03
            4672            4896     123.247E-03     120.820E-03
            4673             774     116.188E-03     112.059E-03
            4673             775     122.416E-03     118.706E-03
            4673            4881     116.726E-03     113.479E-03
            4673            4896     123.247E-03     120.820E-03
            4674             618     207.640E-03     203.386E-03
            4674             619     162.589E-03     159.133E-03
            4674            4882     202.214E-03     201.981E-03
            4674            4897     164.151E-03     162.729E-03
            4675            4882     202.214E-03     201.981E-03
            4675            4883     203.027E-03     206.660E-03
            4675            4897     164.151E-03     162.729E-03
            4675            4898     180.940E-03     178.830E-03
            4676            4883     203.027E-03     206.660E-03
            4676            4884     214.648E-03     216.263E-03
            4676            4898     180.940E-03     178.830E-03
            4676            4899     201.965E-03     195.921E-03
            4677            4884     214.648E-03     216.263E-03
            4677            4885     219.829E-03     218.770E-03
            4677            4899     201.965E-03     195.921E-03
            4677            4900     208.978E-03     201.347E-03
            4678            4885     219.829E-03     218.770E-03
            4678            4886     216.938E-03     214.354E-03
            4678            4900     208.978E-03     201.347E-03
            4678            4901     208.283E-03     200.321E-03
            4679            4886     216.938E-03     214.354E-03
            4679            4887     209.266E-03     205.864E-03
            4679            4901     208.283E-03     200.321E-03
            4679            4902     202.792E-03     195.017E-03
            4680            4887     209.266E-03     205.864E-03
            4680            4888     198.622E-03     194.984E-03
            4680            4902     202.792E-03     195.017E-03
            4680            4903     194.553E-03     187.255E-03
            4681            4888     198.622E-03     194.984E-03
            4681            4889     186.665E-03     183.054E-03
            4681            4903     194.553E-03     187.255E-03
            4681            4904     184.861E-03     178.181E-03
            4682            4889     186.665E-03     183.054E-03
            4682            4890     174.218E-03     170.907E-03
            4682            4904     184.861E-03     178.181E-03
            4682            4905     174.607E-03     168.638E-03
            4683            4890     174.218E-03     170.907E-03
            4683            4891     161.992E-03     159.254E-03
            4683            4905     174.607E-03     168.638E-03
            4683            4906     164.365E-03     159.250E-03
            4684            4891     161.992E-03     159.254E-03
            4684            4892     150.455E-03     148.575E-03
            4684            4906     164.365E-03     159.250E-03
            4684            4907     154.525E-03     150.643E-03
            4685            4892     150.455E-03     148.575E-03
            4685            4893     139.895E-03     139.418E-03
            4685            4907     154.525E-03     150.643E-03
            4685            4908     145.471E-03     143.263E-03
            4686            4893     139.895E-03     139.418E-03
            4686            4894     130.993E-03     132.379E-03
            4686            4908     145.471E-03     143.263E-03
            4686            4909     137.079E-03     138.041E-03
            4687            4894     130.993E-03     132.379E-03
            4687            4895     125.634E-03     126.197E-03
            4687            4909     137.079E-03     138.041E-03
            4687            4910     130.475E-03     135.587E-03
            4688            4895     125.634E-03     126.197E-03
            4688            4896     123.247E-03     120.820E-03
            4688            4910     130.475E-03     135.587E-03
            4688            4911     129.636E-03     132.442E-03
            4689             775     122.416E-03     118.706E-03
            4689             776     131.248E-03     129.899E-03
            4689            4896     123.247E-03     120.820E-03
            4689            4911     129.636E-03     132.442E-03
            4690             619     162.589E-03     159.133E-03
            4690             620     114.727E-03     105.687E-03
            4690            4897     164.151E-03     162.729E-03
            4690            4912     133.366E-03     120.342E-03
            4691            4897     164.151E-03     162.729E-03
            4691            4898     180.940E-03     178.830E-03
            4691            4912     133.366E-03     120.342E-03
            4691            4913     166.923E-03     149.471E-03
            4692            4898     180.940E-03     178.830E-03
            4692            4899     201.965E-03     195.921E-03
            4692            4913     166.923E-03     149.471E-03
            4692            4914     187.456E-03     170.529E-03
            4693            4899     201.965E-03     195.921E-03
            4693            4900     208.978E-03     201.347E-03
            4693            4914     187.456E-03     170.529E-03
            4693            4915     195.403E-03     180.291E-03
            4694            4900     208.978E-03     201.347E-03
            4694            4901     208.283E-03     200.321E-03
            4694            4915     195.403E-03     180.291E-03
            4694            4916     197.109E-03     183.687E-03
            4695            4901     208.283E-03     200.321E-03
            4695            4902     202.792E-03     195.017E-03
            4695            4916     197.109E-03     183.687E-03
            4695            4917     194.461E-03     182.647E-03
            4696            4902     202.792E-03     195.017E-03
            4696            4903     194.553E-03     187.255E-03
            4696            4917     194.461E-03     182.647E-03
            4696            4918     189.305E-03     178.874E-03
            4697            4903     194.553E-03     187.255E-03
            4697            4904     184.861E-03     178.181E-03
            4697            4918     189.305E-03     178.874E-03
            4697            4919     182.534E-03     173.288E-03
            4698            4904     184.861E-03     178.181E-03
            4698            4905     174.607E-03     168.638E-03
            4698            4919     182.534E-03     173.288E-03
            4698            4920     174.927E-03     166.814E-03
            4699            4905     174.607E-03     168.638E-03
            4699            4906     164.365E-03     159.250E-03
            4699            4920     174.927E-03     166.814E-03
            4699            4921     167.087E-03     160.016E-03
            4700            4906     164.365E-03     159.250E-03
            4700            4907     154.525E-03     150.643E-03
            4700            4921     167.087E-03     160.016E-03
            4700            4922     159.357E-03     153.505E-03
            4701            4907     154.525E-03     150.643E-03
            4701            4908     145.471E-03     143.263E-03
            4701            4922     159.357E-03     153.505E-03
            4701            4923     152.147E-03     147.833E-03
            4702            4908     145.471E-03     143.263E-03
            4702            4909     137.079E-03     138.041E-03
            4702            4923     152.147E-03     147.833E-03
            4702            4924     145.477E-03     143.485E-03
            4703            4909     137.079E-03     138.041E-03
            4703            4910     130.475E-03     135.587E-03
            4703            4924     145.477E-03     143.485E-03
            4703            4925     138.789E-03     142.331E-03
            4704            4910     130.475E-03     135.587E-03
            4704            4911     129.636E-03     132.442E-03
            4704            4925     138.789E-03     142.331E-03
            4704            4926     133.642E-03     145.014E-03
            4705             776     131.248E-03     129.899E-03
            4705             777     131.861E-03     147.058E-03
            4705            4911     129.636E-03     132.442E-03
            4705            4926     133.642E-03     145.014E-03
            4706             620     114.727E-03     105.687E-03
            4706             621     116.787E-03     127.069E-03
            4706            4912     133.366E-03     120.342E-03
            4706            4927     118.491E-03     120.717E-03
            4707            4912     133.366E-03     120.342E-03
            4707            4913     166.923E-03     149.471E-03
            4707            4927     118.491E-03     120.717E-03
            4707            4928     122.975E-03     118.945E-03
            4708            4913     166.923E-03     149.471E-03
            4708            4914     187.456E-03     170.529E-03
            4708            4928     122.975E-03     118.945E-03
            4708            4929     131.737E-03     128.868E-03
            4709            4914     187.456E-03     170.529E-03
            4709            4915     195.403E-03     180.291E-03
            4709            4929     131.737E-03     128.868E-03
            4709            4930     137.150E-03     135.009E-03
            4710            4915     195.403E-03     180.291E-03
            4710            4916     197.109E-03     183.687E-03
            4710            4930     137.150E-03     135.009E-03
            4710            4931     137.211E-03     136.539E-03
            4711            4916     197.109E-03     183.687E-03
            4711            4917     194.461E-03     182.647E-03
            4711            4931     137.211E-03     136.539E-03
            4711            4932     136.323E-03     136.243E-03
            4712            4917     194.461E-03     182.647E-03
            4712            4918     189.305E-03     178.874E-03
            4712            4932     136.323E-03     136.243E-03
            4712            4933     133.693E-03     134.087E-03
            4713            4918     189.305E-03     178.874E-03
            4713            4919     182.534E-03     173.288E-03
            4713            4933     133.693E-03     134.087E-03
            4713            4934     130.737E-03     131.277E-03
            4714            4919     182.534E-03     173.288E-03
            4714            4920     174.927E-03     166.814E-03
            4714            4934     130.737E-03     131.277E-03
            4714            4935     127.173E-03     127.768E-03
            4715            4920     174.927E-03     166.814E-03
            4715            4921     167.087E-03     160.016E-03
            4715            4935     127.173E-03     127.768E-03
            4715            4936     123.652E-03     124.179E-03
            4716            4921     167.087E-03     160.016E-03
            4716            4922     159.357E-03     153.505E-03
            4716            4936     123.652E-03     124.179E-03
            4716            4937     120.188E-03     120.542E-03
            4717            4922     159.357E-03     153.505E-03
            4717            4923     152.147E-03     147.833E-03
            4717            4937     120.188E-03     120.542E-03
            4717            4938     116.943E-03     117.487E-03
            4718            4923     152.147E-03     147.833E-03
            4718            4924     145.477E-03     143.485E-03
            4718            4938     116.943E-03     117.487E-03
            4718            4939     114.385E-03     114.593E-03
            4719            4924     145.477E-03     143.485E-03
            4719            4925     138.789E-03     142.331E-03
            4719            4939     114.385E-03     114.593E-03
            4719            4940     111.964E-03     113.097E-03
            4720            4925     138.789E-03     142.331E-03
            4720            4926     133.642E-03     145.014E-03
            4720            4940     111.964E-03     113.097E-03
            4720            4941     105.597E-03     116.479E-03
            4721             777     131.861E-03     147.058E-03
            4721             778     100.677E-03     119.646E-03
            4721            4926     133.642E-03     145.014E-03
            4721            4941     105.597E-03     116.479E-03
            4722             621     116.787E-03     127.069E-03
            4722             622     121.967E-03     131.555E-03
            4722            4927     118.491E-03     120.717E-03
            4722            4942     107.511E-03     119.709E-03
            4723            4927     118.491E-03     120.717E-03
            4723            4928     122.975E-03     118.945E-03
            4723            4942     107.511E-03     119.709E-03
            4723            4943     91.2555E-03     104.666E-03
            4724            4928     122.975E-03     118.945E-03
            4724            4929     131.737E-03     128.868E-03
            4724            4943     91.2555E-03     104.666E-03
            4724            4944     90.5957E-03     101.565E-03
            4725            4929     131.737E-03     128.868E-03
            4725            4930     137.150E-03     135.009E-03
            4725            4944     90.5957E-03     101.565E-03
            4725            4945     89.3672E-03     99.4430E-03
            4726            4930     137.150E-03     135.009E-03
            4726            4931     137.211E-03     136.539E-03
            4726            4945     89.3672E-03     99.4430E-03
            4726            4946     86.6354E-03     96.4786E-03
            4727            4931     137.211E-03     136.539E-03
            4727            4932     136.323E-03     136.243E-03
            4727            4946     86.6354E-03     96.4786E-03
            4727            4947     85.0981E-03     94.2428E-03
            4728            4932     136.323E-03     136.243E-03
            4728            4933     133.693E-03     134.087E-03
            4728            4947     85.0981E-03     94.2428E-03
            4728            4948     83.4751E-03     91.9572E-03
            4729            4933     133.693E-03     134.087E-03
            4729            4934     130.737E-03     131.277E-03
            4729            4948     83.4751E-03     91.9572E-03
            4729            4949     82.3735E-03     90.0870E-03
            4730            4934     130.737E-03     131.277E-03
            4730            4935     127.173E-03     127.768E-03
            4730            4949     82.3735E-03     90.0870E-03
            4730            4950     81.3671E-03     88.2578E-03
            4731            4935     127.173E-03     127.768E-03
            4731            4936     123.652E-03     124.179E-03
            4731            4950     81.3671E-03     88.2578E-03
            4731            4951     80.6407E-03     86.6707E-03
            4732            4936     123.652E-03     124.179E-03
            4732            4937     120.188E-03     120.542E-03
            4732            4951     80.6407E-03     86.6707E-03
            4732            4952     80.0698E-03     85.2054E-03
            4733            4937     120.188E-03     120.542E-03
            4733            4938     116.943E-03     117.487E-03
            4733            4952     80.0698E-03     85.2054E-03
            4733            4953     79.7230E-03     83.9096E-03
            4734            4938     116.943E-03     117.487E-03
            4734            4939     114.385E-03     114.593E-03
            4734            4953     79.7230E-03     83.9096E-03
            4734            4954     79.6557E-03     82.8709E-03
            4735            4939     114.385E-03     114.593E-03
            4735            4940     111.964E-03     113.097E-03
            4735            4954     79.6557E-03     82.8709E-03
            4735            4955     79.9464E-03     82.1970E-03
            4736            4940     111.964E-03     113.097E-03
            4736            4941     105.597E-03     116.479E-03
            4736            4955     79.9464E-03     82.1970E-03
            4736            4956     81.2987E-03     82.0762E-03
            4737             778     100.677E-03     119.646E-03
            4737             779     82.4405E-03     82.2537E-03
            4737            4941     105.597E-03     116.479E-03
            4737            4956     81.2987E-03     82.0762E-03
            4738             622     121.967E-03     131.555E-03
            4738             623     64.3542E-03     60.9660E-03
            4738            4942     107.511E-03     119.709E-03
            4738            4957     78.1184E-03     79.1834E-03
            4739            4942     107.511E-03     119.709E-03
            4739            4943     91.2555E-03     104.666E-03
            4739            4957     78.1184E-03     79.1834E-03
            4739            4958     98.5535E-03     99.8541E-03
            4740            4943     91.2555E-03     104.666E-03
            4740            4944     90.5957E-03     101.565E-03
            4740            4958     98.5535E-03     99.8541E-03
            4740            4959     100.361E-03     99.5846E-03
            4741            4944     90.5957E-03     101.565E-03
            4741            4945     89.3672E-03     99.4430E-03
            4741            4959     100.361E-03     99.5846E-03
            4741            4960     95.0041E-03     95.7921E-03
            4742            4945     89.3672E-03     99.4430E-03
            4742            4946     86.6354E-03     96.4786E-03
            4742            4960     95.0041E-03     95.7921E-03
            4742            4961     92.7613E-03     93.0869E-03
            4743            4946     86.6354E-03     96.4786E-03
            4743            4947     85.0981E-03     94.2428E-03
            4743            4961     92.7613E-03     93.0869E-03
            4743            4962     90.5027E-03     90.9108E-03
            4744            4947     85.0981E-03     94.2428E-03
            4744            4948     83.4751E-03     91.9572E-03
            4744            4962     90.5027E-03     90.9108E-03
            4744            4963     89.0134E-03     89.4096E-03
            4745            4948     83.4751E-03     91.9572E-03
            4745            4949     82.3735E-03     90.0870E-03
            4745            4963     89.0134E-03     89.4096E-03
            4745            4964     87.5091E-03     87.8855E-03
            4746            4949     82.3735E-03     90.0870E-03
            4746            4950     81.3671E-03     88.2578E-03
            4746            4964     87.5091E-03     87.8855E-03
            4746            4965     86.2960E-03     86.6230E-03
            4747            4950     81.3671E-03     88.2578E-03
            4747            4951     80.6407E-03     86.6707E-03
            4747            4965     86.2960E-03     86.6230E-03
            4747            4966     85.1420E-03     85.4574E-03
            4748            4951     80.6407E-03     86.6707E-03
            4748            4952     80.0698E-03     85.2054E-03
            4748            4966     85.1420E-03     85.4574E-03
            4748            4967     84.1662E-03     84.5029E-03
            4749            4952     80.0698E-03     85.2054E-03
            4749            4953     79.7230E-03     83.9096E-03
            4749            4967     84.1662E-03     84.5029E-03
            4749            4968     83.5314E-03     83.4894E-03
            4750            4953     79.7230E-03     83.9096E-03
            4750            4954     79.6557E-03     82.8709E-03
            4750            4968     83.5314E-03     83.4894E-03
            4750            4969     82.6026E-03     83.2551E-03
            4751            4954     79.6557E-03     82.8709E-03
            4751            4955     79.9464E-03     82.1970E-03
            4751            4969     82.6026E-03     83.2551E-03
            4751            4970     82.6631E-03     83.5399E-03
            4752            4955     79.9464E-03     82.1970E-03
            4752            4956     81.2987E-03     82.0762E-03
            4752            4970     82.6631E-03     83.5399E-03
            4752            4971     87.9096E-03     81.4914E-03
            4753             779     82.4405E-03     82.2537E-03
            4753             780     92.2908E-03     79.4490E-03
            4753            4956     81.2987E-03     82.0762E-03
            4753            4971     87.9096E-03     81.4914E-03
            4754             623     64.3542E-03     60.9660E-03
            4754             624     23.4066E-03     49.0170E-03
            4754            4957     78.1184E-03     79.1834E-03
            4754            4972     54.3434E-03     62.1401E-03
            4755            4957     78.1184E-03     79.1834E-03
            4755            4958     98.5535E-03     99.8541E-03
            4755            4972     54.3434E-03     62.1401E-03
            4755            4973     93.6094E-03     82.6791E-03
            4756            4958     98.5535E-03     99.8541E-03
            4756            4959     100.361E-03     99.5846E-03
            4756            4973     93.6094E-03     82.6791E-03
            4756            4974     101.991E-03     91.2215E-03
            4757            4959     100.361E-03     99.5846E-03
            4757            4960     95.0041E-03     95.7921E-03
            4757            4974     101.991E-03     91.2215E-03
            4757            4975     100.711E-03     91.2662E-03
            4758            4960     95.0041E-03     95.7921E-03
            4758            4961     92.7613E-03     93.0869E-03
            4758            4975     100.711E-03     91.2662E-03
            4758            4976     98.6498E-03     89.8108E-03
            4759            4961     92.7613E-03     93.0869E-03
            4759            4962     90.5027E-03     90.9108E-03
            4759            4976     98.6498E-03     89.8108E-03
            4759            4977     96.8752E-03     88.7833E-03
            4760            4962     90.5027E-03     90.9108E-03
            4760            4963     89.0134E-03     89.4096E-03
            4760            4977     96.8752E-03     88.7833E-03
            4760            4978     95.1412E-03     87.7394E-03
            4761            4963     89.0134E-03     89.4096E-03
            4761            4964     87.5091E-03     87.8855E-03
            4761            4978     95.1412E-03     87.7394E-03
            4761            4979     93.5827E-03     86.8857E-03
            4762            4964     87.5091E-03     87.8855E-03
            4762            4965     86.2960E-03     86.6230E-03
            4762            4979     93.5827E-03     86.8857E-03
            4762            4980     92.0412E-03     86.0982E-03
            4763            4965     86.2960E-03     86.6230E-03
            4763            4966     85.1420E-03     85.4574E-03
            4763            4980     92.0412E-03     86.0982E-03
            4763            4981     90.6374E-03     85.4626E-03
            4764            4966     85.1420E-03     85.4574E-03
            4764            4967     84.1662E-03     84.5029E-03
            4764            4981     90.6374E-03     85.4626E-03
            4764            4982     89.3447E-03     84.9578E-03
            4765            4967     84.1662E-03     84.5029E-03
            4765            4968     83.5314E-03     83.4894E-03
            4765            4982     89.3447E-03     84.9578E-03
            4765            4983     88.1894E-03     84.6413E-03
            4766            4968     83.5314E-03     83.4894E-03
            4766            4969     82.6026E-03     83.2551E-03
            4766            4983     88.1894E-03     84.6413E-03
            4766            4984     87.2229E-03     84.5534E-03
            4767            4969     82.6026E-03     83.2551E-03
            4767            4970     82.6631E-03     83.5399E-03
            4767            4984     87.2229E-03     84.5534E-03
            4767            4985     86.5860E-03     84.9530E-03
            4768            4970     82.6631E-03     83.5399E-03
            4768            4971     87.9096E-03     81.4914E-03
            4768            4985     86.5860E-03     84.9530E-03
            4768            4986     86.7292E-03     86.4286E-03
            4769             780     92.2908E-03     79.4490E-03
            4769             781     87.1396E-03     87.5399E-03
            4769            4971     87.9096E-03     81.4914E-03
            4769            4986     86.7292E-03     86.4286E-03
            4770              26     11.1800E-03     29.8091E-03
            4770             624     23.4066E-03     49.0170E-03
            4770             796     26.7020E-03     30.9792E-03
            4770            4972     54.3434E-03     62.1401E-03
            4771             795     44.2052E-03     35.7505E-03
            4771             796     26.7020E-03     30.9792E-03
            4771            4972     54.3434E-03     62.1401E-03
            4771            4973     93.6094E-03     82.6791E-03
            4772             794     49.9657E-03     42.4636E-03
            4772             795     44.2052E-03     35.7505E-03
            4772            4973     93.6094E-03     82.6791E-03
            4772            4974     101.991E-03     91.2215E-03
            4773             793     52.0272E-03     44.4988E-03
            4773             794     49.9657E-03     42.4636E-03
            4773            4974     101.991E-03     91.2215E-03
            4773            4975     100.711E-03     91.2662E-03
            4774             792     50.7305E-03     44.1304E-03
            4774             793     52.0272E-03     44.4988E-03
            4774            4975     100.711E-03     91.2662E-03
            4774            4976     98.6498E-03     89.8108E-03
            4775             791     50.2450E-03     44.1387E-03
            4775             792     50.7305E-03     44.1304E-03
            4775            4976     98.6498E-03     89.8108E-03
            4775            4977     96.8752E-03     88.7833E-03
            4776             790     49.2033E-03     43.6015E-03
            4776             791     50.2450E-03     44.1387E-03
            4776            4977     96.8752E-03     88.7833E-03
            4776            4978     95.1412E-03     87.7394E-03
            4777             789     48.4747E-03     43.4243E-03
            4777             790     49.2033E-03     43.6015E-03
            4777            4978     95.1412E-03     87.7394E-03
            4777            4979     93.5827E-03     86.8857E-03
            4778             788     47.5905E-03     43.0994E-03
            4778             789     48.4747E-03     43.4243E-03
            4778            4979     93.5827E-03     86.8857E-03
            4778            4980     92.0412E-03     86.0982E-03
            4779             787     46.8520E-03     42.9411E-03
            4779             788     47.5905E-03     43.0994E-03
            4779            4980     92.0412E-03     86.0982E-03
            4779            4981     90.6374E-03     85.4626E-03
            4780             786     46.1246E-03     42.7851E-03
            4780             787     46.8520E-03     42.9411E-03
            4780            4981     90.6374E-03     85.4626E-03
            4780            4982     89.3447E-03     84.9578E-03
            4781             785     45.4019E-03     42.8404E-03
            4781             786     46.1246E-03     42.7851E-03
            4781            4982     89.3447E-03     84.9578E-03
            4781            4983     88.1894E-03     84.6413E-03
            4782             784     45.0050E-03     42.7492E-03
            4782             785     45.4019E-03     42.8404E-03
            4782            4983     88.1894E-03     84.6413E-03
            4782            4984     87.2229E-03     84.5534E-03
            4783             783     44.4432E-03     42.9154E-03
            4783             784     45.0050E-03     42.7492E-03
            4783            4984     87.2229E-03     84.5534E-03
            4783            4985     86.5860E-03     84.9530E-03
            4784             782     42.1415E-03     44.9980E-03
            4784             783     44.4432E-03     42.9154E-03
            4784            4985     86.5860E-03     84.9530E-03
            4784            4986     86.7292E-03     86.4286E-03
            4785              30     40.4479E-03     46.7861E-03
            4785             781     87.1396E-03     87.5399E-03
            4785             782     42.1415E-03     44.9980E-03
            4785            4986     86.7292E-03     86.4286E-03
            4898              20     994.167E-03         1.02879
            4898             522     934.997E-03     961.056E-03
            4898             560         1.04024         1.04655
            4898            5077     969.902E-03     984.760E-03
            4899             521     843.792E-03     859.537E-03
            4899             522     934.997E-03     961.056E-03
            4899            5077     969.902E-03     984.760E-03
            4899            5078     851.584E-03     875.661E-03
            4900             520     778.098E-03     795.359E-03
            4900             521     843.792E-03     859.537E-03
            4900            5078     851.584E-03     875.661E-03
            4900            5079     772.031E-03     797.685E-03
            4901             519     715.650E-03     735.930E-03
            4901             520     778.098E-03     795.359E-03
            4901            5079     772.031E-03     797.685E-03
            4901            5080     709.043E-03     736.233E-03
            4902             518     656.635E-03     678.354E-03
            4902             519     715.650E-03     735.930E-03
            4902            5080     709.043E-03     736.233E-03
            4902            5081     648.636E-03     677.294E-03
            4903             517     597.663E-03     620.552E-03
            4903             518     656.635E-03     678.354E-03
            4903            5081     648.636E-03     677.294E-03
            4903            5082     590.426E-03     619.824E-03
            4904             516     539.143E-03     562.222E-03
            4904             517     597.663E-03     620.552E-03
            4904            5082     590.426E-03     619.824E-03
            4904            5083     532.055E-03     561.788E-03
            4905             515     480.152E-03     503.510E-03
            4905             516     539.143E-03     562.222E-03
            4905            5083     532.055E-03     561.788E-03
            4905            5084     473.659E-03     503.579E-03
            4906             514     421.086E-03     444.386E-03
            4906             515     480.152E-03     503.510E-03
            4906            5084     473.659E-03     503.579E-03
            4906            5085     414.902E-03     444.860E-03
            4907             513     361.617E-03     385.074E-03
            4907             514     421.086E-03     444.386E-03
            4907            5085     414.902E-03     444.860E-03
            4907            5086     355.972E-03     385.988E-03
            4908             512     302.158E-03     325.568E-03
            4908             513     361.617E-03     385.074E-03
            4908            5086     355.972E-03     385.988E-03
            4908            5087     296.843E-03     326.814E-03
            4909             511     242.588E-03     265.853E-03
            4909             512     302.158E-03     325.568E-03
            4909            5087     296.843E-03     326.814E-03
            4909            5088     237.857E-03     267.668E-03
            4910             510     183.418E-03     206.050E-03
            4910             511     242.588E-03     265.853E-03
            4910            5088     237.857E-03     267.668E-03
            4910            5089     179.472E-03     207.909E-03
            4911             509     124.987E-03     146.072E-03
            4911             510     183.418E-03     206.050E-03
            4911            5089     179.472E-03     207.909E-03
            4911            5090     122.424E-03     148.579E-03
            4912             508     69.3895E-03     86.9173E-03
            4912             509     124.987E-03     146.072E-03
            4912            5090     122.424E-03     148.579E-03
            4912            5091     70.2033E-03     90.7755E-03
            4913              18     42.7849E-03     57.9752E-03
            4913             508     69.3895E-03     86.9173E-03
            4913             552     45.9193E-03     62.1573E-03
            4913            5091     70.2033E-03     90.7755E-03
            4914             560         1.04024         1.04655
            4914             561     999.883E-03     996.101E-03
            4914            5077     969.902E-03     984.760E-03
            4914            5092     962.811E-03     971.065E-03
            4915            5077     969.902E-03     984.760E-03
            4915            5078     851.584E-03     875.661E-03
            4915            5092     962.811E-03     971.065E-03
            4915            5093     876.845E-03     901.151E-03
            4916            5078     851.584E-03     875.661E-03
            4916            5079     772.031E-03     797.685E-03
            4916            5093     876.845E-03     901.151E-03
            4916            5094     793.914E-03     820.923E-03
            4917            5079     772.031E-03     797.685E-03
            4917            5080     709.043E-03     736.233E-03
            4917            5094     793.914E-03     820.923E-03
            4917            5095     728.361E-03     752.659E-03
            4918            5080     709.043E-03     736.233E-03
            4918            5081     648.636E-03     677.294E-03
            4918            5095     728.361E-03     752.659E-03
            4918            5096     666.219E-03     688.327E-03
            4919            5081     648.636E-03     677.294E-03
            4919            5082     590.426E-03     619.824E-03
            4919            5096     666.219E-03     688.327E-03
            4919            5097     605.444E-03     626.611E-03
            4920            5082     590.426E-03     619.824E-03
            4920            5083     532.055E-03     561.788E-03
            4920            5097     605.444E-03     626.611E-03
            4920            5098     545.233E-03     565.964E-03
            4921            5083     532.055E-03     561.788E-03
            4921            5084     473.659E-03     503.579E-03
            4921            5098     545.233E-03     565.964E-03
            4921            5099     485.195E-03     505.820E-03
            4922            5084     473.659E-03     503.579E-03
            4922            5085     414.902E-03     444.860E-03
            4922            5099     485.195E-03     505.820E-03
            4922            5100     425.417E-03     445.986E-03
            4923            5085     414.902E-03     444.860E-03
            4923            5086     355.972E-03     385.988E-03
            4923            5100     425.417E-03     445.986E-03
            4923            5101     365.850E-03     386.322E-03
            4924            5086     355.972E-03     385.988E-03
            4924            5087     296.843E-03     326.814E-03
            4924            5101     365.850E-03     386.322E-03
            4924            5102     306.524E-03     326.856E-03
            4925            5087     296.843E-03     326.814E-03
            4925            5088     237.857E-03     267.668E-03
            4925            5102     306.524E-03     326.856E-03
            4925            5103     247.581E-03     267.855E-03
            4926            5088     237.857E-03     267.668E-03
            4926            5089     179.472E-03     207.909E-03
            4926            5103     247.581E-03     267.855E-03
            4926            5104     189.383E-03     209.509E-03
            4927            5089     179.472E-03     207.909E-03
            4927            5090     122.424E-03     148.579E-03
            4927            5104     189.383E-03     209.509E-03
            4927            5105     134.068E-03     151.738E-03
            4928            5090     122.424E-03     148.579E-03
            4928            5091     70.2033E-03     90.7755E-03
            4928            5105     134.068E-03     151.738E-03
            4928            5106     85.3286E-03     99.3600E-03
            4929             551     63.0873E-03     75.5658E-03
            4929             552     45.9193E-03     62.1573E-03
            4929            5091     70.2033E-03     90.7755E-03
            4929            5106     85.3286E-03     99.3600E-03
            4930             561     999.883E-03     996.101E-03
            4930             562     945.372E-03     966.448E-03
            4930            5092     962.811E-03     971.065E-03
            4930            5107     922.128E-03     943.562E-03
            4931            5092     962.811E-03     971.065E-03
            4931            5093     876.845E-03     901.151E-03
            4931            5107     922.128E-03     943.562E-03
            4931            5108     870.117E-03     891.555E-03
            4932            5093     876.845E-03     901.151E-03
            4932            5094     793.914E-03     820.923E-03
            4932            5108     870.117E-03     891.555E-03
            4932            5109     805.172E-03     825.680E-03
            4933            5094     793.914E-03     820.923E-03
            4933            5095     728.361E-03     752.659E-03
            4933            5109     805.172E-03     825.680E-03
            4933            5110     738.642E-03     756.116E-03
            4934            5095     728.361E-03     752.659E-03
            4934            5096     666.219E-03     688.327E-03
            4934            5110     738.642E-03     756.116E-03
            4934            5111     677.122E-03     691.193E-03
            4935            5096     666.219E-03     688.327E-03
            4935            5097     605.444E-03     626.611E-03
            4935            5111     677.122E-03     691.193E-03
            4935            5112     615.662E-03     628.118E-03
            4936            5097     605.444E-03     626.611E-03
            4936            5098     545.233E-03     565.964E-03
            4936            5112     615.662E-03     628.118E-03
            4936            5113     555.151E-03     566.923E-03
            4937            5098     545.233E-03     565.964E-03
            4937            5099     485.195E-03     505.820E-03
            4937            5113     555.151E-03     566.923E-03
            4937            5114     495.096E-03     506.622E-03
            4938            5099     485.195E-03     505.820E-03
            4938            5100     425.417E-03     445.986E-03
            4938            5114     495.096E-03     506.622E-03
            4938            5115     435.639E-03     447.002E-03
            4939            5100     425.417E-03     445.986E-03
            4939            5101     365.850E-03     386.322E-03
            4939            5115     435.639E-03     447.002E-03
            4939            5116     376.673E-03     387.917E-03
            4940            5101     365.850E-03     386.322E-03
            4940            5102     306.524E-03     326.856E-03
            4940            5116     376.673E-03     387.917E-03
            4940            5117     318.435E-03     329.491E-03
            4941            5102     306.524E-03     326.856E-03
            4941            5103     247.581E-03     267.855E-03
            4941            5117     318.435E-03     329.491E-03
            4941            5118     260.866E-03     271.937E-03
            4942            5103     247.581E-03     267.855E-03
            4942            5104     189.383E-03     209.509E-03
            4942            5118     260.866E-03     271.937E-03
            4942            5119     204.596E-03     216.853E-03
            4943            5104     189.383E-03     209.509E-03
            4943            5105     134.068E-03     151.738E-03
            4943            5119     204.596E-03     216.853E-03
            4943            5120     152.509E-03     165.213E-03
            4944            5105     134.068E-03     151.738E-03
            4944            5106     85.3286E-03     99.3600E-03
            4944            5120     152.509E-03     165.213E-03
            4944            5121     111.397E-03     117.377E-03
            4945             550     94.7749E-03     94.7563E-03
            4945             551     63.0873E-03     75.5658E-03
            4945            5106     85.3286E-03     99.3600E-03
            4945            5121     111.397E-03     117.377E-03
            4946             562     945.372E-03     966.448E-03
            4946             563     897.901E-03     895.372E-03
            4946            5107     922.128E-03     943.562E-03
            4946            5122     881.842E-03     888.792E-03
            4947            5107     922.128E-03     943.562E-03
            4947            5108     870.117E-03     891.555E-03
            4947            5122     881.842E-03     888.792E-03
            4947            5123     843.460E-03     857.513E-03
            4948            5108     870.117E-03     891.555E-03
            4948            5109     805.172E-03     825.680E-03
            4948            5123     843.460E-03     857.513E-03
            4948            5124     795.007E-03     803.554E-03
            4949            5109     805.172E-03     825.680E-03
            4949            5110     738.642E-03     756.116E-03
            4949            5124     795.007E-03     803.554E-03
            4949            5125     738.312E-03     743.379E-03
            4950            5110     738.642E-03     756.116E-03
            4950            5111     677.122E-03     691.193E-03
            4950            5125     738.312E-03     743.379E-03
            4950            5126     678.725E-03     682.445E-03
            4951            5111     677.122E-03     691.193E-03
            4951            5112     615.662E-03     628.118E-03
            4951            5126     678.725E-03     682.445E-03
            4951            5127     619.915E-03     622.766E-03
            4952            5112     615.662E-03     628.118E-03
            4952            5113     555.151E-03     566.923E-03
            4952            5127     619.915E-03     622.766E-03
            4952            5128     561.039E-03     563.746E-03
            4953            5113     555.151E-03     566.923E-03
            4953            5114     495.096E-03     506.622E-03
            4953            5128     561.039E-03     563.746E-03
            4953            5129     502.869E-03     505.445E-03
            4954            5114     495.096E-03     506.622E-03
            4954            5115     435.639E-03     447.002E-03
            4954            5129     502.869E-03     505.445E-03
            4954            5130     445.132E-03     447.730E-03
            4955            5115     435.639E-03     447.002E-03
            4955            5116     376.673E-03     387.917E-03
            4955            5130     445.132E-03     447.730E-03
            4955            5131     388.178E-03     390.621E-03
            4956            5116     376.673E-03     387.917E-03
            4956            5117     318.435E-03     329.491E-03
            4956            5131     388.178E-03     390.621E-03
            4956            5132     332.016E-03     334.443E-03
            4957            5117     318.435E-03     329.491E-03
            4957            5118     260.866E-03     271.937E-03
            4957            5132     332.016E-03     334.443E-03
            4957            5133     277.296E-03     279.811E-03
            4958            5118     260.866E-03     271.937E-03
            4958            5119     204.596E-03     216.853E-03
            4958            5133     277.296E-03     279.811E-03
            4958            5134     224.499E-03     228.357E-03
            4959            5119     204.596E-03     216.853E-03
            4959            5120     152.509E-03     165.213E-03
            4959            5134     224.499E-03     228.357E-03
            4959            5135     175.486E-03     184.298E-03
            4960            5120     152.509E-03     165.213E-03
            4960            5121     111.397E-03     117.377E-03
            4960            5135     175.486E-03     184.298E-03
            4960            5136     140.787E-03     148.407E-03
            4961             549     129.158E-03     131.912E-03
            4961             550     94.7749E-03     94.7563E-03
            4961            5121     111.397E-03     117.377E-03
            4961            5136     140.787E-03     148.407E-03
            4962             563     897.901E-03     895.372E-03
            4962             564     836.364E-03     821.976E-03
            4962            5122     881.842E-03     888.792E-03
            4962            5137     831.178E-03     818.012E-03
            4963            5122     881.842E-03     888.792E-03
            4963            5123     843.460E-03     857.513E-03
            4963            5137     831.178E-03     818.012E-03
            4963            5138     809.240E-03     797.208E-03
            4964            5123     843.460E-03     857.513E-03
            4964            5124     795.007E-03     803.554E-03
            4964            5138     809.240E-03     797.208E-03
            4964            5139     770.916E-03     759.992E-03
            4965            5124     795.007E-03     803.554E-03
            4965            5125     738.312E-03     743.379E-03
            4965            5139     770.916E-03     759.992E-03
            4965            5140     724.383E-03     714.866E-03
            4966            5125     738.312E-03     743.379E-03
            4966            5126     678.725E-03     682.445E-03
            4966            5140     724.383E-03     714.866E-03
            4966            5141     672.292E-03     664.344E-03
            4967            5126     678.725E-03     682.445E-03
            4967            5127     619.915E-03     622.766E-03
            4967            5141     672.292E-03     664.344E-03
            4967            5142     618.365E-03     611.682E-03
            4968            5127     619.915E-03     622.766E-03
            4968            5128     561.039E-03     563.746E-03
            4968            5142     618.365E-03     611.682E-03
            4968            5143     564.008E-03     557.687E-03
            4969            5128     561.039E-03     563.746E-03
            4969            5129     502.869E-03     505.445E-03
            4969            5143     564.008E-03     557.687E-03
            4969            5144     509.242E-03     503.333E-03
            4970            5129     502.869E-03     505.445E-03
            4970            5130     445.132E-03     447.730E-03
            4970            5144     509.242E-03     503.333E-03
            4970            5145     454.754E-03     448.935E-03
            4971            5130     445.132E-03     447.730E-03
            4971            5131     388.178E-03     390.621E-03
            4971            5145     454.754E-03     448.935E-03
            4971            5146     400.656E-03     395.063E-03
            4972            5131     388.178E-03     390.621E-03
            4972            5132     332.016E-03     334.443E-03
            4972            5146     400.656E-03     395.063E-03
            4972            5147     347.584E-03     342.190E-03
            4973            5132     332.016E-03     334.443E-03
            4973            5133     277.296E-03     279.811E-03
            4973            5147     347.584E-03     342.190E-03
            4973            5148     296.389E-03     291.428E-03
            4974            5133     277.296E-03     279.811E-03
            4974            5134     224.499E-03     228.357E-03
            4974            5148     296.389E-03     291.428E-03
            4974            5149     248.102E-03     244.147E-03
            4975            5134     224.499E-03     228.357E-03
            4975            5135     175.486E-03     184.298E-03
            4975            5149     248.102E-03     244.147E-03
            4975            5150     204.727E-03     204.915E-03
            4976            5135     175.486E-03     184.298E-03
            4976            5136     140.787E-03     148.407E-03
            4976            5150     204.727E-03     204.915E-03
            4976            5151     170.268E-03     182.070E-03
            4977             548     155.837E-03     175.786E-03
            4977             549     129.158E-03     131.912E-03
            4977            5136     140.787E-03     148.407E-03
            4977            5151     170.268E-03     182.070E-03
            4978              23     829.251E-03     848.444E-03
            4978             564     836.364E-03     821.976E-03
            4978             739     791.711E-03     803.419E-03
            4978            5137     831.178E-03     818.012E-03
            4979             739     791.711E-03     803.419E-03
            4979             740     737.591E-03     740.460E-03
            4979            5137     831.178E-03     818.012E-03
            4979            5138     809.240E-03     797.208E-03
            4980             740     737.591E-03     740.460E-03
            4980             741     696.265E-03     703.217E-03
            4980            5138     809.240E-03     797.208E-03
            4980            5139     770.916E-03     759.992E-03
            4981             741     696.265E-03     703.217E-03
            4981             742     649.755E-03     661.219E-03
            4981            5139     770.916E-03     759.992E-03
            4981            5140     724.383E-03     714.866E-03
            4982             742     649.755E-03     661.219E-03
            4982             743     602.610E-03     615.725E-03
            4982            5140     724.383E-03     714.866E-03
            4982            5141     672.292E-03     664.344E-03
            4983             743     602.610E-03     615.725E-03
            4983             744     552.845E-03     567.315E-03
            4983            5141     672.292E-03     664.344E-03
            4983            5142     618.365E-03     611.682E-03
            4984             744     552.845E-03     567.315E-03
            4984             745     502.604E-03     517.258E-03
            4984            5142     618.365E-03     611.682E-03
            4984            5143     564.008E-03     557.687E-03
            4985             745     502.604E-03     517.258E-03
            4985             746     451.564E-03     466.706E-03
            4985            5143     564.008E-03     557.687E-03
            4985            5144     509.242E-03     503.333E-03
            4986             746     451.564E-03     466.706E-03
            4986             747     400.569E-03     415.641E-03
            4986            5144     509.242E-03     503.333E-03
            4986            5145     454.754E-03     448.935E-03
            4987             747     400.569E-03     415.641E-03
            4987             748     349.524E-03     364.955E-03
            4987            5145     454.754E-03     448.935E-03
            4987            5146     400.656E-03     395.063E-03
            4988             748     349.524E-03     364.955E-03
            4988             749     299.139E-03     314.660E-03
            4988            5146     400.656E-03     395.063E-03
            4988            5147     347.584E-03     342.190E-03
            4989             749     299.139E-03     314.660E-03
            4989             750     249.583E-03     265.767E-03
            4989            5147     347.584E-03     342.190E-03
            4989            5148     296.389E-03     291.428E-03
            4990             750     249.583E-03     265.767E-03
            4990             751     202.507E-03     218.539E-03
            4990            5148     296.389E-03     291.428E-03
            4990            5149     248.102E-03     244.147E-03
            4991             751     202.507E-03     218.539E-03
            4991             752     159.269E-03     174.827E-03
            4991            5149     248.102E-03     244.147E-03
            4991            5150     204.727E-03     204.915E-03
            4992             752     159.269E-03     174.827E-03
            4992             753     120.895E-03     140.791E-03
            4992            5150     204.727E-03     204.915E-03
            4992            5151     170.268E-03     182.070E-03
            4993              22     103.087E-03     127.555E-03
            4993             548     155.837E-03     175.786E-03
            4993             753     120.895E-03     140.791E-03
            4993            5151     170.268E-03     182.070E-03
            5575              26     11.1800E-03     29.8091E-03
            5575             796     26.7020E-03     30.9792E-03
            5575             858     208.826E-06     218.247E-06
            5575            5605     177.008E-06     188.154E-06
            5576             795     44.2052E-03     35.7505E-03
            5576             796     26.7020E-03     30.9792E-03
            5576            5605     177.008E-06     188.154E-06
            5576            5606     130.058E-06     142.913E-06
            5577             794     49.9657E-03     42.4636E-03
            5577             795     44.2052E-03     35.7505E-03
            5577            5606     130.058E-06     142.913E-06
            5577            5607     111.444E-06     123.957E-06
            5578             793     52.0272E-03     44.4988E-03
            5578             794     49.9657E-03     42.4636E-03
            5578            5607     111.444E-06     123.957E-06
            5578            5608     105.066E-06     116.685E-06
            5579             792     50.7305E-03     44.1304E-03
            5579             793     52.0272E-03     44.4988E-03
            5579            5608     105.066E-06     116.685E-06
            5579            5609     100.705E-06     111.633E-06
            5580             791     50.2450E-03     44.1387E-03
            5580             792     50.7305E-03     44.1304E-03
            5580            5609     100.705E-06     111.633E-06
            5580            5610     97.5842E-06     107.792E-06
            5581             790     49.2033E-03     43.6015E-03
            5581             791     50.2450E-03     44.1387E-03
            5581            5610     97.5842E-06     107.792E-06
            5581            5611     94.2974E-06     103.817E-06
            5582             789     48.4747E-03     43.4243E-03
            5582             790     49.2033E-03     43.6015E-03
            5582            5611     94.2974E-06     103.817E-06
            5582            5612     91.2214E-06     100.091E-06
            5583             788     47.5905E-03     43.0994E-03
            5583             789     48.4747E-03     43.4243E-03
            5583            5612     91.2214E-06     100.091E-06
            5583            5613     88.3225E-06     96.4021E-06
            5584             787     46.8520E-03     42.9411E-03
            5584             788     47.5905E-03     43.0994E-03
            5584            5613     88.3225E-06     96.4021E-06
            5584            5614     85.7802E-06     93.0291E-06
            5585             786     46.1246E-03     42.7851E-03
            5585             787     46.8520E-03     42.9411E-03
            5585            5614     85.7802E-06     93.0291E-06
            5585            5615     83.6593E-06     89.8706E-06
            5586             785     45.4019E-03     42.8404E-03
            5586             786     46.1246E-03     42.7851E-03
            5586            5615     83.6593E-06     89.8706E-06
            5586            5616     82.0037E-06     87.1247E-06
            5587             784     45.0050E-03     42.7492E-03
            5587             785     45.4019E-03     42.8404E-03
            5587            5616     82.0037E-06     87.1247E-06
            5587            5617     80.6740E-06     84.8103E-06
            5588             783     44.4432E-03     42.9154E-03
            5588             784     45.0050E-03     42.7492E-03
            5588            5617     80.6740E-06     84.8103E-06
            5588            5618     79.2462E-06     83.6854E-06
            5589             782     42.1415E-03     44.9980E-03
            5589             783     44.4432E-03     42.9154E-03
            5589            5618     79.2462E-06     83.6854E-06
            5589            5619     78.3688E-06     83.7067E-06
            5590              30     40.4479E-03     46.7861E-03
            5590             782     42.1415E-03     44.9980E-03
            5590             838     78.2132E-06     83.8151E-06
            5590            5619     78.3688E-06     83.7067E-06
            5591             857     166.836E-06     163.510E-06
            5591             858     208.826E-06     218.247E-06
            5591            5605     177.008E-06     188.154E-06
            5591            5620     152.972E-06     153.466E-06
            5592            5605     177.008E-06     188.154E-06
            5592            5606     130.058E-06     142.913E-06
            5592            5620     152.972E-06     153.466E-06
            5592            5621     130.058E-06     135.627E-06
            5593            5606     130.058E-06     142.913E-06
            5593            5607     111.444E-06     123.957E-06
            5593            5621     130.058E-06     135.627E-06
            5593            5622     116.814E-06     124.488E-06
            5594            5607     111.444E-06     123.957E-06
            5594            5608     105.066E-06     116.685E-06
            5594            5622     116.814E-06     124.488E-06
            5594            5623     111.283E-06     119.185E-06
            5595            5608     105.066E-06     116.685E-06
            5595            5609     100.705E-06     111.633E-06
            5595            5623     111.283E-06     119.185E-06
            5595            5624     107.603E-06     114.601E-06
            5596            5609     100.705E-06     111.633E-06
            5596            5610     97.5842E-06     107.792E-06
            5596            5624     107.603E-06     114.601E-06
            5596            5625     103.397E-06     109.937E-06
            5597            5610     97.5842E-06     107.792E-06
            5597            5611     94.2974E-06     103.817E-06
            5597            5625     103.397E-06     109.937E-06
            5597            5626     99.6305E-06     105.670E-06
            5598            5611     94.2974E-06     103.817E-06
            5598            5612     91.2214E-06     100.091E-06
            5598            5626     99.6305E-06     105.670E-06
            5598            5627     96.0205E-06     101.604E-06
            5599            5612     91.2214E-06     100.091E-06
            5599            5613     88.3225E-06     96.4021E-06
            5599            5627     96.0205E-06     101.604E-06
            5599            5628     92.8783E-06     97.9879E-06
            5600            5613     88.3225E-06     96.4021E-06
            5600            5614     85.7802E-06     93.0291E-06
            5600            5628     92.8783E-06     97.9879E-06
            5600            5629     90.1406E-06     94.6863E-06
            5601            5614     85.7802E-06     93.0291E-06
            5601            5615     83.6593E-06     89.8706E-06
            5601            5629     90.1406E-06     94.6863E-06
            5601            5630     87.9007E-06     91.8921E-06
            5602            5615     83.6593E-06     89.8706E-06
            5602            5616     82.0037E-06     87.1247E-06
            5602            5630     87.9007E-06     91.8921E-06
            5602            5631     86.2698E-06     89.3377E-06
            5603            5616     82.0037E-06     87.1247E-06
            5603            5617     80.6740E-06     84.8103E-06
            5603            5631     86.2698E-06     89.3377E-06
            5603            5632     84.9238E-06     87.3691E-06
            5604            5617     80.6740E-06     84.8103E-06
            5604            5618     79.2462E-06     83.6854E-06
            5604            5632     84.9238E-06     87.3691E-06
            5604            5633     84.5525E-06     85.8760E-06
            5605            5618     79.2462E-06     83.6854E-06
            5605            5619     78.3688E-06     83.7067E-06
            5605            5633     84.5525E-06     85.8760E-06
            5605            5634     86.2420E-06     82.8809E-06
            5606             837     87.6472E-06     80.6950E-06
            5606             838     78.2132E-06     83.8151E-06
            5606            5619     78.3688E-06     83.7067E-06
            5606            5634     86.2420E-06     82.8809E-06
            5607             856     120.432E-06     124.639E-06
            5607             857     166.836E-06     163.510E-06
            5607            5620     152.972E-06     153.466E-06
            5607            5635     115.495E-06     119.333E-06
            5608            5620     152.972E-06     153.466E-06
            5608            5621     130.058E-06     135.627E-06
            5608            5635     115.495E-06     119.333E-06
            5608            5636     113.590E-06     117.938E-06
            5609            5621     130.058E-06     135.627E-06
            5609            5622     116.814E-06     124.488E-06
            5609            5636     113.590E-06     117.938E-06
            5609            5637     117.156E-06     121.715E-06
            5610            5622     116.814E-06     124.488E-06
            5610            5623     111.283E-06     119.185E-06
            5610            5637     117.156E-06     121.715E-06
            5610            5638     116.351E-06     120.066E-06
            5611            5623     111.283E-06     119.185E-06
            5611            5624     107.603E-06     114.601E-06
            5611            5638     116.351E-06     120.066E-06
            5611            5639     112.973E-06     116.193E-06
            5612            5624     107.603E-06     114.601E-06
            5612            5625     103.397E-06     109.937E-06
            5612            5639     112.973E-06     116.193E-06
            5612            5640     108.625E-06     111.442E-06
            5613            5625     103.397E-06     109.937E-06
            5613            5626     99.6305E-06     105.670E-06
            5613            5640     108.625E-06     111.442E-06
            5613            5641     104.292E-06     106.910E-06
            5614            5626     99.6305E-06     105.670E-06
            5614            5627     96.0205E-06     101.604E-06
            5614            5641     104.292E-06     106.910E-06
            5614            5642     100.450E-06     102.837E-06
            5615            5627     96.0205E-06     101.604E-06
            5615            5628     92.8783E-06     97.9879E-06
            5615            5642     100.450E-06     102.837E-06
            5615            5643     97.0885E-06     99.2829E-06
            5616            5628     92.8783E-06     97.9879E-06
            5616            5629     90.1406E-06     94.6863E-06
            5616            5643     97.0885E-06     99.2829E-06
            5616            5644     94.2894E-06     96.2853E-06
            5617            5629     90.1406E-06     94.6863E-06
            5617            5630     87.9007E-06     91.8921E-06
            5617            5644     94.2894E-06     96.2853E-06
            5617            5645     91.9927E-06     93.7301E-06
            5618            5630     87.9007E-06     91.8921E-06
            5618            5631     86.2698E-06     89.3377E-06
            5618            5645     91.9927E-06     93.7301E-06
            5618            5646     90.2168E-06     91.7267E-06
            5619            5631     86.2698E-06     89.3377E-06
            5619            5632     84.9238E-06     87.3691E-06
            5619            5646     90.2168E-06     91.7267E-06
            5619            5647     89.4837E-06     89.7268E-06
            5620            5632     84.9238E-06     87.3691E-06
            5620            5633     84.5525E-06     85.8760E-06
            5620            5647     89.4837E-06     89.7268E-06
            5620            5648     89.9883E-06     86.8630E-06
            5621            5633     84.5525E-06     85.8760E-06
            5621            5634     86.2420E-06     82.8809E-06
            5621            5648     89.9883E-06     86.8630E-06
            5621            5649     90.6966E-06     84.3400E-06
            5622             836     90.9032E-06     83.5071E-06
            5622             837     87.6472E-06     80.6950E-06
            5622            5634     86.2420E-06     82.8809E-06
            5622            5649     90.6966E-06     84.3400E-06
            5623             855     84.2141E-06     79.4436E-06
            5623             856     120.432E-06     124.639E-06
            5623            5635     115.495E-06     119.333E-06
            5623            5650     83.1071E-06     83.3294E-06
            5624            5635     115.495E-06     119.333E-06
            5624            5636     113.590E-06     117.938E-06
            5624            5650     83.1071E-06     83.3294E-06
            5624            5651     94.3270E-06     98.5187E-06
            5625            5636     113.590E-06     117.938E-06
            5625            5637     117.156E-06     121.715E-06
            5625            5651     94.3270E-06     98.5187E-06
            5625            5652     112.807E-06     114.010E-06
            5626            5637     117.156E-06     121.715E-06
            5626            5638     116.351E-06     120.066E-06
            5626            5652     112.807E-06     114.010E-06
            5626            5653     118.011E-06     117.228E-06
            5627            5638     116.351E-06     120.066E-06
            5627            5639     112.973E-06     116.193E-06
            5627            5653     118.011E-06     117.228E-06
            5627            5654     115.556E-06     114.701E-06
            5628            5639     112.973E-06     116.193E-06
            5628            5640     108.625E-06     111.442E-06
            5628            5654     115.556E-06     114.701E-06
            5628            5655     111.907E-06     110.979E-06
            5629            5640     108.625E-06     111.442E-06
            5629            5641     104.292E-06     106.910E-06
            5629            5655     111.907E-06     110.979E-06
            5629            5656     107.796E-06     106.930E-06
            5630            5641     104.292E-06     106.910E-06
            5630            5642     100.450E-06     102.837E-06
            5630            5656     107.796E-06     106.930E-06
            5630            5657     104.124E-06     103.363E-06
            5631            5642     100.450E-06     102.837E-06
            5631            5643     97.0885E-06     99.2829E-06
            5631            5657     104.124E-06     103.363E-06
            5631            5658     100.924E-06     100.257E-06
            5632            5643     97.0885E-06     99.2829E-06
            5632            5644     94.2894E-06     96.2853E-06
            5632            5658     100.924E-06     100.257E-06
            5632            5659     98.2028E-06     97.6831E-06
            5633            5644     94.2894E-06     96.2853E-06
            5633            5645     91.9927E-06     93.7301E-06
            5633            5659     98.2028E-06     97.6831E-06
            5633            5660     95.9613E-06     95.5725E-06
            5634            5645     91.9927E-06     93.7301E-06
            5634            5646     90.2168E-06     91.7267E-06
            5634            5660     95.9613E-06     95.5725E-06
            5634            5661     94.1311E-06     93.9607E-06
            5635            5646     90.2168E-06     91.7267E-06
            5635            5647     89.4837E-06     89.7268E-06
            5635            5661     94.1311E-06     93.9607E-06
            5635            5662     93.1602E-06     92.5351E-06
            5636            5647     89.4837E-06     89.7268E-06
            5636            5648     89.9883E-06     86.8630E-06
            5636            5662     93.1602E-06     92.5351E-06
            5636            5663     93.4841E-06     90.2987E-06
            5637            5648     89.9883E-06     86.8630E-06
            5637            5649     90.6966E-06     84.3400E-06
            5637            5663     93.4841E-06     90.2987E-06
            5637            5664     94.1147E-06     87.7861E-06
            5638             835     94.2650E-06     86.7369E-06
            5638             836     90.9032E-06     83.5071E-06
            5638            5649     90.6966E-06     84.3400E-06
            5638            5664     94.1147E-06     87.7861E-06
            5639             854     48.0634E-06     43.8358E-06
            5639             855     84.2141E-06     79.4436E-06
            5639            5650     83.1071E-06     83.3294E-06
            5639            5665     56.7028E-06     54.8778E-06
            5640            5650     83.1071E-06     83.3294E-06
            5640            5651     94.3270E-06     98.5187E-06
            5640            5665     56.7028E-06     54.8778E-06
            5640            5666     84.2621E-06     81.8888E-06
            5641            5651     94.3270E-06     98.5187E-06
            5641            5652     112.807E-06     114.010E-06
            5641            5666     84.2621E-06     81.8888E-06
            5641            5667     107.934E-06     102.722E-06
            5642            5652     112.807E-06     114.010E-06
            5642            5653     118.011E-06     117.228E-06
            5642            5667     107.934E-06     102.722E-06
            5642            5668     114.524E-06     109.251E-06
            5643            5653     118.011E-06     117.228E-06
            5643            5654     115.556E-06     114.701E-06
            5643            5668     114.524E-06     109.251E-06
            5643            5669     115.274E-06     110.041E-06
            5644            5654     115.556E-06     114.701E-06
            5644            5655     111.907E-06     110.979E-06
            5644            5669     115.274E-06     110.041E-06
            5644            5670     112.877E-06     108.145E-06
            5645            5655     111.907E-06     110.979E-06
            5645            5656     107.796E-06     106.930E-06
            5645            5670     112.877E-06     108.145E-06
            5645            5671     110.068E-06     105.763E-06
            5646            5656     107.796E-06     106.930E-06
            5646            5657     104.124E-06     103.363E-06
            5646            5671     110.068E-06     105.763E-06
            5646            5672     107.109E-06     103.241E-06
            5647            5657     104.124E-06     103.363E-06
            5647            5658     100.924E-06     100.257E-06
            5647            5672     107.109E-06     103.241E-06
            5647            5673     104.428E-06     101.009E-06
            5648            5658     100.924E-06     100.257E-06
            5648            5659     98.2028E-06     97.6831E-06
            5648            5673     104.428E-06     101.009E-06
            5648            5674     102.013E-06     99.0297E-06
            5649            5659     98.2028E-06     97.6831E-06
            5649            5660     95.9613E-06     95.5725E-06
            5649            5674     102.013E-06     99.0297E-06
            5649            5675     99.8826E-06     97.4758E-06
            5650            5660     95.9613E-06     95.5725E-06
            5650            5661     94.1311E-06     93.9607E-06
            5650            5675     99.8826E-06     97.4758E-06
            5650            5676     98.1374E-06     96.1592E-06
            5651            5661     94.1311E-06     93.9607E-06
            5651            5662     93.1602E-06     92.5351E-06
            5651            5676     98.1374E-06     96.1592E-06
            5651            5677     96.3157E-06     95.5666E-06
            5652            5662     93.1602E-06     92.5351E-06
            5652            5663     93.4841E-06     90.2987E-06
            5652            5677     96.3157E-06     95.5666E-06
            5652            5678     95.1883E-06     95.7295E-06
            5653            5663     93.4841E-06     90.2987E-06
            5653            5664     94.1147E-06     87.7861E-06
            5653            5678     95.1883E-06     95.7295E-06
            5653            5679     96.5617E-06     93.8919E-06
            5654             834     98.0490E-06     91.9739E-06
            5654             835     94.2650E-06     86.7369E-06
            5654            5664     94.1147E-06     87.7861E-06
            5654            5679     96.5617E-06     93.8919E-06
            5655             853     34.4703E-06     50.3743E-06
            5655             854     48.0634E-06     43.8358E-06
            5655            5665     56.7028E-06     54.8778E-06
            5655            5680     48.6299E-06     50.3879E-06
            5656            5665     56.7028E-06     54.8778E-06
            5656            5666     84.2621E-06     81.8888E-06
            5656            5680     48.6299E-06     50.3879E-06
            5656            5681     77.0744E-06     64.6985E-06
            5657            5666     84.2621E-06     81.8888E-06
            5657            5667     107.934E-06     102.722E-06
            5657            5681     77.0744E-06     64.6985E-06
            5657            5682     98.5169E-06     86.9316E-06
            5658            5667     107.934E-06     102.722E-06
            5658            5668     114.524E-06     109.251E-06
            5658            5682     98.5169E-06     86.9316E-06
            5658            5683     108.528E-06     98.2858E-06
            5659            5668     114.524E-06     109.251E-06
            5659            5669     115.274E-06     110.041E-06
            5659            5683     108.528E-06     98.2858E-06
            5659            5684     112.237E-06     103.025E-06
            5660            5669     115.274E-06     110.041E-06
            5660            5670     112.877E-06     108.145E-06
            5660            5684     112.237E-06     103.025E-06
            5660            5685     112.783E-06     104.391E-06
            5661            5670     112.877E-06     108.145E-06
            5661            5671     110.068E-06     105.763E-06
            5661            5685     112.783E-06     104.391E-06
            5661            5686     111.644E-06     104.113E-06
            5662            5671     110.068E-06     105.763E-06
            5662            5672     107.109E-06     103.241E-06
            5662            5686     111.644E-06     104.113E-06
            5662            5687     109.912E-06     103.130E-06
            5663            5672     107.109E-06     103.241E-06
            5663            5673     104.428E-06     101.009E-06
            5663            5687     109.912E-06     103.130E-06
            5663            5688     107.886E-06     101.871E-06
            5664            5673     104.428E-06     101.009E-06
            5664            5674     102.013E-06     99.0297E-06
            5664            5688     107.886E-06     101.871E-06
            5664            5689     105.881E-06     100.653E-06
            5665            5674     102.013E-06     99.0297E-06
            5665            5675     99.8826E-06     97.4758E-06
            5665            5689     105.881E-06     100.653E-06
            5665            5690     103.943E-06     99.5087E-06
            5666            5675     99.8826E-06     97.4758E-06
            5666            5676     98.1374E-06     96.1592E-06
            5666            5690     103.943E-06     99.5087E-06
            5666            5691     102.134E-06     98.6979E-06
            5667            5676     98.1374E-06     96.1592E-06
            5667            5677     96.3157E-06     95.5666E-06
            5667            5691     102.134E-06     98.6979E-06
            5667            5692     100.317E-06     98.2356E-06
            5668            5677     96.3157E-06     95.5666E-06
            5668            5678     95.1883E-06     95.7295E-06
            5668            5692     100.317E-06     98.2356E-06
            5668            5693     97.9208E-06     99.1308E-06
            5669            5678     95.1883E-06     95.7295E-06
            5669            5679     96.5617E-06     93.8919E-06
            5669            5693     97.9208E-06     99.1308E-06
            5669            5694     95.7450E-06     101.551E-06
            5670             833     94.9006E-06     102.900E-06
            5670             834     98.0490E-06     91.9739E-06
            5670            5679     96.5617E-06     93.8919E-06
            5670            5694     95.7450E-06     101.551E-06
            5671              34     37.7613E-06     71.6754E-06
            5671             853     34.4703E-06     50.3743E-06
            5671             897     50.2810E-06     57.3163E-06
            5671            5680     48.6299E-06     50.3879E-06
            5672             896     72.2936E-06     55.0250E-06
            5672             897     50.2810E-06     57.3163E-06
            5672            5680     48.6299E-06     50.3879E-06
            5672            5681     77.0744E-06     64.6985E-06
            5673             895     91.9421E-06     77.6466E-06
            5673             896     72.2936E-06     55.0250E-06
            5673            5681     77.0744E-06     64.6985E-06
            5673            5682     98.5169E-06     86.9316E-06
            5674             894     105.189E-06     92.5445E-06
            5674             895     91.9421E-06     77.6466E-06
            5674            5682     98.5169E-06     86.9316E-06
            5674            5683     108.528E-06     98.2858E-06
            5675             893     110.310E-06     99.1761E-06
            5675             894     105.189E-06     92.5445E-06
            5675            5683     108.528E-06     98.2858E-06
            5675            5684     112.237E-06     103.025E-06
            5676             892     112.592E-06     102.519E-06
            5676             893     110.310E-06     99.1761E-06
            5676            5684     112.237E-06     103.025E-06
            5676            5685     112.783E-06     104.391E-06
            5677             891     112.441E-06     103.361E-06
            5677             892     112.592E-06     102.519E-06
            5677            5685     112.783E-06     104.391E-06
            5677            5686     111.644E-06     104.113E-06
            5678             890     111.323E-06     103.141E-06
            5678             891     112.441E-06     103.361E-06
            5678            5686     111.644E-06     104.113E-06
            5678            5687     109.912E-06     103.130E-06
            5679             889     109.662E-06     102.429E-06
            5679             890     111.323E-06     103.141E-06
            5679            5687     109.912E-06     103.130E-06
            5679            5688     107.886E-06     101.871E-06
            5680             888     107.864E-06     101.539E-06
            5680             889     109.662E-06     102.429E-06
            5680            5688     107.886E-06     101.871E-06
            5680            5689     105.881E-06     100.653E-06
            5681             887     105.976E-06     100.604E-06
            5681             888     107.864E-06     101.539E-06
            5681            5689     105.881E-06     100.653E-06
            5681            5690     103.943E-06     99.5087E-06
            5682             886     104.252E-06     100.081E-06
            5682             887     105.976E-06     100.604E-06
            5682            5690     103.943E-06     99.5087E-06
            5682            5691     102.134E-06     98.6979E-06
            5683             885     102.381E-06     99.3814E-06
            5683             886     104.252E-06     100.081E-06
            5683            5691     102.134E-06     98.6979E-06
            5683            5692     100.317E-06     98.2356E-06
            5684             884     100.413E-06     100.192E-06
            5684             885     102.381E-06     99.3814E-06
            5684            5692     100.317E-06     98.2356E-06
            5684            5693     97.9208E-06     99.1308E-06
            5685             883     94.7362E-06     103.534E-06
            5685             884     100.413E-06     100.192E-06
            5685            5693     97.9208E-06     99.1308E-06
            5685            5694     95.7450E-06     101.551E-06
            5686              32     89.8433E-06     105.136E-06
            5686             833     94.9006E-06     102.900E-06
            5686             883     94.7362E-06     103.534E-06
            5686            5694     95.7450E-06     101.551E-06


  Minimum                            34.4703E-06     43.8358E-06
      At Element                            5671            5655
            Node                             853             854

  Maximum                                1.04024         1.04655
      At Element                            4914            4914
            Node                             560             560

           Total                     1.69925E+03     1.73520E+03


