********************************************************************************
Field Output Report, written Thu Feb 22 16:22:43 2018

Source 1
---------

   ODB: C:/Users/JMJFVA~1/AppData/Local/Temp/Do228n.odb
   Step: Jam2
   Frame: Increment      1: Step Time =    1.000

Loc 1 : Element nodal  values at shell < ALUMINIUM > < 5 section points > from source 1 : SNEG, (fraction = -1.0) ( Average criteria = 75%, Not averaged across region boundaries )
Loc 2 : Element nodal  values at shell < ALUMINIUM > < 5 section points > from source 1 : SPOS, (fraction = 1.0) ( Average criteria = 75%, Not averaged across region boundaries )

Output sorted by column "Element Label".

Field Output reported at element nodes for region: DO228-1.Region_1
   Computation algorithm: EXTRAPOLATE_COMPUTE_AVERAGE
   Averaged at nodes
   Averaging regions: ODB_REGIONS

   Element Label      Node Label         S.Mises         S.Mises
                                          @Loc 1          @Loc 2
-----------------------------------------------------------------
             945               8     79.7140E-03     79.3447E-03
             945             210     78.0866E-03     77.7446E-03
             945             235     167.178E-06     163.637E-06
             945            1760     165.208E-06     162.060E-06
             946             210     78.0866E-03     77.7446E-03
             946             211     73.8062E-03     73.3250E-03
             946            1760     165.208E-06     162.060E-06
             946            1761     159.986E-06     157.769E-06
             947             211     73.8062E-03     73.3250E-03
             947             212     66.3134E-03     65.7098E-03
             947            1761     159.986E-06     157.769E-06
             947            1762     152.612E-06     150.527E-06
             948             212     66.3134E-03     65.7098E-03
             948             213     56.6344E-03     55.9448E-03
             948            1762     152.612E-06     150.527E-06
             948            1763     144.345E-06     141.346E-06
             949             213     56.6344E-03     55.9448E-03
             949             214     44.1599E-03     43.1026E-03
             949            1763     144.345E-06     141.346E-06
             949            1764     134.547E-06     132.641E-06
             950             214     44.1599E-03     43.1026E-03
             950             215     30.0579E-03     28.4728E-03
             950            1764     134.547E-06     132.641E-06
             950            1765     132.073E-06     133.046E-06
             951             215     30.0579E-03     28.4728E-03
             951             216     18.0508E-03     23.4112E-03
             951            1765     132.073E-06     133.046E-06
             951            1766     152.486E-06     153.058E-06
             952               2     12.5091E-03     25.1070E-03
             952             216     18.0508E-03     23.4112E-03
             952             217     169.720E-06     168.612E-06
             952            1766     152.486E-06     153.058E-06
             953             234     167.587E-06     166.534E-06
             953             235     167.178E-06     163.637E-06
             953            1760     165.208E-06     162.060E-06
             953            1767     165.590E-06     164.319E-06
             954            1760     165.208E-06     162.060E-06
             954            1761     159.986E-06     157.769E-06
             954            1767     165.590E-06     164.319E-06
             954            1768     159.773E-06     157.960E-06
             955            1761     159.986E-06     157.769E-06
             955            1762     152.612E-06     150.527E-06
             955            1768     159.773E-06     157.960E-06
             955            1769     151.717E-06     147.881E-06
             956            1762     152.612E-06     150.527E-06
             956            1763     144.345E-06     141.346E-06
             956            1769     151.717E-06     147.881E-06
             956            1770     141.712E-06     133.237E-06
             957            1763     144.345E-06     141.346E-06
             957            1764     134.547E-06     132.641E-06
             957            1770     141.712E-06     133.237E-06
             957            1771     129.970E-06     117.232E-06
             958            1764     134.547E-06     132.641E-06
             958            1765     132.073E-06     133.046E-06
             958            1771     129.970E-06     117.232E-06
             958            1772     123.368E-06     110.442E-06
             959            1765     132.073E-06     133.046E-06
             959            1766     152.486E-06     153.058E-06
             959            1772     123.368E-06     110.442E-06
             959            1773     127.849E-06     117.513E-06
             960             217     169.720E-06     168.612E-06
             960             218     132.956E-06     124.076E-06
             960            1766     152.486E-06     153.058E-06
             960            1773     127.849E-06     117.513E-06
             961             233     166.112E-06     166.150E-06
             961             234     167.587E-06     166.534E-06
             961            1767     165.590E-06     164.319E-06
             961            1774     163.370E-06     163.699E-06
             962            1767     165.590E-06     164.319E-06
             962            1768     159.773E-06     157.960E-06
             962            1774     163.370E-06     163.699E-06
             962            1775     155.500E-06     156.553E-06
             963            1768     159.773E-06     157.960E-06
             963            1769     151.717E-06     147.881E-06
             963            1775     155.500E-06     156.553E-06
             963            1776     142.761E-06     145.204E-06
             964            1769     151.717E-06     147.881E-06
             964            1770     141.712E-06     133.237E-06
             964            1776     142.761E-06     145.204E-06
             964            1777     125.709E-06     129.966E-06
             965            1770     141.712E-06     133.237E-06
             965            1771     129.970E-06     117.232E-06
             965            1777     125.709E-06     129.966E-06
             965            1778     105.759E-06     111.928E-06
             966            1771     129.970E-06     117.232E-06
             966            1772     123.368E-06     110.442E-06
             966            1778     105.759E-06     111.928E-06
             966            1779     85.8795E-06     95.8139E-06
             967            1772     123.368E-06     110.442E-06
             967            1773     127.849E-06     117.513E-06
             967            1779     85.8795E-06     95.8139E-06
             967            1780     80.7645E-06     91.4880E-06
             968             218     132.956E-06     124.076E-06
             968             219     85.0204E-06     93.8233E-06
             968            1773     127.849E-06     117.513E-06
             968            1780     80.7645E-06     91.4880E-06
             969             232     166.543E-06     165.944E-06
             969             233     166.112E-06     166.150E-06
             969            1774     163.370E-06     163.699E-06
             969            1781     163.649E-06     162.971E-06
             970            1774     163.370E-06     163.699E-06
             970            1775     155.500E-06     156.553E-06
             970            1781     163.649E-06     162.971E-06
             970            1782     155.032E-06     154.068E-06
             971            1775     155.500E-06     156.553E-06
             971            1776     142.761E-06     145.204E-06
             971            1782     155.032E-06     154.068E-06
             971            1783     140.291E-06     139.714E-06
             972            1776     142.761E-06     145.204E-06
             972            1777     125.709E-06     129.966E-06
             972            1783     140.291E-06     139.714E-06
             972            1784     120.509E-06     121.308E-06
             973            1777     125.709E-06     129.966E-06
             973            1778     105.759E-06     111.928E-06
             973            1784     120.509E-06     121.308E-06
             973            1785     97.4539E-06     97.0425E-06
             974            1778     105.759E-06     111.928E-06
             974            1779     85.8795E-06     95.8139E-06
             974            1785     97.4539E-06     97.0425E-06
             974            1786     71.2590E-06     67.2420E-06
             975            1779     85.8795E-06     95.8139E-06
             975            1780     80.7645E-06     91.4880E-06
             975            1786     71.2590E-06     67.2420E-06
             975            1787     57.9781E-06     52.9506E-06
             976             219     85.0204E-06     93.8233E-06
             976             220     58.6003E-06     54.1784E-06
             976            1780     80.7645E-06     91.4880E-06
             976            1787     57.9781E-06     52.9506E-06
             977             231     166.828E-06     166.206E-06
             977             232     166.543E-06     165.944E-06
             977            1781     163.649E-06     162.971E-06
             977            1788     163.819E-06     162.971E-06
             978            1781     163.649E-06     162.971E-06
             978            1782     155.032E-06     154.068E-06
             978            1788     163.819E-06     162.971E-06
             978            1789     154.384E-06     153.300E-06
             979            1782     155.032E-06     154.068E-06
             979            1783     140.291E-06     139.714E-06
             979            1789     154.384E-06     153.300E-06
             979            1790     138.460E-06     137.850E-06
             980            1783     140.291E-06     139.714E-06
             980            1784     120.509E-06     121.308E-06
             980            1790     138.460E-06     137.850E-06
             980            1791     116.128E-06     117.111E-06
             981            1784     120.509E-06     121.308E-06
             981            1785     97.4539E-06     97.0425E-06
             981            1791     116.128E-06     117.111E-06
             981            1792     89.0145E-06     91.6536E-06
             982            1785     97.4539E-06     97.0425E-06
             982            1786     71.2590E-06     67.2420E-06
             982            1792     89.0145E-06     91.6536E-06
             982            1793     58.7279E-06     58.3251E-06
             983            1786     71.2590E-06     67.2420E-06
             983            1787     57.9781E-06     52.9506E-06
             983            1793     58.7279E-06     58.3251E-06
             983            1794     38.3194E-06     35.6567E-06
             984             220     58.6003E-06     54.1784E-06
             984             221     33.9195E-06     32.5847E-06
             984            1787     57.9781E-06     52.9506E-06
             984            1794     38.3194E-06     35.6567E-06
             985             230     166.313E-06     165.365E-06
             985             231     166.828E-06     166.206E-06
             985            1788     163.819E-06     162.971E-06
             985            1795     163.110E-06     161.970E-06
             986            1788     163.819E-06     162.971E-06
             986            1789     154.384E-06     153.300E-06
             986            1795     163.110E-06     161.970E-06
             986            1796     153.339E-06     152.062E-06
             987            1789     154.384E-06     153.300E-06
             987            1790     138.460E-06     137.850E-06
             987            1796     153.339E-06     152.062E-06
             987            1797     136.832E-06     135.755E-06
             988            1790     138.460E-06     137.850E-06
             988            1791     116.128E-06     117.111E-06
             988            1797     136.832E-06     135.755E-06
             988            1798     113.691E-06     113.769E-06
             989            1791     116.128E-06     117.111E-06
             989            1792     89.0145E-06     91.6536E-06
             989            1798     113.691E-06     113.769E-06
             989            1799     83.9250E-06     87.2316E-06
             990            1792     89.0145E-06     91.6536E-06
             990            1793     58.7279E-06     58.3251E-06
             990            1799     83.9250E-06     87.2316E-06
             990            1800     53.4303E-06     57.6565E-06
             991            1793     58.7279E-06     58.3251E-06
             991            1794     38.3194E-06     35.6567E-06
             991            1800     53.4303E-06     57.6565E-06
             991            1801     35.8336E-06     42.9945E-06
             992             221     33.9195E-06     32.5847E-06
             992             222     32.1676E-06     43.5624E-06
             992            1794     38.3194E-06     35.6567E-06
             992            1801     35.8336E-06     42.9945E-06
             993              10     165.581E-06     164.831E-06
             993             229     162.262E-06     161.455E-06
             993             230     166.313E-06     165.365E-06
             993            1795     163.110E-06     161.970E-06
             994             228     152.514E-06     151.295E-06
             994             229     162.262E-06     161.455E-06
             994            1795     163.110E-06     161.970E-06
             994            1796     153.339E-06     152.062E-06
             995             227     136.066E-06     134.531E-06
             995             228     152.514E-06     151.295E-06
             995            1796     153.339E-06     152.062E-06
             995            1797     136.832E-06     135.755E-06
             996             226     113.077E-06     111.878E-06
             996             227     136.066E-06     134.531E-06
             996            1797     136.832E-06     135.755E-06
             996            1798     113.691E-06     113.769E-06
             997             225     83.5417E-06     84.2023E-06
             997             226     113.077E-06     111.878E-06
             997            1798     113.691E-06     113.769E-06
             997            1799     83.9250E-06     87.2316E-06
             998             224     53.1737E-06     57.2393E-06
             998             225     83.5417E-06     84.2023E-06
             998            1799     83.9250E-06     87.2316E-06
             998            1800     53.4303E-06     57.6565E-06
             999             223     39.0299E-06     53.5740E-06
             999             224     53.1737E-06     57.2393E-06
             999            1800     53.4303E-06     57.6565E-06
             999            1801     35.8336E-06     42.9945E-06
            1000               9     38.6892E-06     61.8700E-06
            1000             222     32.1676E-06     43.5624E-06
            1000             223     39.0299E-06     53.5740E-06
            1000            1801     35.8336E-06     42.9945E-06
            1001               8     79.7140E-03     79.3447E-03
            1001             236     78.0795E-03     77.7461E-03
            1001             351     159.860E-03     159.339E-03
            1001            1802     156.745E-03     156.318E-03
            1002             236     78.0795E-03     77.7461E-03
            1002             237     73.7911E-03     73.3278E-03
            1002            1802     156.745E-03     156.318E-03
            1002            1803     147.893E-03     147.581E-03
            1003             237     73.7911E-03     73.3278E-03
            1003             238     66.2900E-03     65.7154E-03
            1003            1803     147.893E-03     147.581E-03
            1003            1804     133.243E-03     133.199E-03
            1004             238     66.2900E-03     65.7154E-03
            1004             239     56.6021E-03     55.9520E-03
            1004            1804     133.243E-03     133.199E-03
            1004            1805     113.481E-03     114.134E-03
            1005             239     56.6021E-03     55.9520E-03
            1005             240     44.1145E-03     43.1117E-03
            1005            1805     113.481E-03     114.134E-03
            1005            1806     88.7602E-03     91.5287E-03
            1006             240     44.1145E-03     43.1117E-03
            1006             241     29.9863E-03     28.5055E-03
            1006            1806     88.7602E-03     91.5287E-03
            1006            1807     59.3949E-03     64.2453E-03
            1007             241     29.9863E-03     28.5055E-03
            1007             242     18.1194E-03     23.5682E-03
            1007            1807     59.3949E-03     64.2453E-03
            1007            1808     33.2608E-03     46.8181E-03
            1008               5     12.7353E-03     25.3672E-03
            1008             242     18.1194E-03     23.5682E-03
            1008             243     22.6225E-03     44.4716E-03
            1008            1808     33.2608E-03     46.8181E-03
            1009             350     161.234E-03     160.134E-03
            1009             351     159.860E-03     159.339E-03
            1009            1802     156.745E-03     156.318E-03
            1009            1809     158.470E-03     157.223E-03
            1010            1802     156.745E-03     156.318E-03
            1010            1803     147.893E-03     147.581E-03
            1010            1809     158.470E-03     157.223E-03
            1010            1810     149.872E-03     148.470E-03
            1011            1803     147.893E-03     147.581E-03
            1011            1804     133.243E-03     133.199E-03
            1011            1810     149.872E-03     148.470E-03
            1011            1811     136.434E-03     134.648E-03
            1012            1804     133.243E-03     133.199E-03
            1012            1805     113.481E-03     114.134E-03
            1012            1811     136.434E-03     134.648E-03
            1012            1812     118.406E-03     115.816E-03
            1013            1805     113.481E-03     114.134E-03
            1013            1806     88.7602E-03     91.5287E-03
            1013            1812     118.406E-03     115.816E-03
            1013            1813     96.7786E-03     94.3699E-03
            1014            1806     88.7602E-03     91.5287E-03
            1014            1807     59.3949E-03     64.2453E-03
            1014            1813     96.7786E-03     94.3699E-03
            1014            1814     73.5318E-03     67.7516E-03
            1015            1807     59.3949E-03     64.2453E-03
            1015            1808     33.2608E-03     46.8181E-03
            1015            1814     73.5318E-03     67.7516E-03
            1015            1815     56.8587E-03     48.7647E-03
            1016             243     22.6225E-03     44.4716E-03
            1016             244     52.2377E-03     45.8098E-03
            1016            1808     33.2608E-03     46.8181E-03
            1016            1815     56.8587E-03     48.7647E-03
            1017             349     160.478E-03     158.446E-03
            1017             350     161.234E-03     160.134E-03
            1017            1809     158.470E-03     157.223E-03
            1017            1816     157.617E-03     155.710E-03
            1018            1809     158.470E-03     157.223E-03
            1018            1810     149.872E-03     148.470E-03
            1018            1816     157.617E-03     155.710E-03
            1018            1817     149.489E-03     147.989E-03
            1019            1810     149.872E-03     148.470E-03
            1019            1811     136.434E-03     134.648E-03
            1019            1817     149.489E-03     147.989E-03
            1019            1818     136.162E-03     135.474E-03
            1020            1811     136.434E-03     134.648E-03
            1020            1812     118.406E-03     115.816E-03
            1020            1818     136.162E-03     135.474E-03
            1020            1819     119.482E-03     119.183E-03
            1021            1812     118.406E-03     115.816E-03
            1021            1813     96.7786E-03     94.3699E-03
            1021            1819     119.482E-03     119.183E-03
            1021            1820     99.0104E-03     99.4833E-03
            1022            1813     96.7786E-03     94.3699E-03
            1022            1814     73.5318E-03     67.7516E-03
            1022            1820     99.0104E-03     99.4833E-03
            1022            1821     78.2367E-03     79.2716E-03
            1023            1814     73.5318E-03     67.7516E-03
            1023            1815     56.8587E-03     48.7647E-03
            1023            1821     78.2367E-03     79.2716E-03
            1023            1822     79.0952E-03     79.9290E-03
            1024             244     52.2377E-03     45.8098E-03
            1024             245     88.8879E-03     89.8718E-03
            1024            1815     56.8587E-03     48.7647E-03
            1024            1822     79.0952E-03     79.9290E-03
            1025             348     163.323E-03     162.441E-03
            1025             349     160.478E-03     158.446E-03
            1025            1816     157.617E-03     155.710E-03
            1025            1823     160.113E-03     159.377E-03
            1026            1816     157.617E-03     155.710E-03
            1026            1817     149.489E-03     147.989E-03
            1026            1823     160.113E-03     159.377E-03
            1026            1824     151.509E-03     151.010E-03
            1027            1817     149.489E-03     147.989E-03
            1027            1818     136.162E-03     135.474E-03
            1027            1824     151.509E-03     151.010E-03
            1027            1825     136.831E-03     137.608E-03
            1028            1818     136.162E-03     135.474E-03
            1028            1819     119.482E-03     119.183E-03
            1028            1825     136.831E-03     137.608E-03
            1028            1826     118.764E-03     121.819E-03
            1029            1819     119.482E-03     119.183E-03
            1029            1820     99.0104E-03     99.4833E-03
            1029            1826     118.764E-03     121.819E-03
            1029            1827     97.7648E-03     105.810E-03
            1030            1820     99.0104E-03     99.4833E-03
            1030            1821     78.2367E-03     79.2716E-03
            1030            1827     97.7648E-03     105.810E-03
            1030            1828     77.6461E-03     92.0177E-03
            1031            1821     78.2367E-03     79.2716E-03
            1031            1822     79.0952E-03     79.9290E-03
            1031            1828     77.6461E-03     92.0177E-03
            1031            1829     67.9767E-03     81.0080E-03
            1032             245     88.8879E-03     89.8718E-03
            1032             246     66.2207E-03     75.4845E-03
            1032            1822     79.0952E-03     79.9290E-03
            1032            1829     67.9767E-03     81.0080E-03
            1033             347     167.995E-03     167.519E-03
            1033             348     163.323E-03     162.441E-03
            1033            1823     160.113E-03     159.377E-03
            1033            1830     165.151E-03     164.282E-03
            1034            1823     160.113E-03     159.377E-03
            1034            1824     151.509E-03     151.010E-03
            1034            1830     165.151E-03     164.282E-03
            1034            1831     156.512E-03     154.989E-03
            1035            1824     151.509E-03     151.010E-03
            1035            1825     136.831E-03     137.608E-03
            1035            1831     156.512E-03     154.989E-03
            1035            1832     142.380E-03     140.864E-03
            1036            1825     136.831E-03     137.608E-03
            1036            1826     118.764E-03     121.819E-03
            1036            1832     142.380E-03     140.864E-03
            1036            1833     124.584E-03     125.034E-03
            1037            1826     118.764E-03     121.819E-03
            1037            1827     97.7648E-03     105.810E-03
            1037            1833     124.584E-03     125.034E-03
            1037            1834     107.253E-03     110.102E-03
            1038            1827     97.7648E-03     105.810E-03
            1038            1828     77.6461E-03     92.0177E-03
            1038            1834     107.253E-03     110.102E-03
            1038            1835     92.6515E-03     93.5720E-03
            1039            1828     77.6461E-03     92.0177E-03
            1039            1829     67.9767E-03     81.0080E-03
            1039            1835     92.6515E-03     93.5720E-03
            1039            1836     66.9394E-03     62.9283E-03
            1040             246     66.2207E-03     75.4845E-03
            1040             247     47.9744E-03     41.6555E-03
            1040            1829     67.9767E-03     81.0080E-03
            1040            1836     66.9394E-03     62.9283E-03
            1041             346     168.571E-03     167.412E-03
            1041             347     167.995E-03     167.519E-03
            1041            1830     165.151E-03     164.282E-03
            1041            1837     166.140E-03     164.743E-03
            1042            1830     165.151E-03     164.282E-03
            1042            1831     156.512E-03     154.989E-03
            1042            1837     166.140E-03     164.743E-03
            1042            1838     158.773E-03     157.282E-03
            1043            1831     156.512E-03     154.989E-03
            1043            1832     142.380E-03     140.864E-03
            1043            1838     158.773E-03     157.282E-03
            1043            1839     146.638E-03     146.588E-03
            1044            1832     142.380E-03     140.864E-03
            1044            1833     124.584E-03     125.034E-03
            1044            1839     146.638E-03     146.588E-03
            1044            1840     131.629E-03     134.761E-03
            1045            1833     124.584E-03     125.034E-03
            1045            1834     107.253E-03     110.102E-03
            1045            1840     131.629E-03     134.761E-03
            1045            1841     117.089E-03     121.745E-03
            1046            1834     107.253E-03     110.102E-03
            1046            1835     92.6515E-03     93.5720E-03
            1046            1841     117.089E-03     121.745E-03
            1046            1842     101.114E-03     104.262E-03
            1047            1835     92.6515E-03     93.5720E-03
            1047            1836     66.9394E-03     62.9283E-03
            1047            1842     101.114E-03     104.262E-03
            1047            1843     83.8587E-03     84.0786E-03
            1048             247     47.9744E-03     41.6555E-03
            1048             248     75.8698E-03     74.3088E-03
            1048            1836     66.9394E-03     62.9283E-03
            1048            1843     83.8587E-03     84.0786E-03
            1049             345     168.533E-03     167.762E-03
            1049             346     168.571E-03     167.412E-03
            1049            1837     166.140E-03     164.743E-03
            1049            1844     166.683E-03     165.693E-03
            1050            1837     166.140E-03     164.743E-03
            1050            1838     158.773E-03     157.282E-03
            1050            1844     166.683E-03     165.693E-03
            1050            1845     161.114E-03     160.181E-03
            1051            1838     158.773E-03     157.282E-03
            1051            1839     146.638E-03     146.588E-03
            1051            1845     161.114E-03     160.181E-03
            1051            1846     152.071E-03     152.761E-03
            1052            1839     146.638E-03     146.588E-03
            1052            1840     131.629E-03     134.761E-03
            1052            1846     152.071E-03     152.761E-03
            1052            1847     141.080E-03     144.026E-03
            1053            1840     131.629E-03     134.761E-03
            1053            1841     117.089E-03     121.745E-03
            1053            1847     141.080E-03     144.026E-03
            1053            1848     128.606E-03     131.575E-03
            1054            1841     117.089E-03     121.745E-03
            1054            1842     101.114E-03     104.262E-03
            1054            1848     128.606E-03     131.575E-03
            1054            1849     114.833E-03     117.436E-03
            1055            1842     101.114E-03     104.262E-03
            1055            1843     83.8587E-03     84.0786E-03
            1055            1849     114.833E-03     117.436E-03
            1055            1850     107.994E-03     108.934E-03
            1056             248     75.8698E-03     74.3088E-03
            1056             249     108.145E-03     106.906E-03
            1056            1843     83.8587E-03     84.0786E-03
            1056            1850     107.994E-03     108.934E-03
            1057             344     168.130E-03     167.727E-03
            1057             345     168.533E-03     167.762E-03
            1057            1844     166.683E-03     165.693E-03
            1057            1851     167.050E-03     166.532E-03
            1058            1844     166.683E-03     165.693E-03
            1058            1845     161.114E-03     160.181E-03
            1058            1851     167.050E-03     166.532E-03
            1058            1852     163.722E-03     163.679E-03
            1059            1845     161.114E-03     160.181E-03
            1059            1846     152.071E-03     152.761E-03
            1059            1852     163.722E-03     163.679E-03
            1059            1853     158.446E-03     159.904E-03
            1060            1846     152.071E-03     152.761E-03
            1060            1847     141.080E-03     144.026E-03
            1060            1853     158.446E-03     159.904E-03
            1060            1854     151.900E-03     153.844E-03
            1061            1847     141.080E-03     144.026E-03
            1061            1848     128.606E-03     131.575E-03
            1061            1854     151.900E-03     153.844E-03
            1061            1855     142.865E-03     144.466E-03
            1062            1848     128.606E-03     131.575E-03
            1062            1849     114.833E-03     117.436E-03
            1062            1855     142.865E-03     144.466E-03
            1062            1856     133.412E-03     137.407E-03
            1063            1849     114.833E-03     117.436E-03
            1063            1850     107.994E-03     108.934E-03
            1063            1856     133.412E-03     137.407E-03
            1063            1857     133.524E-03     136.475E-03
            1064             249     108.145E-03     106.906E-03
            1064             250     137.597E-03     137.198E-03
            1064            1850     107.994E-03     108.934E-03
            1064            1857     133.524E-03     136.475E-03
            1065             343     168.134E-03     167.708E-03
            1065             344     168.130E-03     167.727E-03
            1065            1851     167.050E-03     166.532E-03
            1065            1858     167.976E-03     167.664E-03
            1066            1851     167.050E-03     166.532E-03
            1066            1852     163.722E-03     163.679E-03
            1066            1858     167.976E-03     167.664E-03
            1066            1859     167.526E-03     167.559E-03
            1067            1852     163.722E-03     163.679E-03
            1067            1853     158.446E-03     159.904E-03
            1067            1859     167.526E-03     167.559E-03
            1067            1860     166.740E-03     166.820E-03
            1068            1853     158.446E-03     159.904E-03
            1068            1854     151.900E-03     153.844E-03
            1068            1860     166.740E-03     166.820E-03
            1068            1861     164.850E-03     163.651E-03
            1069            1854     151.900E-03     153.844E-03
            1069            1855     142.865E-03     144.466E-03
            1069            1861     164.850E-03     163.651E-03
            1069            1862     160.733E-03     159.609E-03
            1070            1855     142.865E-03     144.466E-03
            1070            1856     133.412E-03     137.407E-03
            1070            1862     160.733E-03     159.609E-03
            1070            1863     156.793E-03     159.921E-03
            1071            1856     133.412E-03     137.407E-03
            1071            1857     133.524E-03     136.475E-03
            1071            1863     156.793E-03     159.921E-03
            1071            1864     160.810E-03     164.390E-03
            1072             250     137.597E-03     137.198E-03
            1072             251     166.078E-03     167.030E-03
            1072            1857     133.524E-03     136.475E-03
            1072            1864     160.810E-03     164.390E-03
            1073             342     167.942E-03     167.018E-03
            1073             343     168.134E-03     167.708E-03
            1073            1858     167.976E-03     167.664E-03
            1073            1865     168.626E-03     168.143E-03
            1074            1858     167.976E-03     167.664E-03
            1074            1859     167.526E-03     167.559E-03
            1074            1865     168.626E-03     168.143E-03
            1074            1866     171.022E-03     170.918E-03
            1075            1859     167.526E-03     167.559E-03
            1075            1860     166.740E-03     166.820E-03
            1075            1866     171.022E-03     170.918E-03
            1075            1867     174.415E-03     172.988E-03
            1076            1860     166.740E-03     166.820E-03
            1076            1861     164.850E-03     163.651E-03
            1076            1867     174.415E-03     172.988E-03
            1076            1868     176.548E-03     173.666E-03
            1077            1861     164.850E-03     163.651E-03
            1077            1862     160.733E-03     159.609E-03
            1077            1868     176.548E-03     173.666E-03
            1077            1869     177.088E-03     175.348E-03
            1078            1862     160.733E-03     159.609E-03
            1078            1863     156.793E-03     159.921E-03
            1078            1869     177.088E-03     175.348E-03
            1078            1870     180.275E-03     181.138E-03
            1079            1863     156.793E-03     159.921E-03
            1079            1864     160.810E-03     164.390E-03
            1079            1870     180.275E-03     181.138E-03
            1079            1871     190.149E-03     188.906E-03
            1080             251     166.078E-03     167.030E-03
            1080             252     196.963E-03     192.345E-03
            1080            1864     160.810E-03     164.390E-03
            1080            1871     190.149E-03     188.906E-03
            1081             341     166.641E-03     167.746E-03
            1081             342     167.942E-03     167.018E-03
            1081            1865     168.626E-03     168.143E-03
            1081            1872     167.945E-03     170.474E-03
            1082            1865     168.626E-03     168.143E-03
            1082            1866     171.022E-03     170.918E-03
            1082            1872     167.945E-03     170.474E-03
            1082            1873     172.579E-03     177.527E-03
            1083            1866     171.022E-03     170.918E-03
            1083            1867     174.415E-03     172.988E-03
            1083            1873     172.579E-03     177.527E-03
            1083            1874     179.552E-03     185.763E-03
            1084            1867     174.415E-03     172.988E-03
            1084            1868     176.548E-03     173.666E-03
            1084            1874     179.552E-03     185.763E-03
            1084            1875     185.457E-03     193.324E-03
            1085            1868     176.548E-03     173.666E-03
            1085            1869     177.088E-03     175.348E-03
            1085            1875     185.457E-03     193.324E-03
            1085            1876     189.791E-03     204.372E-03
            1086            1869     177.088E-03     175.348E-03
            1086            1870     180.275E-03     181.138E-03
            1086            1876     189.791E-03     204.372E-03
            1086            1877     196.215E-03     219.246E-03
            1087            1870     180.275E-03     181.138E-03
            1087            1871     190.149E-03     188.906E-03
            1087            1877     196.215E-03     219.246E-03
            1087            1878     210.038E-03     228.961E-03
            1088             252     196.963E-03     192.345E-03
            1088             253     219.546E-03     231.245E-03
            1088            1871     190.149E-03     188.906E-03
            1088            1878     210.038E-03     228.961E-03
            1089             340     168.927E-03     168.383E-03
            1089             341     166.641E-03     167.746E-03
            1089            1872     167.945E-03     170.474E-03
            1089            1879     172.622E-03     171.286E-03
            1090            1872     167.945E-03     170.474E-03
            1090            1873     172.579E-03     177.527E-03
            1090            1879     172.622E-03     171.286E-03
            1090            1880     183.092E-03     178.609E-03
            1091            1873     172.579E-03     177.527E-03
            1091            1874     179.552E-03     185.763E-03
            1091            1880     183.092E-03     178.609E-03
            1091            1881     199.040E-03     187.811E-03
            1092            1874     179.552E-03     185.763E-03
            1092            1875     185.457E-03     193.324E-03
            1092            1881     199.040E-03     187.811E-03
            1092            1882     216.729E-03     197.333E-03
            1093            1875     185.457E-03     193.324E-03
            1093            1876     189.791E-03     204.372E-03
            1093            1882     216.729E-03     197.333E-03
            1093            1883     232.899E-03     208.625E-03
            1094            1876     189.791E-03     204.372E-03
            1094            1877     196.215E-03     219.246E-03
            1094            1883     232.899E-03     208.625E-03
            1094            1884     250.522E-03     228.452E-03
            1095            1877     196.215E-03     219.246E-03
            1095            1878     210.038E-03     228.961E-03
            1095            1884     250.522E-03     228.452E-03
            1095            1885     265.768E-03     248.691E-03
            1096             253     219.546E-03     231.245E-03
            1096             254     271.095E-03     255.697E-03
            1096            1878     210.038E-03     228.961E-03
            1096            1885     265.768E-03     248.691E-03
            1097             339     168.496E-03     163.444E-03
            1097             340     168.927E-03     168.383E-03
            1097            1879     172.622E-03     171.286E-03
            1097            1886     171.999E-03     167.196E-03
            1098            1879     172.622E-03     171.286E-03
            1098            1880     183.092E-03     178.609E-03
            1098            1886     171.999E-03     167.196E-03
            1098            1887     182.355E-03     177.564E-03
            1099            1880     183.092E-03     178.609E-03
            1099            1881     199.040E-03     187.811E-03
            1099            1887     182.355E-03     177.564E-03
            1099            1888     197.350E-03     191.717E-03
            1100            1881     199.040E-03     187.811E-03
            1100            1882     216.729E-03     197.333E-03
            1100            1888     197.350E-03     191.717E-03
            1100            1889     215.595E-03     209.323E-03
            1101            1882     216.729E-03     197.333E-03
            1101            1883     232.899E-03     208.625E-03
            1101            1889     215.595E-03     209.323E-03
            1101            1890     233.506E-03     229.289E-03
            1102            1883     232.899E-03     208.625E-03
            1102            1884     250.522E-03     228.452E-03
            1102            1890     233.506E-03     229.289E-03
            1102            1891     253.598E-03     253.278E-03
            1103            1884     250.522E-03     228.452E-03
            1103            1885     265.768E-03     248.691E-03
            1103            1891     253.598E-03     253.278E-03
            1103            1892     286.048E-03     283.478E-03
            1104             254     271.095E-03     255.697E-03
            1104             255     306.261E-03     299.631E-03
            1104            1885     265.768E-03     248.691E-03
            1104            1892     286.048E-03     283.478E-03
            1105             338     168.427E-03     167.630E-03
            1105             339     168.496E-03     163.444E-03
            1105            1886     171.999E-03     167.196E-03
            1105            1893     169.768E-03     171.113E-03
            1106            1886     171.999E-03     167.196E-03
            1106            1887     182.355E-03     177.564E-03
            1106            1893     169.768E-03     171.113E-03
            1106            1894     174.160E-03     181.349E-03
            1107            1887     182.355E-03     177.564E-03
            1107            1888     197.350E-03     191.717E-03
            1107            1894     174.160E-03     181.349E-03
            1107            1895     181.397E-03     198.279E-03
            1108            1888     197.350E-03     191.717E-03
            1108            1889     215.595E-03     209.323E-03
            1108            1895     181.397E-03     198.279E-03
            1108            1896     191.769E-03     223.551E-03
            1109            1889     215.595E-03     209.323E-03
            1109            1890     233.506E-03     229.289E-03
            1109            1896     191.769E-03     223.551E-03
            1109            1897     203.824E-03     256.861E-03
            1110            1890     233.506E-03     229.289E-03
            1110            1891     253.598E-03     253.278E-03
            1110            1897     203.824E-03     256.861E-03
            1110            1898     217.418E-03     283.299E-03
            1111            1891     253.598E-03     253.278E-03
            1111            1892     286.048E-03     283.478E-03
            1111            1898     217.418E-03     283.299E-03
            1111            1899     240.084E-03     288.632E-03
            1112             255     306.261E-03     299.631E-03
            1112             256     255.061E-03     285.792E-03
            1112            1892     286.048E-03     283.478E-03
            1112            1899     240.084E-03     288.632E-03
            1113             337     171.648E-03     172.724E-03
            1113             338     168.427E-03     167.630E-03
            1113            1893     169.768E-03     171.113E-03
            1113            1900     174.803E-03     174.715E-03
            1114            1893     169.768E-03     171.113E-03
            1114            1894     174.160E-03     181.349E-03
            1114            1900     174.803E-03     174.715E-03
            1114            1901     184.051E-03     181.238E-03
            1115            1894     174.160E-03     181.349E-03
            1115            1895     181.397E-03     198.279E-03
            1115            1901     184.051E-03     181.238E-03
            1115            1902     198.849E-03     194.170E-03
            1116            1895     181.397E-03     198.279E-03
            1116            1896     191.769E-03     223.551E-03
            1116            1902     198.849E-03     194.170E-03
            1116            1903     219.096E-03     215.337E-03
            1117            1896     191.769E-03     223.551E-03
            1117            1897     203.824E-03     256.861E-03
            1117            1903     219.096E-03     215.337E-03
            1117            1904     241.982E-03     240.868E-03
            1118            1897     203.824E-03     256.861E-03
            1118            1898     217.418E-03     283.299E-03
            1118            1904     241.982E-03     240.868E-03
            1118            1905     258.633E-03     257.281E-03
            1119            1898     217.418E-03     283.299E-03
            1119            1899     240.084E-03     288.632E-03
            1119            1905     258.633E-03     257.281E-03
            1119            1906     252.454E-03     242.533E-03
            1120             256     255.061E-03     285.792E-03
            1120             257     241.017E-03     224.179E-03
            1120            1899     240.084E-03     288.632E-03
            1120            1906     252.454E-03     242.533E-03
            1121             336     172.682E-03     170.060E-03
            1121             337     171.648E-03     172.724E-03
            1121            1900     174.803E-03     174.715E-03
            1121            1907     177.645E-03     174.400E-03
            1122            1900     174.803E-03     174.715E-03
            1122            1901     184.051E-03     181.238E-03
            1122            1907     177.645E-03     174.400E-03
            1122            1908     191.402E-03     187.212E-03
            1123            1901     184.051E-03     181.238E-03
            1123            1902     198.849E-03     194.170E-03
            1123            1908     191.402E-03     187.212E-03
            1123            1909     211.952E-03     207.572E-03
            1124            1902     198.849E-03     194.170E-03
            1124            1903     219.096E-03     215.337E-03
            1124            1909     211.952E-03     207.572E-03
            1124            1910     237.220E-03     232.588E-03
            1125            1903     219.096E-03     215.337E-03
            1125            1904     241.982E-03     240.868E-03
            1125            1910     237.220E-03     232.588E-03
            1125            1911     261.446E-03     253.785E-03
            1126            1904     241.982E-03     240.868E-03
            1126            1905     258.633E-03     257.281E-03
            1126            1911     261.446E-03     253.785E-03
            1126            1912     273.543E-03     265.488E-03
            1127            1905     258.633E-03     257.281E-03
            1127            1906     252.454E-03     242.533E-03
            1127            1912     273.543E-03     265.488E-03
            1127            1913     270.933E-03     261.431E-03
            1128             257     241.017E-03     224.179E-03
            1128             258     266.999E-03     253.793E-03
            1128            1906     252.454E-03     242.533E-03
            1128            1913     270.933E-03     261.431E-03
            1129             335     173.685E-03     171.450E-03
            1129             336     172.682E-03     170.060E-03
            1129            1907     177.645E-03     174.400E-03
            1129            1914     179.442E-03     177.893E-03
            1130            1907     177.645E-03     174.400E-03
            1130            1908     191.402E-03     187.212E-03
            1130            1914     179.442E-03     177.893E-03
            1130            1915     195.205E-03     196.257E-03
            1131            1908     191.402E-03     187.212E-03
            1131            1909     211.952E-03     207.572E-03
            1131            1915     195.205E-03     196.257E-03
            1131            1916     217.079E-03     222.937E-03
            1132            1909     211.952E-03     207.572E-03
            1132            1910     237.220E-03     232.588E-03
            1132            1916     217.079E-03     222.937E-03
            1132            1917     240.750E-03     250.783E-03
            1133            1910     237.220E-03     232.588E-03
            1133            1911     261.446E-03     253.785E-03
            1133            1917     240.750E-03     250.783E-03
            1133            1918     258.587E-03     272.281E-03
            1134            1911     261.446E-03     253.785E-03
            1134            1912     273.543E-03     265.488E-03
            1134            1918     258.587E-03     272.281E-03
            1134            1919     267.406E-03     287.168E-03
            1135            1912     273.543E-03     265.488E-03
            1135            1913     270.933E-03     261.431E-03
            1135            1919     267.406E-03     287.168E-03
            1135            1920     278.714E-03     291.968E-03
            1136             258     266.999E-03     253.793E-03
            1136             259     287.291E-03     290.358E-03
            1136            1913     270.933E-03     261.431E-03
            1136            1920     278.714E-03     291.968E-03
            1137             334     172.842E-03     171.635E-03
            1137             335     173.685E-03     171.450E-03
            1137            1914     179.442E-03     177.893E-03
            1137            1921     180.887E-03     179.709E-03
            1138            1914     179.442E-03     177.893E-03
            1138            1915     195.205E-03     196.257E-03
            1138            1921     180.887E-03     179.709E-03
            1138            1922     202.167E-03     201.564E-03
            1139            1915     195.205E-03     196.257E-03
            1139            1916     217.079E-03     222.937E-03
            1139            1922     202.167E-03     201.564E-03
            1139            1923     230.454E-03     230.330E-03
            1140            1916     217.079E-03     222.937E-03
            1140            1917     240.750E-03     250.783E-03
            1140            1923     230.454E-03     230.330E-03
            1140            1924     257.818E-03     256.814E-03
            1141            1917     240.750E-03     250.783E-03
            1141            1918     258.587E-03     272.281E-03
            1141            1924     257.818E-03     256.814E-03
            1141            1925     278.000E-03     277.549E-03
            1142            1918     258.587E-03     272.281E-03
            1142            1919     267.406E-03     287.168E-03
            1142            1925     278.000E-03     277.549E-03
            1142            1926     292.907E-03     297.294E-03
            1143            1919     267.406E-03     287.168E-03
            1143            1920     278.714E-03     291.968E-03
            1143            1926     292.907E-03     297.294E-03
            1143            1927     309.219E-03     311.904E-03
            1144             259     287.291E-03     290.358E-03
            1144             260     318.560E-03     316.067E-03
            1144            1920     278.714E-03     291.968E-03
            1144            1927     309.219E-03     311.904E-03
            1145             333     172.191E-03     171.614E-03
            1145             334     172.842E-03     171.635E-03
            1145            1921     180.887E-03     179.709E-03
            1145            1928     182.005E-03     182.185E-03
            1146            1921     180.887E-03     179.709E-03
            1146            1922     202.167E-03     201.564E-03
            1146            1928     182.005E-03     182.185E-03
            1146            1929     207.889E-03     209.497E-03
            1147            1922     202.167E-03     201.564E-03
            1147            1923     230.454E-03     230.330E-03
            1147            1929     207.889E-03     209.497E-03
            1147            1930     240.823E-03     242.366E-03
            1148            1923     230.454E-03     230.330E-03
            1148            1924     257.818E-03     256.814E-03
            1148            1930     240.823E-03     242.366E-03
            1148            1931     271.049E-03     271.748E-03
            1149            1924     257.818E-03     256.814E-03
            1149            1925     278.000E-03     277.549E-03
            1149            1931     271.049E-03     271.748E-03
            1149            1932     292.964E-03     298.061E-03
            1150            1925     278.000E-03     277.549E-03
            1150            1926     292.907E-03     297.294E-03
            1150            1932     292.964E-03     298.061E-03
            1150            1933     310.600E-03     324.108E-03
            1151            1926     292.907E-03     297.294E-03
            1151            1927     309.219E-03     311.904E-03
            1151            1933     310.600E-03     324.108E-03
            1151            1934     332.875E-03     341.354E-03
            1152             260     318.560E-03     316.067E-03
            1152             261     346.136E-03     345.683E-03
            1152            1927     309.219E-03     311.904E-03
            1152            1934     332.875E-03     341.354E-03
            1153             332     171.717E-03     171.916E-03
            1153             333     172.191E-03     171.614E-03
            1153            1928     182.005E-03     182.185E-03
            1153            1935     183.741E-03     184.734E-03
            1154            1928     182.005E-03     182.185E-03
            1154            1929     207.889E-03     209.497E-03
            1154            1935     183.741E-03     184.734E-03
            1154            1936     214.986E-03     216.036E-03
            1155            1929     207.889E-03     209.497E-03
            1155            1930     240.823E-03     242.366E-03
            1155            1936     214.986E-03     216.036E-03
            1155            1937     253.665E-03     252.084E-03
            1156            1930     240.823E-03     242.366E-03
            1156            1931     271.049E-03     271.748E-03
            1156            1937     253.665E-03     252.084E-03
            1156            1938     288.132E-03     284.875E-03
            1157            1931     271.049E-03     271.748E-03
            1157            1932     292.964E-03     298.061E-03
            1157            1938     288.132E-03     284.875E-03
            1157            1939     314.621E-03     316.010E-03
            1158            1932     292.964E-03     298.061E-03
            1158            1933     310.600E-03     324.108E-03
            1158            1939     314.621E-03     316.010E-03
            1158            1940     336.752E-03     347.349E-03
            1159            1933     310.600E-03     324.108E-03
            1159            1934     332.875E-03     341.354E-03
            1159            1940     336.752E-03     347.349E-03
            1159            1941     360.004E-03     368.798E-03
            1160             261     346.136E-03     345.683E-03
            1160             262     372.678E-03     374.894E-03
            1160            1934     332.875E-03     341.354E-03
            1160            1941     360.004E-03     368.798E-03
            1161             331     171.102E-03     170.929E-03
            1161             332     171.717E-03     171.916E-03
            1161            1935     183.741E-03     184.734E-03
            1161            1942     184.855E-03     185.360E-03
            1162            1935     183.741E-03     184.734E-03
            1162            1936     214.986E-03     216.036E-03
            1162            1942     184.855E-03     185.360E-03
            1162            1943     220.549E-03     220.436E-03
            1163            1936     214.986E-03     216.036E-03
            1163            1937     253.665E-03     252.084E-03
            1163            1943     220.549E-03     220.436E-03
            1163            1944     264.475E-03     260.203E-03
            1164            1937     253.665E-03     252.084E-03
            1164            1938     288.132E-03     284.875E-03
            1164            1944     264.475E-03     260.203E-03
            1164            1945     303.928E-03     297.219E-03
            1165            1938     288.132E-03     284.875E-03
            1165            1939     314.621E-03     316.010E-03
            1165            1945     303.928E-03     297.219E-03
            1165            1946     335.137E-03     332.889E-03
            1166            1939     314.621E-03     316.010E-03
            1166            1940     336.752E-03     347.349E-03
            1166            1946     335.137E-03     332.889E-03
            1166            1947     363.239E-03     367.254E-03
            1167            1940     336.752E-03     347.349E-03
            1167            1941     360.004E-03     368.798E-03
            1167            1947     363.239E-03     367.254E-03
            1167            1948     391.030E-03     390.375E-03
            1168             262     372.678E-03     374.894E-03
            1168             263     404.535E-03     396.988E-03
            1168            1941     360.004E-03     368.798E-03
            1168            1948     391.030E-03     390.375E-03
            1169             330     168.747E-03     172.376E-03
            1169             331     171.102E-03     170.929E-03
            1169            1942     184.855E-03     185.360E-03
            1169            1949     183.207E-03     189.551E-03
            1170            1942     184.855E-03     185.360E-03
            1170            1943     220.549E-03     220.436E-03
            1170            1949     183.207E-03     189.551E-03
            1170            1950     220.986E-03     231.575E-03
            1171            1943     220.549E-03     220.436E-03
            1171            1944     264.475E-03     260.203E-03
            1171            1950     220.986E-03     231.575E-03
            1171            1951     268.578E-03     281.298E-03
            1172            1944     264.475E-03     260.203E-03
            1172            1945     303.928E-03     297.219E-03
            1172            1951     268.578E-03     281.298E-03
            1172            1952     312.542E-03     328.391E-03
            1173            1945     303.928E-03     297.219E-03
            1173            1946     335.137E-03     332.889E-03
            1173            1952     312.542E-03     328.391E-03
            1173            1953     347.033E-03     374.219E-03
            1174            1946     335.137E-03     332.889E-03
            1174            1947     363.239E-03     367.254E-03
            1174            1953     347.033E-03     374.219E-03
            1174            1954     375.168E-03     416.422E-03
            1175            1947     363.239E-03     367.254E-03
            1175            1948     391.030E-03     390.375E-03
            1175            1954     375.168E-03     416.422E-03
            1175            1955     405.720E-03     437.928E-03
            1176             263     404.535E-03     396.988E-03
            1176             264     423.014E-03     440.925E-03
            1176            1948     391.030E-03     390.375E-03
            1176            1955     405.720E-03     437.928E-03
            1177             329     172.825E-03     173.291E-03
            1177             330     168.747E-03     172.376E-03
            1177            1949     183.207E-03     189.551E-03
            1177            1956     191.754E-03     189.537E-03
            1178            1949     183.207E-03     189.551E-03
            1178            1950     220.986E-03     231.575E-03
            1178            1956     191.754E-03     189.537E-03
            1178            1957     239.368E-03     229.673E-03
            1179            1950     220.986E-03     231.575E-03
            1179            1951     268.578E-03     281.298E-03
            1179            1957     239.368E-03     229.673E-03
            1179            1958     300.073E-03     278.973E-03
            1180            1951     268.578E-03     281.298E-03
            1180            1952     312.542E-03     328.391E-03
            1180            1958     300.073E-03     278.973E-03
            1180            1959     361.039E-03     328.164E-03
            1181            1952     312.542E-03     328.391E-03
            1181            1953     347.033E-03     374.219E-03
            1181            1959     361.039E-03     328.164E-03
            1181            1960     412.602E-03     372.557E-03
            1182            1953     347.033E-03     374.219E-03
            1182            1954     375.168E-03     416.422E-03
            1182            1960     412.602E-03     372.557E-03
            1182            1961     453.850E-03     418.619E-03
            1183            1954     375.168E-03     416.422E-03
            1183            1955     405.720E-03     437.928E-03
            1183            1961     453.850E-03     418.619E-03
            1183            1962     479.572E-03     451.892E-03
            1184             264     423.014E-03     440.925E-03
            1184             265     486.754E-03     459.794E-03
            1184            1955     405.720E-03     437.928E-03
            1184            1962     479.572E-03     451.892E-03
            1185             328     172.340E-03     165.003E-03
            1185             329     172.825E-03     173.291E-03
            1185            1956     191.754E-03     189.537E-03
            1185            1963     189.693E-03     182.227E-03
            1186            1956     191.754E-03     189.537E-03
            1186            1957     239.368E-03     229.673E-03
            1186            1963     189.693E-03     182.227E-03
            1186            1964     234.510E-03     225.902E-03
            1187            1957     239.368E-03     229.673E-03
            1187            1958     300.073E-03     278.973E-03
            1187            1964     234.510E-03     225.902E-03
            1187            1965     291.542E-03     280.899E-03
            1188            1958     300.073E-03     278.973E-03
            1188            1959     361.039E-03     328.164E-03
            1188            1965     291.542E-03     280.899E-03
            1188            1966     351.584E-03     340.306E-03
            1189            1959     361.039E-03     328.164E-03
            1189            1960     412.602E-03     372.557E-03
            1189            1966     351.584E-03     340.306E-03
            1189            1967     405.368E-03     397.498E-03
            1190            1960     412.602E-03     372.557E-03
            1190            1961     453.850E-03     418.619E-03
            1190            1967     405.368E-03     397.498E-03
            1190            1968     451.118E-03     448.904E-03
            1191            1961     453.850E-03     418.619E-03
            1191            1962     479.572E-03     451.892E-03
            1191            1968     451.118E-03     448.904E-03
            1191            1969     498.953E-03     491.291E-03
            1192             265     486.754E-03     459.794E-03
            1192             266     524.432E-03     508.686E-03
            1192            1962     479.572E-03     451.892E-03
            1192            1969     498.953E-03     491.291E-03
            1193             327     171.956E-03     172.405E-03
            1193             328     172.340E-03     165.003E-03
            1193            1963     189.693E-03     182.227E-03
            1193            1970     183.510E-03     189.602E-03
            1194            1963     189.693E-03     182.227E-03
            1194            1964     234.510E-03     225.902E-03
            1194            1970     183.510E-03     189.602E-03
            1194            1971     214.195E-03     233.967E-03
            1195            1964     234.510E-03     225.902E-03
            1195            1965     291.542E-03     280.899E-03
            1195            1971     214.195E-03     233.967E-03
            1195            1972     256.044E-03     294.397E-03
            1196            1965     291.542E-03     280.899E-03
            1196            1966     351.584E-03     340.306E-03
            1196            1972     256.044E-03     294.397E-03
            1196            1973     301.787E-03     365.589E-03
            1197            1966     351.584E-03     340.306E-03
            1197            1967     405.368E-03     397.498E-03
            1197            1973     301.787E-03     365.589E-03
            1197            1974     344.631E-03     443.213E-03
            1198            1967     405.368E-03     397.498E-03
            1198            1968     451.118E-03     448.904E-03
            1198            1974     344.631E-03     443.213E-03
            1198            1975     381.529E-03     500.391E-03
            1199            1968     451.118E-03     448.904E-03
            1199            1969     498.953E-03     491.291E-03
            1199            1975     381.529E-03     500.391E-03
            1199            1976     427.469E-03     514.882E-03
            1200             266     524.432E-03     508.686E-03
            1200             267     456.393E-03     511.976E-03
            1200            1969     498.953E-03     491.291E-03
            1200            1976     427.469E-03     514.882E-03
            1201             326     177.248E-03     180.214E-03
            1201             327     171.956E-03     172.405E-03
            1201            1970     183.510E-03     189.602E-03
            1201            1977     193.556E-03     193.893E-03
            1202            1970     183.510E-03     189.602E-03
            1202            1971     214.195E-03     233.967E-03
            1202            1977     193.556E-03     193.893E-03
            1202            1978     235.817E-03     230.531E-03
            1203            1971     214.195E-03     233.967E-03
            1203            1972     256.044E-03     294.397E-03
            1203            1978     235.817E-03     230.531E-03
            1203            1979     291.784E-03     282.602E-03
            1204            1972     256.044E-03     294.397E-03
            1204            1973     301.787E-03     365.589E-03
            1204            1979     291.784E-03     282.602E-03
            1204            1980     353.409E-03     344.795E-03
            1205            1973     301.787E-03     365.589E-03
            1205            1974     344.631E-03     443.213E-03
            1205            1980     353.409E-03     344.795E-03
            1205            1981     411.597E-03     406.938E-03
            1206            1974     344.631E-03     443.213E-03
            1206            1975     381.529E-03     500.391E-03
            1206            1981     411.597E-03     406.938E-03
            1206            1982     453.391E-03     450.439E-03
            1207            1975     381.529E-03     500.391E-03
            1207            1976     427.469E-03     514.882E-03
            1207            1982     453.391E-03     450.439E-03
            1207            1983     462.599E-03     447.687E-03
            1208             267     456.393E-03     511.976E-03
            1208             268     456.676E-03     430.570E-03
            1208            1976     427.469E-03     514.882E-03
            1208            1983     462.599E-03     447.687E-03
            1209             325     178.969E-03     175.057E-03
            1209             326     177.248E-03     180.214E-03
            1209            1977     193.556E-03     193.893E-03
            1209            1984     199.043E-03     193.457E-03
            1210            1977     193.556E-03     193.893E-03
            1210            1978     235.817E-03     230.531E-03
            1210            1984     199.043E-03     193.457E-03
            1210            1985     249.554E-03     240.564E-03
            1211            1978     235.817E-03     230.531E-03
            1211            1979     291.784E-03     282.602E-03
            1211            1985     249.554E-03     240.564E-03
            1211            1986     314.180E-03     301.663E-03
            1212            1979     291.784E-03     282.602E-03
            1212            1980     353.409E-03     344.795E-03
            1212            1986     314.180E-03     301.663E-03
            1212            1987     381.788E-03     365.176E-03
            1213            1980     353.409E-03     344.795E-03
            1213            1981     411.597E-03     406.938E-03
            1213            1987     381.788E-03     365.176E-03
            1213            1988     439.866E-03     417.177E-03
            1214            1981     411.597E-03     406.938E-03
            1214            1982     453.391E-03     450.439E-03
            1214            1988     439.866E-03     417.177E-03
            1214            1989     473.983E-03     453.183E-03
            1215            1982     453.391E-03     450.439E-03
            1215            1983     462.599E-03     447.687E-03
            1215            1989     473.983E-03     453.183E-03
            1215            1990     481.635E-03     461.610E-03
            1216             268     456.676E-03     430.570E-03
            1216             269     479.928E-03     455.000E-03
            1216            1983     462.599E-03     447.687E-03
            1216            1990     481.635E-03     461.610E-03
            1217             324     180.816E-03     177.726E-03
            1217             325     178.969E-03     175.057E-03
            1217            1984     199.043E-03     193.457E-03
            1217            1991     200.865E-03     200.141E-03
            1218            1984     199.043E-03     193.457E-03
            1218            1985     249.554E-03     240.564E-03
            1218            1991     200.865E-03     200.141E-03
            1218            1992     251.051E-03     256.102E-03
            1219            1985     249.554E-03     240.564E-03
            1219            1986     314.180E-03     301.663E-03
            1219            1992     251.051E-03     256.102E-03
            1219            1993     313.002E-03     325.184E-03
            1220            1986     314.180E-03     301.663E-03
            1220            1987     381.788E-03     365.176E-03
            1220            1993     313.002E-03     325.184E-03
            1220            1994     372.781E-03     390.478E-03
            1221            1987     381.788E-03     365.176E-03
            1221            1988     439.866E-03     417.177E-03
            1221            1994     372.781E-03     390.478E-03
            1221            1995     417.421E-03     442.624E-03
            1222            1988     439.866E-03     417.177E-03
            1222            1989     473.983E-03     453.183E-03
            1222            1995     417.421E-03     442.624E-03
            1222            1996     444.352E-03     481.730E-03
            1223            1989     473.983E-03     453.183E-03
            1223            1990     481.635E-03     461.610E-03
            1223            1996     444.352E-03     481.730E-03
            1223            1997     471.184E-03     497.515E-03
            1224             269     479.928E-03     455.000E-03
            1224             270     487.850E-03     496.682E-03
            1224            1990     481.635E-03     461.610E-03
            1224            1997     471.184E-03     497.515E-03
            1225             323     179.450E-03     178.205E-03
            1225             324     180.816E-03     177.726E-03
            1225            1991     200.865E-03     200.141E-03
            1225            1998     203.457E-03     202.400E-03
            1226            1991     200.865E-03     200.141E-03
            1226            1992     251.051E-03     256.102E-03
            1226            1998     203.457E-03     202.400E-03
            1226            1999     261.929E-03     261.320E-03
            1227            1992     251.051E-03     256.102E-03
            1227            1993     313.002E-03     325.184E-03
            1227            1999     261.929E-03     261.320E-03
            1227            2000     331.203E-03     329.600E-03
            1228            1993     313.002E-03     325.184E-03
            1228            1994     372.781E-03     390.478E-03
            1228            2000     331.203E-03     329.600E-03
            1228            2001     393.407E-03     389.729E-03
            1229            1994     372.781E-03     390.478E-03
            1229            1995     417.421E-03     442.624E-03
            1229            2001     393.407E-03     389.729E-03
            1229            2002     439.538E-03     438.406E-03
            1230            1995     417.421E-03     442.624E-03
            1230            1996     444.352E-03     481.730E-03
            1230            2002     439.538E-03     438.406E-03
            1230            2003     474.406E-03     481.548E-03
            1231            1996     444.352E-03     481.730E-03
            1231            1997     471.184E-03     497.515E-03
            1231            2003     474.406E-03     481.548E-03
            1231            2004     506.538E-03     509.896E-03
            1232             270     487.850E-03     496.682E-03
            1232             271     522.638E-03     517.307E-03
            1232            1997     471.184E-03     497.515E-03
            1232            2004     506.538E-03     509.896E-03
            1233             322     178.506E-03     178.145E-03
            1233             323     179.450E-03     178.205E-03
            1233            1998     203.457E-03     202.400E-03
            1233            2005     205.052E-03     206.153E-03
            1234            1998     203.457E-03     202.400E-03
            1234            1999     261.929E-03     261.320E-03
            1234            2005     205.052E-03     206.153E-03
            1234            2006     269.251E-03     272.035E-03
            1235            1999     261.929E-03     261.320E-03
            1235            2000     331.203E-03     329.600E-03
            1235            2006     269.251E-03     272.035E-03
            1235            2007     342.922E-03     344.102E-03
            1236            2000     331.203E-03     329.600E-03
            1236            2001     393.407E-03     389.729E-03
            1236            2007     342.922E-03     344.102E-03
            1236            2008     406.659E-03     406.391E-03
            1237            2001     393.407E-03     389.729E-03
            1237            2002     439.538E-03     438.406E-03
            1237            2008     406.659E-03     406.391E-03
            1237            2009     453.432E-03     460.841E-03
            1238            2002     439.538E-03     438.406E-03
            1238            2003     474.406E-03     481.548E-03
            1238            2009     453.432E-03     460.841E-03
            1238            2010     490.093E-03     510.891E-03
            1239            2003     474.406E-03     481.548E-03
            1239            2004     506.538E-03     509.896E-03
            1239            2010     490.093E-03     510.891E-03
            1239            2011     528.353E-03     541.813E-03
            1240             271     522.638E-03     517.307E-03
            1240             272     549.109E-03     549.147E-03
            1240            2004     506.538E-03     509.896E-03
            1240            2011     528.353E-03     541.813E-03
            1241             321     177.786E-03     178.602E-03
            1241             322     178.506E-03     178.145E-03
            1241            2005     205.052E-03     206.153E-03
            1241            2012     207.254E-03     209.498E-03
            1242            2005     205.052E-03     206.153E-03
            1242            2006     269.251E-03     272.035E-03
            1242            2012     207.254E-03     209.498E-03
            1242            2013     277.714E-03     279.927E-03
            1243            2006     269.251E-03     272.035E-03
            1243            2007     342.922E-03     344.102E-03
            1243            2013     277.714E-03     279.927E-03
            1243            2014     357.133E-03     354.922E-03
            1244            2007     342.922E-03     344.102E-03
            1244            2008     406.659E-03     406.391E-03
            1244            2014     357.133E-03     354.922E-03
            1244            2015     424.702E-03     420.292E-03
            1245            2008     406.659E-03     406.391E-03
            1245            2009     453.432E-03     460.841E-03
            1245            2015     424.702E-03     420.292E-03
            1245            2016     475.680E-03     479.272E-03
            1246            2009     453.432E-03     460.841E-03
            1246            2010     490.093E-03     510.891E-03
            1246            2016     475.680E-03     479.272E-03
            1246            2017     516.546E-03     534.379E-03
            1247            2010     490.093E-03     510.891E-03
            1247            2011     528.353E-03     541.813E-03
            1247            2017     516.546E-03     534.379E-03
            1247            2018     555.628E-03     569.405E-03
            1248             272     549.109E-03     549.147E-03
            1248             273     575.789E-03     578.510E-03
            1248            2011     528.353E-03     541.813E-03
            1248            2018     555.628E-03     569.405E-03
            1249             320     176.809E-03     177.134E-03
            1249             321     177.786E-03     178.602E-03
            1249            2012     207.254E-03     209.498E-03
            1249            2019     208.457E-03     209.682E-03
            1250            2012     207.254E-03     209.498E-03
            1250            2013     277.714E-03     279.927E-03
            1250            2019     208.457E-03     209.682E-03
            1250            2020     283.896E-03     284.005E-03
            1251            2013     277.714E-03     279.927E-03
            1251            2014     357.133E-03     354.922E-03
            1251            2020     283.896E-03     284.005E-03
            1251            2021     368.935E-03     362.853E-03
            1252            2014     357.133E-03     354.922E-03
            1252            2015     424.702E-03     420.292E-03
            1252            2021     368.935E-03     362.853E-03
            1252            2022     442.152E-03     432.487E-03
            1253            2015     424.702E-03     420.292E-03
            1253            2016     475.680E-03     479.272E-03
            1253            2022     442.152E-03     432.487E-03
            1253            2023     498.272E-03     495.267E-03
            1254            2016     475.680E-03     479.272E-03
            1254            2017     516.546E-03     534.379E-03
            1254            2023     498.272E-03     495.267E-03
            1254            2024     545.559E-03     552.278E-03
            1255            2017     516.546E-03     534.379E-03
            1255            2018     555.628E-03     569.405E-03
            1255            2024     545.559E-03     552.278E-03
            1255            2025     588.813E-03     588.796E-03
            1256             273     575.789E-03     578.510E-03
            1256             274     609.045E-03     598.637E-03
            1256            2018     555.628E-03     569.405E-03
            1256            2025     588.813E-03     588.796E-03
            1257             319     173.300E-03     179.125E-03
            1257             320     176.809E-03     177.134E-03
            1257            2019     208.457E-03     209.682E-03
            1257            2026     205.313E-03     215.358E-03
            1258            2019     208.457E-03     209.682E-03
            1258            2020     283.896E-03     284.005E-03
            1258            2026     205.313E-03     215.358E-03
            1258            2027     282.021E-03     298.371E-03
            1259            2020     283.896E-03     284.005E-03
            1259            2021     368.935E-03     362.853E-03
            1259            2027     282.021E-03     298.371E-03
            1259            2028     370.349E-03     389.749E-03
            1260            2021     368.935E-03     362.853E-03
            1260            2022     442.152E-03     432.487E-03
            1260            2028     370.349E-03     389.749E-03
            1260            2029     448.805E-03     472.318E-03
            1261            2022     442.152E-03     432.487E-03
            1261            2023     498.272E-03     495.267E-03
            1261            2029     448.805E-03     472.318E-03
            1261            2030     508.392E-03     547.236E-03
            1262            2023     498.272E-03     495.267E-03
            1262            2024     545.559E-03     552.278E-03
            1262            2030     508.392E-03     547.236E-03
            1262            2031     553.489E-03     612.440E-03
            1263            2024     545.559E-03     552.278E-03
            1263            2025     588.813E-03     588.796E-03
            1263            2031     553.489E-03     612.440E-03
            1263            2032     598.959E-03     644.282E-03
            1264             274     609.045E-03     598.637E-03
            1264             275     624.207E-03     647.986E-03
            1264            2025     588.813E-03     588.796E-03
            1264            2032     598.959E-03     644.282E-03
            1265             318     179.135E-03     179.966E-03
            1265             319     173.300E-03     179.125E-03
            1265            2026     205.313E-03     215.358E-03
            1265            2033     217.344E-03     213.709E-03
            1266            2026     205.313E-03     215.358E-03
            1266            2027     282.021E-03     298.371E-03
            1266            2033     217.344E-03     213.709E-03
            1266            2034     306.815E-03     292.117E-03
            1267            2027     282.021E-03     298.371E-03
            1267            2028     370.349E-03     389.749E-03
            1267            2034     306.815E-03     292.117E-03
            1267            2035     411.409E-03     381.460E-03
            1268            2028     370.349E-03     389.749E-03
            1268            2029     448.805E-03     472.318E-03
            1268            2035     411.409E-03     381.460E-03
            1268            2036     511.924E-03     466.521E-03
            1269            2029     448.805E-03     472.318E-03
            1269            2030     508.392E-03     547.236E-03
            1269            2036     511.924E-03     466.521E-03
            1269            2037     594.655E-03     539.456E-03
            1270            2030     508.392E-03     547.236E-03
            1270            2031     553.489E-03     612.440E-03
            1270            2037     594.655E-03     539.456E-03
            1270            2038     656.414E-03     608.336E-03
            1271            2031     553.489E-03     612.440E-03
            1271            2032     598.959E-03     644.282E-03
            1271            2038     656.414E-03     608.336E-03
            1271            2039     691.560E-03     653.279E-03
            1272             275     624.207E-03     647.986E-03
            1272             276     700.625E-03     662.008E-03
            1272            2032     598.959E-03     644.282E-03
            1272            2039     691.560E-03     653.279E-03
            1273             317     178.221E-03     168.507E-03
            1273             318     179.135E-03     179.966E-03
            1273            2033     217.344E-03     213.709E-03
            1273            2040     213.098E-03     203.179E-03
            1274            2033     217.344E-03     213.709E-03
            1274            2034     306.815E-03     292.117E-03
            1274            2040     213.098E-03     203.179E-03
            1274            2041     296.760E-03     284.834E-03
            1275            2034     306.815E-03     292.117E-03
            1275            2035     411.409E-03     381.460E-03
            1275            2041     296.760E-03     284.834E-03
            1275            2042     395.171E-03     379.877E-03
            1276            2035     411.409E-03     381.460E-03
            1276            2036     511.924E-03     466.521E-03
            1276            2042     395.171E-03     379.877E-03
            1276            2043     493.549E-03     477.383E-03
            1277            2036     511.924E-03     466.521E-03
            1277            2037     594.655E-03     539.456E-03
            1277            2043     493.549E-03     477.383E-03
            1277            2044     579.414E-03     568.106E-03
            1278            2037     594.655E-03     539.456E-03
            1278            2038     656.414E-03     608.336E-03
            1278            2044     579.414E-03     568.106E-03
            1278            2045     648.388E-03     644.692E-03
            1279            2038     656.414E-03     608.336E-03
            1279            2039     691.560E-03     653.279E-03
            1279            2045     648.388E-03     644.692E-03
            1279            2046     710.813E-03     698.192E-03
            1280             276     700.625E-03     662.008E-03
            1280             277     741.498E-03     716.501E-03
            1280            2039     691.560E-03     653.279E-03
            1280            2046     710.813E-03     698.192E-03
            1281             316     176.563E-03     179.457E-03
            1281             317     178.221E-03     168.507E-03
            1281            2040     213.098E-03     203.179E-03
            1281            2047     202.040E-03     214.648E-03
            1282            2040     213.098E-03     203.179E-03
            1282            2041     296.760E-03     284.834E-03
            1282            2047     202.040E-03     214.648E-03
            1282            2048     264.629E-03     298.142E-03
            1283            2041     296.760E-03     284.834E-03
            1283            2042     395.171E-03     379.877E-03
            1283            2048     264.629E-03     298.142E-03
            1283            2049     341.300E-03     400.323E-03
            1284            2042     395.171E-03     379.877E-03
            1284            2043     493.549E-03     477.383E-03
            1284            2049     341.300E-03     400.323E-03
            1284            2050     418.644E-03     512.234E-03
            1285            2043     493.549E-03     477.383E-03
            1285            2044     579.414E-03     568.106E-03
            1285            2050     418.644E-03     512.234E-03
            1285            2051     488.214E-03     630.190E-03
            1286            2044     579.414E-03     568.106E-03
            1286            2045     648.388E-03     644.692E-03
            1286            2051     488.214E-03     630.190E-03
            1286            2052     545.666E-03     716.754E-03
            1287            2045     648.388E-03     644.692E-03
            1287            2046     710.813E-03     698.192E-03
            1287            2052     545.666E-03     716.754E-03
            1287            2053     614.190E-03     740.431E-03
            1288             277     741.498E-03     716.501E-03
            1288             278     657.132E-03     737.590E-03
            1288            2046     710.813E-03     698.192E-03
            1288            2053     614.190E-03     740.431E-03
            1289             315     183.430E-03     189.706E-03
            1289             316     176.563E-03     179.457E-03
            1289            2047     202.040E-03     214.648E-03
            1289            2054     218.114E-03     219.529E-03
            1290            2047     202.040E-03     214.648E-03
            1290            2048     264.629E-03     298.142E-03
            1290            2054     218.114E-03     219.529E-03
            1290            2055     299.693E-03     292.175E-03
            1291            2048     264.629E-03     298.142E-03
            1291            2049     341.300E-03     400.323E-03
            1291            2055     299.693E-03     292.175E-03
            1291            2056     395.771E-03     381.951E-03
            1292            2049     341.300E-03     400.323E-03
            1292            2050     418.644E-03     512.234E-03
            1292            2056     395.771E-03     381.951E-03
            1292            2057     493.729E-03     479.998E-03
            1293            2050     418.644E-03     512.234E-03
            1293            2051     488.214E-03     630.190E-03
            1293            2057     493.729E-03     479.998E-03
            1293            2058     582.265E-03     574.214E-03
            1294            2051     488.214E-03     630.190E-03
            1294            2052     545.666E-03     716.754E-03
            1294            2058     582.265E-03     574.214E-03
            1294            2059     647.239E-03     642.774E-03
            1295            2052     545.666E-03     716.754E-03
            1295            2053     614.190E-03     740.431E-03
            1295            2059     647.239E-03     642.774E-03
            1295            2060     671.846E-03     652.567E-03
            1296             278     657.132E-03     737.590E-03
            1296             279     671.364E-03     637.029E-03
            1296            2053     614.190E-03     740.431E-03
            1296            2060     671.846E-03     652.567E-03
            1297             314     185.813E-03     182.428E-03
            1297             315     183.430E-03     189.706E-03
            1297            2054     218.114E-03     219.529E-03
            1297            2061     226.077E-03     219.249E-03
            1298            2054     218.114E-03     219.529E-03
            1298            2055     299.693E-03     292.175E-03
            1298            2061     226.077E-03     219.249E-03
            1298            2062     319.807E-03     305.728E-03
            1299            2055     299.693E-03     292.175E-03
            1299            2056     395.771E-03     381.951E-03
            1299            2062     319.807E-03     305.728E-03
            1299            2063     427.591E-03     406.033E-03
            1300            2056     395.771E-03     381.951E-03
            1300            2057     493.729E-03     479.998E-03
            1300            2063     427.591E-03     406.033E-03
            1300            2064     533.059E-03     503.168E-03
            1301            2057     493.729E-03     479.998E-03
            1301            2058     582.265E-03     574.214E-03
            1301            2064     533.059E-03     503.168E-03
            1301            2065     620.889E-03     582.037E-03
            1302            2058     582.265E-03     574.214E-03
            1302            2059     647.239E-03     642.774E-03
            1302            2065     620.889E-03     582.037E-03
            1302            2066     674.098E-03     640.933E-03
            1303            2059     647.239E-03     642.774E-03
            1303            2060     671.846E-03     652.567E-03
            1303            2066     674.098E-03     640.933E-03
            1303            2067     691.953E-03     661.735E-03
            1304             279     671.364E-03     637.029E-03
            1304             280     693.415E-03     656.145E-03
            1304            2060     671.846E-03     652.567E-03
            1304            2067     691.953E-03     661.735E-03
            1305             313     187.636E-03     186.051E-03
            1305             314     185.813E-03     182.428E-03
            1305            2061     226.077E-03     219.249E-03
            1305            2068     226.514E-03     228.601E-03
            1306            2061     226.077E-03     219.249E-03
            1306            2062     319.807E-03     305.728E-03
            1306            2068     226.514E-03     228.601E-03
            1306            2069     316.655E-03     326.579E-03
            1307            2062     319.807E-03     305.728E-03
            1307            2063     427.591E-03     406.033E-03
            1307            2069     316.655E-03     326.579E-03
            1307            2070     419.035E-03     436.570E-03
            1308            2063     427.591E-03     406.033E-03
            1308            2064     533.059E-03     503.168E-03
            1308            2070     419.035E-03     436.570E-03
            1308            2071     511.820E-03     535.115E-03
            1309            2064     533.059E-03     503.168E-03
            1309            2065     620.889E-03     582.037E-03
            1309            2071     511.820E-03     535.115E-03
            1309            2072     579.711E-03     613.473E-03
            1310            2065     620.889E-03     582.037E-03
            1310            2066     674.098E-03     640.933E-03
            1310            2072     579.711E-03     613.473E-03
            1310            2073     623.357E-03     674.610E-03
            1311            2066     674.098E-03     640.933E-03
            1311            2067     691.953E-03     661.735E-03
            1311            2073     623.357E-03     674.610E-03
            1311            2074     664.553E-03     702.754E-03
            1312             280     693.415E-03     656.145E-03
            1312             281     688.446E-03     704.275E-03
            1312            2067     691.953E-03     661.735E-03
            1312            2074     664.553E-03     702.754E-03
            1313             312     185.304E-03     186.620E-03
            1313             313     187.636E-03     186.051E-03
            1313            2068     226.514E-03     228.601E-03
            1313            2075     228.862E-03     230.866E-03
            1314            2068     226.514E-03     228.601E-03
            1314            2069     316.655E-03     326.579E-03
            1314            2075     228.862E-03     230.866E-03
            1314            2076     329.264E-03     331.920E-03
            1315            2069     316.655E-03     326.579E-03
            1315            2070     419.035E-03     436.570E-03
            1315            2076     329.264E-03     331.920E-03
            1315            2077     439.435E-03     440.025E-03
            1316            2070     419.035E-03     436.570E-03
            1316            2071     511.820E-03     535.115E-03
            1316            2077     439.435E-03     440.025E-03
            1316            2078     534.316E-03     531.684E-03
            1317            2071     511.820E-03     535.115E-03
            1317            2072     579.711E-03     613.473E-03
            1317            2078     534.316E-03     531.684E-03
            1317            2079     602.330E-03     605.722E-03
            1318            2072     579.711E-03     613.473E-03
            1318            2073     623.357E-03     674.610E-03
            1318            2079     602.330E-03     605.722E-03
            1318            2080     653.194E-03     670.053E-03
            1319            2073     623.357E-03     674.610E-03
            1319            2074     664.553E-03     702.754E-03
            1319            2080     653.194E-03     670.053E-03
            1319            2081     703.063E-03     710.056E-03
            1320             281     688.446E-03     704.275E-03
            1320             282     728.660E-03     719.537E-03
            1320            2074     664.553E-03     702.754E-03
            1320            2081     703.063E-03     710.056E-03
            1321             311     185.111E-03     185.634E-03
            1321             312     185.304E-03     186.620E-03
            1321            2075     228.862E-03     230.866E-03
            1321            2082     232.233E-03     234.311E-03
            1322            2075     228.862E-03     230.866E-03
            1322            2076     329.264E-03     331.920E-03
            1322            2082     232.233E-03     234.311E-03
            1322            2083     340.011E-03     342.140E-03
            1323            2076     329.264E-03     331.920E-03
            1323            2077     439.435E-03     440.025E-03
            1323            2083     340.011E-03     342.140E-03
            1323            2084     457.243E-03     452.940E-03
            1324            2077     439.435E-03     440.025E-03
            1324            2078     534.316E-03     531.684E-03
            1324            2084     457.243E-03     452.940E-03
            1324            2085     555.593E-03     545.455E-03
            1325            2078     534.316E-03     531.684E-03
            1325            2079     602.330E-03     605.722E-03
            1325            2085     555.593E-03     545.455E-03
            1325            2086     627.109E-03     624.545E-03
            1326            2079     602.330E-03     605.722E-03
            1326            2080     653.194E-03     670.053E-03
            1326            2086     627.109E-03     624.545E-03
            1326            2087     680.139E-03     698.116E-03
            1327            2080     653.194E-03     670.053E-03
            1327            2081     703.063E-03     710.056E-03
            1327            2087     680.139E-03     698.116E-03
            1327            2088     728.221E-03     745.346E-03
            1328             282     728.660E-03     719.537E-03
            1328             283     753.153E-03     757.368E-03
            1328            2081     703.063E-03     710.056E-03
            1328            2088     728.221E-03     745.346E-03
            1329             310     184.517E-03     183.664E-03
            1329             311     185.111E-03     185.634E-03
            1329            2082     232.233E-03     234.311E-03
            1329            2089     233.160E-03     234.833E-03
            1330            2082     232.233E-03     234.311E-03
            1330            2083     340.011E-03     342.140E-03
            1330            2089     233.160E-03     234.833E-03
            1330            2090     344.939E-03     347.612E-03
            1331            2083     340.011E-03     342.140E-03
            1331            2084     457.243E-03     452.940E-03
            1331            2090     344.939E-03     347.612E-03
            1331            2091     466.022E-03     462.140E-03
            1332            2084     457.243E-03     452.940E-03
            1332            2085     555.593E-03     545.455E-03
            1332            2091     466.022E-03     462.140E-03
            1332            2092     568.018E-03     558.867E-03
            1333            2085     555.593E-03     545.455E-03
            1333            2086     627.109E-03     624.545E-03
            1333            2092     568.018E-03     558.867E-03
            1333            2093     642.661E-03     641.899E-03
            1334            2086     627.109E-03     624.545E-03
            1334            2087     680.139E-03     698.116E-03
            1334            2093     642.661E-03     641.899E-03
            1334            2094     703.034E-03     716.338E-03
            1335            2087     680.139E-03     698.116E-03
            1335            2088     728.221E-03     745.346E-03
            1335            2094     703.034E-03     716.338E-03
            1335            2095     760.848E-03     763.502E-03
            1336             283     753.153E-03     757.368E-03
            1336             284     789.023E-03     775.598E-03
            1336            2088     728.221E-03     745.346E-03
            1336            2095     760.848E-03     763.502E-03
            1337             309     179.660E-03     185.972E-03
            1337             310     184.517E-03     183.664E-03
            1337            2089     233.160E-03     234.833E-03
            1337            2096     228.850E-03     241.639E-03
            1338            2089     233.160E-03     234.833E-03
            1338            2090     344.939E-03     347.612E-03
            1338            2096     228.850E-03     241.639E-03
            1338            2097     341.473E-03     363.764E-03
            1339            2090     344.939E-03     347.612E-03
            1339            2091     466.022E-03     462.140E-03
            1339            2097     341.473E-03     363.764E-03
            1339            2098     465.464E-03     491.167E-03
            1340            2091     466.022E-03     462.140E-03
            1340            2092     568.018E-03     558.867E-03
            1340            2098     465.464E-03     491.167E-03
            1340            2099     573.029E-03     601.869E-03
            1341            2092     568.018E-03     558.867E-03
            1341            2093     642.661E-03     641.899E-03
            1341            2099     573.029E-03     601.869E-03
            1341            2100     652.301E-03     698.641E-03
            1342            2093     642.661E-03     641.899E-03
            1342            2094     703.034E-03     716.338E-03
            1342            2100     652.301E-03     698.641E-03
            1342            2101     710.642E-03     782.788E-03
            1343            2094     703.034E-03     716.338E-03
            1343            2095     760.848E-03     763.502E-03
            1343            2101     710.642E-03     782.788E-03
            1343            2102     769.010E-03     825.210E-03
            1344             284     789.023E-03     775.598E-03
            1344             285     801.443E-03     830.652E-03
            1344            2095     760.848E-03     763.502E-03
            1344            2102     769.010E-03     825.210E-03
            1345             308     187.121E-03     186.495E-03
            1345             309     179.660E-03     185.972E-03
            1345            2096     228.850E-03     241.639E-03
            1345            2103     243.957E-03     238.473E-03
            1346            2096     228.850E-03     241.639E-03
            1346            2097     341.473E-03     363.764E-03
            1346            2103     243.957E-03     238.473E-03
            1346            2104     371.631E-03     353.555E-03
            1347            2097     341.473E-03     363.764E-03
            1347            2098     465.464E-03     491.167E-03
            1347            2104     371.631E-03     353.555E-03
            1347            2105     513.652E-03     476.850E-03
            1348            2098     465.464E-03     491.167E-03
            1348            2099     573.029E-03     601.869E-03
            1348            2105     513.652E-03     476.850E-03
            1348            2106     647.266E-03     590.255E-03
            1349            2099     573.029E-03     601.869E-03
            1349            2100     652.301E-03     698.641E-03
            1349            2106     647.266E-03     590.255E-03
            1349            2107     755.709E-03     685.882E-03
            1350            2100     652.301E-03     698.641E-03
            1350            2101     710.642E-03     782.788E-03
            1350            2107     755.709E-03     685.882E-03
            1350            2108     834.243E-03     774.805E-03
            1351            2101     710.642E-03     782.788E-03
            1351            2102     769.010E-03     825.210E-03
            1351            2108     834.243E-03     774.805E-03
            1351            2109     878.605E-03     830.917E-03
            1352             285     801.443E-03     830.652E-03
            1352             286     890.604E-03     840.660E-03
            1352            2102     769.010E-03     825.210E-03
            1352            2109     878.605E-03     830.917E-03
            1353             307     185.240E-03     172.754E-03
            1353             308     187.121E-03     186.495E-03
            1353            2103     243.957E-03     238.473E-03
            1353            2110     237.488E-03     225.568E-03
            1354            2103     243.957E-03     238.473E-03
            1354            2104     371.631E-03     353.555E-03
            1354            2110     237.488E-03     225.568E-03
            1354            2111     356.696E-03     343.069E-03
            1355            2104     371.631E-03     353.555E-03
            1355            2105     513.652E-03     476.850E-03
            1355            2111     356.696E-03     343.069E-03
            1355            2112     489.776E-03     470.951E-03
            1356            2105     513.652E-03     476.850E-03
            1356            2106     647.266E-03     590.255E-03
            1356            2112     489.776E-03     470.951E-03
            1356            2113     619.699E-03     598.841E-03
            1357            2106     647.266E-03     590.255E-03
            1357            2107     755.709E-03     685.882E-03
            1357            2113     619.699E-03     598.841E-03
            1357            2114     732.205E-03     717.605E-03
            1358            2107     755.709E-03     685.882E-03
            1358            2108     834.243E-03     774.805E-03
            1358            2114     732.205E-03     717.605E-03
            1358            2115     821.727E-03     817.026E-03
            1359            2108     834.243E-03     774.805E-03
            1359            2109     878.605E-03     830.917E-03
            1359            2115     821.727E-03     817.026E-03
            1359            2116     898.395E-03     881.769E-03
            1360             286     890.604E-03     840.660E-03
            1360             287     934.389E-03     901.309E-03
            1360            2109     878.605E-03     830.917E-03
            1360            2116     898.395E-03     881.769E-03
            1361             306     177.278E-03     185.888E-03
            1361             307     185.240E-03     172.754E-03
            1361            2110     237.488E-03     225.568E-03
            1361            2117     219.541E-03     242.636E-03
            1362            2110     237.488E-03     225.568E-03
            1362            2111     356.696E-03     343.069E-03
            1362            2117     219.541E-03     242.636E-03
            1362            2118     316.121E-03     366.839E-03
            1363            2111     356.696E-03     343.069E-03
            1363            2112     489.776E-03     470.951E-03
            1363            2118     316.121E-03     366.839E-03
            1363            2119     422.982E-03     501.790E-03
            1364            2112     489.776E-03     470.951E-03
            1364            2113     619.699E-03     598.841E-03
            1364            2119     422.982E-03     501.790E-03
            1364            2120     523.296E-03     639.636E-03
            1365            2113     619.699E-03     598.841E-03
            1365            2114     732.205E-03     717.605E-03
            1365            2120     523.296E-03     639.636E-03
            1365            2121     610.268E-03     784.734E-03
            1366            2114     732.205E-03     717.605E-03
            1366            2115     821.727E-03     817.026E-03
            1366            2121     610.268E-03     784.734E-03
            1366            2122     682.296E-03     895.886E-03
            1367            2115     821.727E-03     817.026E-03
            1367            2116     898.395E-03     881.769E-03
            1367            2122     682.296E-03     895.886E-03
            1367            2123     772.442E-03     932.486E-03
            1368             287     934.389E-03     901.309E-03
            1368             288     829.872E-03     932.842E-03
            1368            2116     898.395E-03     881.769E-03
            1368            2123     772.442E-03     932.486E-03
            1369             305     182.822E-03     195.302E-03
            1369             306     177.278E-03     185.888E-03
            1369            2117     219.541E-03     242.636E-03
            1369            2124     241.402E-03     246.363E-03
            1370            2117     219.541E-03     242.636E-03
            1370            2118     316.121E-03     366.839E-03
            1370            2124     241.402E-03     246.363E-03
            1370            2125     368.295E-03     359.795E-03
            1371            2118     316.121E-03     366.839E-03
            1371            2119     422.982E-03     501.790E-03
            1371            2125     368.295E-03     359.795E-03
            1371            2126     500.669E-03     480.807E-03
            1372            2119     422.982E-03     501.790E-03
            1372            2120     523.296E-03     639.636E-03
            1372            2126     500.669E-03     480.807E-03
            1372            2127     623.097E-03     597.325E-03
            1373            2120     523.296E-03     639.636E-03
            1373            2121     610.268E-03     784.734E-03
            1373            2127     623.097E-03     597.325E-03
            1373            2128     729.733E-03     705.110E-03
            1374            2121     610.268E-03     784.734E-03
            1374            2122     682.296E-03     895.886E-03
            1374            2128     729.733E-03     705.110E-03
            1374            2129     809.004E-03     793.238E-03
            1375            2122     682.296E-03     895.886E-03
            1375            2123     772.442E-03     932.486E-03
            1375            2129     809.004E-03     793.238E-03
            1375            2130     844.764E-03     822.668E-03
            1376             288     829.872E-03     932.842E-03
            1376             289     849.679E-03     814.012E-03
            1376            2123     772.442E-03     932.486E-03
            1376            2130     844.764E-03     822.668E-03
            1377             304     186.412E-03     182.464E-03
            1377             305     182.822E-03     195.302E-03
            1377            2124     241.402E-03     246.363E-03
            1377            2131     249.829E-03     240.253E-03
            1378            2124     241.402E-03     246.363E-03
            1378            2125     368.295E-03     359.795E-03
            1378            2131     249.829E-03     240.253E-03
            1378            2132     388.718E-03     369.133E-03
            1379            2125     368.295E-03     359.795E-03
            1379            2126     500.669E-03     480.807E-03
            1379            2132     388.718E-03     369.133E-03
            1379            2133     535.725E-03     505.527E-03
            1380            2126     500.669E-03     480.807E-03
            1380            2127     623.097E-03     597.325E-03
            1380            2133     535.725E-03     505.527E-03
            1380            2134     670.688E-03     625.462E-03
            1381            2127     623.097E-03     597.325E-03
            1381            2128     729.733E-03     705.110E-03
            1381            2134     670.688E-03     625.462E-03
            1381            2135     778.076E-03     715.592E-03
            1382            2128     729.733E-03     705.110E-03
            1382            2129     809.004E-03     793.238E-03
            1382            2135     778.076E-03     715.592E-03
            1382            2136     846.468E-03     787.516E-03
            1383            2129     809.004E-03     793.238E-03
            1383            2130     844.764E-03     822.668E-03
            1383            2136     846.468E-03     787.516E-03
            1383            2137     877.011E-03     823.744E-03
            1384             289     849.679E-03     814.012E-03
            1384             290     883.292E-03     823.698E-03
            1384            2130     844.764E-03     822.668E-03
            1384            2137     877.011E-03     823.744E-03
            1385             303     184.927E-03     189.953E-03
            1385             304     186.412E-03     182.464E-03
            1385            2131     249.829E-03     240.253E-03
            1385            2138     240.079E-03     256.151E-03
            1386            2131     249.829E-03     240.253E-03
            1386            2132     388.718E-03     369.133E-03
            1386            2138     240.079E-03     256.151E-03
            1386            2139     364.826E-03     402.923E-03
            1387            2132     388.718E-03     369.133E-03
            1387            2133     535.725E-03     505.527E-03
            1387            2139     364.826E-03     402.923E-03
            1387            2140     503.426E-03     560.071E-03
            1388            2133     535.725E-03     505.527E-03
            1388            2134     670.688E-03     625.462E-03
            1388            2140     503.426E-03     560.071E-03
            1388            2141     628.275E-03     693.294E-03
            1389            2134     670.688E-03     625.462E-03
            1389            2135     778.076E-03     715.592E-03
            1389            2141     628.275E-03     693.294E-03
            1389            2142     714.468E-03     795.309E-03
            1390            2135     778.076E-03     715.592E-03
            1390            2136     846.468E-03     787.516E-03
            1390            2142     714.468E-03     795.309E-03
            1390            2143     762.946E-03     875.764E-03
            1391            2136     846.468E-03     787.516E-03
            1391            2137     877.011E-03     823.744E-03
            1391            2143     762.946E-03     875.764E-03
            1391            2144     819.440E-03     910.608E-03
            1392             290     883.292E-03     823.698E-03
            1392             291     857.947E-03     910.536E-03
            1392            2137     877.011E-03     823.744E-03
            1392            2144     819.440E-03     910.608E-03
            1393             302     194.384E-03     190.812E-03
            1393             303     184.927E-03     189.953E-03
            1393            2138     240.079E-03     256.151E-03
            1393            2145     260.393E-03     250.319E-03
            1394            2138     240.079E-03     256.151E-03
            1394            2139     364.826E-03     402.923E-03
            1394            2145     260.393E-03     250.319E-03
            1394            2146     406.015E-03     384.584E-03
            1395            2139     364.826E-03     402.923E-03
            1395            2140     503.426E-03     560.071E-03
            1395            2146     406.015E-03     384.584E-03
            1395            2147     564.656E-03     528.453E-03
            1396            2140     503.426E-03     560.071E-03
            1396            2141     628.275E-03     693.294E-03
            1396            2147     564.656E-03     528.453E-03
            1396            2148     712.762E-03     651.312E-03
            1397            2141     628.275E-03     693.294E-03
            1397            2142     714.468E-03     795.309E-03
            1397            2148     712.762E-03     651.312E-03
            1397            2149     828.374E-03     742.021E-03
            1398            2142     714.468E-03     795.309E-03
            1398            2143     762.946E-03     875.764E-03
            1398            2149     828.374E-03     742.021E-03
            1398            2150     907.938E-03     828.681E-03
            1399            2143     762.946E-03     875.764E-03
            1399            2144     819.440E-03     910.608E-03
            1399            2150     907.938E-03     828.681E-03
            1399            2151     955.576E-03     890.869E-03
            1400             291     857.947E-03     910.536E-03
            1400             292     970.355E-03     903.508E-03
            1400            2144     819.440E-03     910.608E-03
            1400            2151     955.576E-03     890.869E-03
            1401             301     193.422E-03     176.003E-03
            1401             302     194.384E-03     190.812E-03
            1401            2145     260.393E-03     250.319E-03
            1401            2152     254.713E-03     239.915E-03
            1402            2145     260.393E-03     250.319E-03
            1402            2146     406.015E-03     384.584E-03
            1402            2152     254.713E-03     239.915E-03
            1402            2153     391.219E-03     378.657E-03
            1403            2146     406.015E-03     384.584E-03
            1403            2147     564.656E-03     528.453E-03
            1403            2153     391.219E-03     378.657E-03
            1403            2154     539.021E-03     520.812E-03
            1404            2147     564.656E-03     528.453E-03
            1404            2148     712.762E-03     651.312E-03
            1404            2154     539.021E-03     520.812E-03
            1404            2155     678.998E-03     651.796E-03
            1405            2148     712.762E-03     651.312E-03
            1405            2149     828.374E-03     742.021E-03
            1405            2155     678.998E-03     651.796E-03
            1405            2156     797.493E-03     770.006E-03
            1406            2149     828.374E-03     742.021E-03
            1406            2150     907.938E-03     828.681E-03
            1406            2156     797.493E-03     770.006E-03
            1406            2157     890.838E-03     878.177E-03
            1407            2150     907.938E-03     828.681E-03
            1407            2151     955.576E-03     890.869E-03
            1407            2157     890.838E-03     878.177E-03
            1407            2158     973.909E-03     956.132E-03
            1408             292     970.355E-03     903.508E-03
            1408             293         1.01490     980.633E-03
            1408            2151     955.576E-03     890.869E-03
            1408            2158     973.909E-03     956.132E-03
            1409              12     174.081E-03     182.284E-03
            1409             300     225.232E-03     251.680E-03
            1409             301     193.422E-03     176.003E-03
            1409            2152     254.713E-03     239.915E-03
            1410             299     340.586E-03     401.071E-03
            1410             300     225.232E-03     251.680E-03
            1410            2152     254.713E-03     239.915E-03
            1410            2153     391.219E-03     378.657E-03
            1411             298     465.299E-03     553.170E-03
            1411             299     340.586E-03     401.071E-03
            1411            2153     391.219E-03     378.657E-03
            1411            2154     539.021E-03     520.812E-03
            1412             297     578.336E-03     698.655E-03
            1412             298     465.299E-03     553.170E-03
            1412            2154     539.021E-03     520.812E-03
            1412            2155     678.998E-03     651.796E-03
            1413             296     672.936E-03     850.941E-03
            1413             297     578.336E-03     698.655E-03
            1413            2155     678.998E-03     651.796E-03
            1413            2156     797.493E-03     770.006E-03
            1414             295     748.482E-03     976.166E-03
            1414             296     672.936E-03     850.941E-03
            1414            2156     797.493E-03     770.006E-03
            1414            2157     890.838E-03     878.177E-03
            1415             294     845.593E-03         1.02694
            1415             295     748.482E-03     976.166E-03
            1415            2157     890.838E-03     878.177E-03
            1415            2158     973.909E-03     956.132E-03
            1416              11     910.094E-03         1.03324
            1416             293         1.01490     980.633E-03
            1416             294     845.593E-03         1.02694
            1416            2158     973.909E-03     956.132E-03
            2705               5     12.7353E-03     25.3672E-03
            2705             183     169.720E-06     168.612E-06
            2705             242     18.1194E-03     23.5682E-03
            2705            3271     152.486E-06     153.058E-06
            2706             241     29.9863E-03     28.5055E-03
            2706             242     18.1194E-03     23.5682E-03
            2706            3271     152.486E-06     153.058E-06
            2706            3272     132.073E-06     133.046E-06
            2707             240     44.1145E-03     43.1117E-03
            2707             241     29.9863E-03     28.5055E-03
            2707            3272     132.073E-06     133.046E-06
            2707            3273     134.547E-06     132.641E-06
            2708             239     56.6021E-03     55.9520E-03
            2708             240     44.1145E-03     43.1117E-03
            2708            3273     134.547E-06     132.641E-06
            2708            3274     144.345E-06     141.346E-06
            2709             238     66.2900E-03     65.7154E-03
            2709             239     56.6021E-03     55.9520E-03
            2709            3274     144.345E-06     141.346E-06
            2709            3275     152.612E-06     150.527E-06
            2710             237     73.7911E-03     73.3278E-03
            2710             238     66.2900E-03     65.7154E-03
            2710            3275     152.612E-06     150.527E-06
            2710            3276     159.986E-06     157.769E-06
            2711             236     78.0795E-03     77.7461E-03
            2711             237     73.7911E-03     73.3278E-03
            2711            3276     159.986E-06     157.769E-06
            2711            3277     165.208E-06     162.060E-06
            2712               8     79.7140E-03     79.3447E-03
            2712             235     167.178E-06     163.637E-06
            2712             236     78.0795E-03     77.7461E-03
            2712            3277     165.208E-06     162.060E-06
            2713             183     169.720E-06     168.612E-06
            2713             184     132.956E-06     124.076E-06
            2713            3271     152.486E-06     153.058E-06
            2713            3278     127.849E-06     117.513E-06
            2714            3271     152.486E-06     153.058E-06
            2714            3272     132.073E-06     133.046E-06
            2714            3278     127.849E-06     117.513E-06
            2714            3279     123.368E-06     110.442E-06
            2715            3272     132.073E-06     133.046E-06
            2715            3273     134.547E-06     132.641E-06
            2715            3279     123.368E-06     110.442E-06
            2715            3280     129.970E-06     117.232E-06
            2716            3273     134.547E-06     132.641E-06
            2716            3274     144.345E-06     141.346E-06
            2716            3280     129.970E-06     117.232E-06
            2716            3281     141.712E-06     133.237E-06
            2717            3274     144.345E-06     141.346E-06
            2717            3275     152.612E-06     150.527E-06
            2717            3281     141.712E-06     133.237E-06
            2717            3282     151.717E-06     147.881E-06
            2718            3275     152.612E-06     150.527E-06
            2718            3276     159.986E-06     157.769E-06
            2718            3282     151.717E-06     147.881E-06
            2718            3283     159.773E-06     157.960E-06
            2719            3276     159.986E-06     157.769E-06
            2719            3277     165.208E-06     162.060E-06
            2719            3283     159.773E-06     157.960E-06
            2719            3284     165.590E-06     164.319E-06
            2720             234     167.587E-06     166.534E-06
            2720             235     167.178E-06     163.637E-06
            2720            3277     165.208E-06     162.060E-06
            2720            3284     165.590E-06     164.319E-06
            2721             184     132.956E-06     124.076E-06
            2721             185     85.0204E-06     93.8233E-06
            2721            3278     127.849E-06     117.513E-06
            2721            3285     80.7645E-06     91.4880E-06
            2722            3278     127.849E-06     117.513E-06
            2722            3279     123.368E-06     110.442E-06
            2722            3285     80.7645E-06     91.4880E-06
            2722            3286     85.8795E-06     95.8139E-06
            2723            3279     123.368E-06     110.442E-06
            2723            3280     129.970E-06     117.232E-06
            2723            3286     85.8795E-06     95.8139E-06
            2723            3287     105.759E-06     111.928E-06
            2724            3280     129.970E-06     117.232E-06
            2724            3281     141.712E-06     133.237E-06
            2724            3287     105.759E-06     111.928E-06
            2724            3288     125.709E-06     129.966E-06
            2725            3281     141.712E-06     133.237E-06
            2725            3282     151.717E-06     147.881E-06
            2725            3288     125.709E-06     129.966E-06
            2725            3289     142.761E-06     145.204E-06
            2726            3282     151.717E-06     147.881E-06
            2726            3283     159.773E-06     157.960E-06
            2726            3289     142.761E-06     145.204E-06
            2726            3290     155.500E-06     156.553E-06
            2727            3283     159.773E-06     157.960E-06
            2727            3284     165.590E-06     164.319E-06
            2727            3290     155.500E-06     156.553E-06
            2727            3291     163.370E-06     163.699E-06
            2728             233     166.112E-06     166.150E-06
            2728             234     167.587E-06     166.534E-06
            2728            3284     165.590E-06     164.319E-06
            2728            3291     163.370E-06     163.699E-06
            2729             185     85.0204E-06     93.8233E-06
            2729             186     58.6003E-06     54.1784E-06
            2729            3285     80.7645E-06     91.4880E-06
            2729            3292     57.9781E-06     52.9506E-06
            2730            3285     80.7645E-06     91.4880E-06
            2730            3286     85.8795E-06     95.8139E-06
            2730            3292     57.9781E-06     52.9506E-06
            2730            3293     71.2590E-06     67.2420E-06
            2731            3286     85.8795E-06     95.8139E-06
            2731            3287     105.759E-06     111.928E-06
            2731            3293     71.2590E-06     67.2420E-06
            2731            3294     97.4539E-06     97.0425E-06
            2732            3287     105.759E-06     111.928E-06
            2732            3288     125.709E-06     129.966E-06
            2732            3294     97.4539E-06     97.0425E-06
            2732            3295     120.509E-06     121.308E-06
            2733            3288     125.709E-06     129.966E-06
            2733            3289     142.761E-06     145.204E-06
            2733            3295     120.509E-06     121.308E-06
            2733            3296     140.291E-06     139.714E-06
            2734            3289     142.761E-06     145.204E-06
            2734            3290     155.500E-06     156.553E-06
            2734            3296     140.291E-06     139.714E-06
            2734            3297     155.032E-06     154.068E-06
            2735            3290     155.500E-06     156.553E-06
            2735            3291     163.370E-06     163.699E-06
            2735            3297     155.032E-06     154.068E-06
            2735            3298     163.649E-06     162.971E-06
            2736             232     166.543E-06     165.944E-06
            2736             233     166.112E-06     166.150E-06
            2736            3291     163.370E-06     163.699E-06
            2736            3298     163.649E-06     162.971E-06
            2737             186     58.6003E-06     54.1784E-06
            2737             187     33.9195E-06     32.5847E-06
            2737            3292     57.9781E-06     52.9506E-06
            2737            3299     38.3194E-06     35.6567E-06
            2738            3292     57.9781E-06     52.9506E-06
            2738            3293     71.2590E-06     67.2420E-06
            2738            3299     38.3194E-06     35.6567E-06
            2738            3300     58.7279E-06     58.3251E-06
            2739            3293     71.2590E-06     67.2420E-06
            2739            3294     97.4539E-06     97.0425E-06
            2739            3300     58.7279E-06     58.3251E-06
            2739            3301     89.0145E-06     91.6536E-06
            2740            3294     97.4539E-06     97.0425E-06
            2740            3295     120.509E-06     121.308E-06
            2740            3301     89.0145E-06     91.6536E-06
            2740            3302     116.128E-06     117.111E-06
            2741            3295     120.509E-06     121.308E-06
            2741            3296     140.291E-06     139.714E-06
            2741            3302     116.128E-06     117.111E-06
            2741            3303     138.460E-06     137.850E-06
            2742            3296     140.291E-06     139.714E-06
            2742            3297     155.032E-06     154.068E-06
            2742            3303     138.460E-06     137.850E-06
            2742            3304     154.384E-06     153.300E-06
            2743            3297     155.032E-06     154.068E-06
            2743            3298     163.649E-06     162.971E-06
            2743            3304     154.384E-06     153.300E-06
            2743            3305     163.819E-06     162.971E-06
            2744             231     166.828E-06     166.206E-06
            2744             232     166.543E-06     165.944E-06
            2744            3298     163.649E-06     162.971E-06
            2744            3305     163.819E-06     162.971E-06
            2745             187     33.9195E-06     32.5847E-06
            2745             188     32.1676E-06     43.5624E-06
            2745            3299     38.3194E-06     35.6567E-06
            2745            3306     35.8336E-06     42.9945E-06
            2746            3299     38.3194E-06     35.6567E-06
            2746            3300     58.7279E-06     58.3251E-06
            2746            3306     35.8336E-06     42.9945E-06
            2746            3307     53.4303E-06     57.6565E-06
            2747            3300     58.7279E-06     58.3251E-06
            2747            3301     89.0145E-06     91.6536E-06
            2747            3307     53.4303E-06     57.6565E-06
            2747            3308     83.9250E-06     87.2316E-06
            2748            3301     89.0145E-06     91.6536E-06
            2748            3302     116.128E-06     117.111E-06
            2748            3308     83.9250E-06     87.2316E-06
            2748            3309     113.691E-06     113.769E-06
            2749            3302     116.128E-06     117.111E-06
            2749            3303     138.460E-06     137.850E-06
            2749            3309     113.691E-06     113.769E-06
            2749            3310     136.832E-06     135.755E-06
            2750            3303     138.460E-06     137.850E-06
            2750            3304     154.384E-06     153.300E-06
            2750            3310     136.832E-06     135.755E-06
            2750            3311     153.339E-06     152.062E-06
            2751            3304     154.384E-06     153.300E-06
            2751            3305     163.819E-06     162.971E-06
            2751            3311     153.339E-06     152.062E-06
            2751            3312     163.110E-06     161.970E-06
            2752             230     166.313E-06     165.365E-06
            2752             231     166.828E-06     166.206E-06
            2752            3305     163.819E-06     162.971E-06
            2752            3312     163.110E-06     161.970E-06
            2753               6     38.6892E-06     61.8700E-06
            2753             188     32.1676E-06     43.5624E-06
            2753             488     39.0299E-06     53.5740E-06
            2753            3306     35.8336E-06     42.9945E-06
            2754             487     53.1737E-06     57.2393E-06
            2754             488     39.0299E-06     53.5740E-06
            2754            3306     35.8336E-06     42.9945E-06
            2754            3307     53.4303E-06     57.6565E-06
            2755             486     83.5417E-06     84.2023E-06
            2755             487     53.1737E-06     57.2393E-06
            2755            3307     53.4303E-06     57.6565E-06
            2755            3308     83.9250E-06     87.2316E-06
            2756             485     113.077E-06     111.878E-06
            2756             486     83.5417E-06     84.2023E-06
            2756            3308     83.9250E-06     87.2316E-06
            2756            3309     113.691E-06     113.769E-06
            2757             484     136.066E-06     134.531E-06
            2757             485     113.077E-06     111.878E-06
            2757            3309     113.691E-06     113.769E-06
            2757            3310     136.832E-06     135.755E-06
            2758             483     152.514E-06     151.295E-06
            2758             484     136.066E-06     134.531E-06
            2758            3310     136.832E-06     135.755E-06
            2758            3311     153.339E-06     152.062E-06
            2759             482     162.262E-06     161.455E-06
            2759             483     152.514E-06     151.295E-06
            2759            3311     153.339E-06     152.062E-06
            2759            3312     163.110E-06     161.970E-06
            2760              10     165.581E-06     164.831E-06
            2760             230     166.313E-06     165.365E-06
            2760             482     162.262E-06     161.455E-06
            2760            3312     163.110E-06     161.970E-06
            2761               3     915.118E-03         1.03531
            2761             433     959.739E-03     906.544E-03
            2761             489     849.589E-03         1.02925
            2761            3313     949.337E-03     908.863E-03
            2762             489     849.589E-03         1.02925
            2762             490     750.297E-03     979.177E-03
            2762            3313     949.337E-03     908.863E-03
            2762            3314     901.320E-03     873.114E-03
            2763             490     750.297E-03     979.177E-03
            2763             491     673.718E-03     854.602E-03
            2763            3314     901.320E-03     873.114E-03
            2763            3315     811.659E-03     781.199E-03
            2764             491     673.718E-03     854.602E-03
            2764             492     579.949E-03     703.155E-03
            2764            3315     811.659E-03     781.199E-03
            2764            3316     694.170E-03     664.700E-03
            2765             492     579.949E-03     703.155E-03
            2765             493     467.909E-03     558.762E-03
            2765            3316     694.170E-03     664.700E-03
            2765            3317     554.980E-03     533.517E-03
            2766             493     467.909E-03     558.762E-03
            2766             494     343.513E-03     407.167E-03
            2766            3317     554.980E-03     533.517E-03
            2766            3318     399.602E-03     389.279E-03
            2767             494     343.513E-03     407.167E-03
            2767             495     227.575E-03     256.606E-03
            2767            3318     399.602E-03     389.279E-03
            2767            3319     245.123E-03     247.716E-03
            2768              12     174.081E-03     182.284E-03
            2768             495     227.575E-03     256.606E-03
            2768             496     170.736E-03     179.833E-03
            2768            3319     245.123E-03     247.716E-03
            2769             433     959.739E-03     906.544E-03
            2769             434     971.707E-03     954.390E-03
            2769            3313     949.337E-03     908.863E-03
            2769            3320     959.597E-03     957.489E-03
            2770            3313     949.337E-03     908.863E-03
            2770            3314     901.320E-03     873.114E-03
            2770            3320     959.597E-03     957.489E-03
            2770            3321     927.315E-03     920.204E-03
            2771            3314     901.320E-03     873.114E-03
            2771            3315     811.659E-03     781.199E-03
            2771            3321     927.315E-03     920.204E-03
            2771            3322     858.319E-03     835.074E-03
            2772            3315     811.659E-03     781.199E-03
            2772            3316     694.170E-03     664.700E-03
            2772            3322     858.319E-03     835.074E-03
            2772            3323     736.986E-03     726.223E-03
            2773            3316     694.170E-03     664.700E-03
            2773            3317     554.980E-03     533.517E-03
            2773            3323     736.986E-03     726.223E-03
            2773            3324     581.923E-03     580.464E-03
            2774            3317     554.980E-03     533.517E-03
            2774            3318     399.602E-03     389.279E-03
            2774            3324     581.923E-03     580.464E-03
            2774            3325     413.164E-03     412.073E-03
            2775            3318     399.602E-03     389.279E-03
            2775            3319     245.123E-03     247.716E-03
            2775            3325     413.164E-03     412.073E-03
            2775            3326     248.861E-03     248.490E-03
            2776             496     170.736E-03     179.833E-03
            2776             497     170.102E-03     172.012E-03
            2776            3319     245.123E-03     247.716E-03
            2776            3326     248.861E-03     248.490E-03
            2777             434     971.707E-03     954.390E-03
            2777             435         1.02892     990.533E-03
            2777            3320     959.597E-03     957.489E-03
            2777            3327         1.01001     984.215E-03
            2778            3320     959.597E-03     957.489E-03
            2778            3321     927.315E-03     920.204E-03
            2778            3327         1.01001     984.215E-03
            2778            3328     964.277E-03     929.020E-03
            2779            3321     927.315E-03     920.204E-03
            2779            3322     858.319E-03     835.074E-03
            2779            3328     964.277E-03     929.020E-03
            2779            3329     887.248E-03     838.333E-03
            2780            3322     858.319E-03     835.074E-03
            2780            3323     736.986E-03     726.223E-03
            2780            3329     887.248E-03     838.333E-03
            2780            3330     760.179E-03     733.152E-03
            2781            3323     736.986E-03     726.223E-03
            2781            3324     581.923E-03     580.464E-03
            2781            3330     760.179E-03     733.152E-03
            2781            3331     597.222E-03     586.430E-03
            2782            3324     581.923E-03     580.464E-03
            2782            3325     413.164E-03     412.073E-03
            2782            3331     597.222E-03     586.430E-03
            2782            3332     424.014E-03     416.161E-03
            2783            3325     413.164E-03     412.073E-03
            2783            3326     248.861E-03     248.490E-03
            2783            3332     424.014E-03     416.161E-03
            2783            3333     259.511E-03     253.273E-03
            2784             497     170.102E-03     172.012E-03
            2784             498     184.175E-03     178.292E-03
            2784            3326     248.861E-03     248.490E-03
            2784            3333     259.511E-03     253.273E-03
            2785             435         1.02892     990.533E-03
            2785             436         1.09007         1.04460
            2785            3327         1.01001     984.215E-03
            2785            3334         1.04620         1.01406
            2786            3327         1.01001     984.215E-03
            2786            3328     964.277E-03     929.020E-03
            2786            3334         1.04620         1.01406
            2786            3335     956.393E-03     930.486E-03
            2787            3328     964.277E-03     929.020E-03
            2787            3329     887.248E-03     838.333E-03
            2787            3335     956.393E-03     930.486E-03
            2787            3336     856.287E-03     821.850E-03
            2788            3329     887.248E-03     838.333E-03
            2788            3330     760.179E-03     733.152E-03
            2788            3336     856.287E-03     821.850E-03
            2788            3337     728.645E-03     698.864E-03
            2789            3330     760.179E-03     733.152E-03
            2789            3331     597.222E-03     586.430E-03
            2789            3337     728.645E-03     698.864E-03
            2789            3338     575.522E-03     555.179E-03
            2790            3331     597.222E-03     586.430E-03
            2790            3332     424.014E-03     416.161E-03
            2790            3338     575.522E-03     555.179E-03
            2790            3339     410.177E-03     394.224E-03
            2791            3332     424.014E-03     416.161E-03
            2791            3333     259.511E-03     253.273E-03
            2791            3339     410.177E-03     394.224E-03
            2791            3340     250.871E-03     234.573E-03
            2792             498     184.175E-03     178.292E-03
            2792             499     179.926E-03     163.311E-03
            2792            3333     259.511E-03     253.273E-03
            2792            3340     250.871E-03     234.573E-03
            2793             436         1.09007         1.04460
            2793             437     994.555E-03         1.07973
            2793            3334         1.04620         1.01406
            2793            3341     938.199E-03         1.05401
            2794            3334         1.04620         1.01406
            2794            3335     956.393E-03     930.486E-03
            2794            3341     938.199E-03         1.05401
            2794            3342     845.913E-03     982.867E-03
            2795            3335     956.393E-03     930.486E-03
            2795            3336     856.287E-03     821.850E-03
            2795            3342     845.913E-03     982.867E-03
            2795            3343     760.677E-03     866.973E-03
            2796            3336     856.287E-03     821.850E-03
            2796            3337     728.645E-03     698.864E-03
            2796            3343     760.677E-03     866.973E-03
            2796            3344     649.317E-03     723.744E-03
            2797            3337     728.645E-03     698.864E-03
            2797            3338     575.522E-03     555.179E-03
            2797            3344     649.317E-03     723.744E-03
            2797            3345     514.351E-03     569.536E-03
            2798            3338     575.522E-03     555.179E-03
            2798            3339     410.177E-03     394.224E-03
            2798            3345     514.351E-03     569.536E-03
            2798            3346     363.122E-03     398.436E-03
            2799            3339     410.177E-03     394.224E-03
            2799            3340     250.871E-03     234.573E-03
            2799            3346     363.122E-03     398.436E-03
            2799            3347     214.089E-03     223.027E-03
            2800             499     179.926E-03     163.311E-03
            2800             500     146.914E-03     143.567E-03
            2800            3340     250.871E-03     234.573E-03
            2800            3347     214.089E-03     223.027E-03
            2801              16         1.02441         1.11637
            2801             437     994.555E-03         1.07973
            2801             507     958.244E-03         1.08562
            2801            3341     938.199E-03         1.05401
            2802             506     854.757E-03         1.00909
            2802             507     958.244E-03         1.08562
            2802            3341     938.199E-03         1.05401
            2802            3342     845.913E-03     982.867E-03
            2803             505     769.802E-03     890.939E-03
            2803             506     854.757E-03         1.00909
            2803            3342     845.913E-03     982.867E-03
            2803            3343     760.677E-03     866.973E-03
            2804             504     661.611E-03     744.111E-03
            2804             505     769.802E-03     890.939E-03
            2804            3343     760.677E-03     866.973E-03
            2804            3344     649.317E-03     723.744E-03
            2805             503     532.342E-03     589.984E-03
            2805             504     661.611E-03     744.111E-03
            2805            3344     649.317E-03     723.744E-03
            2805            3345     514.351E-03     569.536E-03
            2806             502     392.251E-03     425.880E-03
            2806             503     532.342E-03     589.984E-03
            2806            3345     514.351E-03     569.536E-03
            2806            3346     363.122E-03     398.436E-03
            2807             501     261.728E-03     267.093E-03
            2807             502     392.251E-03     425.880E-03
            2807            3346     363.122E-03     398.436E-03
            2807            3347     214.089E-03     223.027E-03
            2808              19     206.203E-03     197.449E-03
            2808             500     146.914E-03     143.567E-03
            2808             501     261.728E-03     267.093E-03
            2808            3347     214.089E-03     223.027E-03
            3001              19     206.203E-03     197.449E-03
            3001             553     270.825E-03     278.939E-03
            3001             576     294.865E-03     273.388E-03
            3001            3498     350.690E-03     332.515E-03
            3002             553     270.825E-03     278.939E-03
            3002             554     403.422E-03     440.291E-03
            3002            3498     350.690E-03     332.515E-03
            3002            3499     477.128E-03     462.685E-03
            3003             554     403.422E-03     440.291E-03
            3003             555     543.489E-03     604.133E-03
            3003            3499     477.128E-03     462.685E-03
            3003            3500     624.411E-03     605.344E-03
            3004             555     543.489E-03     604.133E-03
            3004             556     671.966E-03     757.239E-03
            3004            3500     624.411E-03     605.344E-03
            3004            3501     769.402E-03     740.146E-03
            3005             556     671.966E-03     757.239E-03
            3005             557     779.236E-03     902.782E-03
            3005            3501     769.402E-03     740.146E-03
            3005            3502     893.169E-03     863.433E-03
            3006             557     779.236E-03     902.782E-03
            3006             558     863.688E-03         1.01935
            3006            3502     893.169E-03     863.433E-03
            3006            3503     993.732E-03     981.275E-03
            3007             558     863.688E-03         1.01935
            3007             559     966.780E-03         1.09421
            3007            3503     993.732E-03     981.275E-03
            3007            3504         1.09594         1.07754
            3008              20         1.03268         1.12422
            3008             559     966.780E-03         1.09421
            3008             560         1.15066         1.11344
            3008            3504         1.09594         1.07754
            3009             575     295.561E-03     291.687E-03
            3009             576     294.865E-03     273.388E-03
            3009            3498     350.690E-03     332.515E-03
            3009            3505     355.946E-03     344.616E-03
            3010            3498     350.690E-03     332.515E-03
            3010            3499     477.128E-03     462.685E-03
            3010            3505     355.946E-03     344.616E-03
            3010            3506     490.904E-03     466.871E-03
            3011            3499     477.128E-03     462.685E-03
            3011            3500     624.411E-03     605.344E-03
            3011            3506     490.904E-03     466.871E-03
            3011            3507     649.250E-03     607.812E-03
            3012            3500     624.411E-03     605.344E-03
            3012            3501     769.402E-03     740.146E-03
            3012            3507     649.250E-03     607.812E-03
            3012            3508     802.446E-03     731.005E-03
            3013            3501     769.402E-03     740.146E-03
            3013            3502     893.169E-03     863.433E-03
            3013            3508     802.446E-03     731.005E-03
            3013            3509     922.994E-03     821.922E-03
            3014            3502     893.169E-03     863.433E-03
            3014            3503     993.732E-03     981.275E-03
            3014            3509     922.994E-03     821.922E-03
            3014            3510         1.00795     914.657E-03
            3015            3503     993.732E-03     981.275E-03
            3015            3504         1.09594         1.07754
            3015            3510         1.00795     914.657E-03
            3015            3511         1.06212     987.371E-03
            3016             560         1.15066         1.11344
            3016             561         1.08000         1.00474
            3016            3504         1.09594         1.07754
            3016            3511         1.06212     987.371E-03
            3017             574     285.535E-03     289.595E-03
            3017             575     295.561E-03     291.687E-03
            3017            3505     355.946E-03     344.616E-03
            3017            3512     332.755E-03     348.283E-03
            3018            3505     355.946E-03     344.616E-03
            3018            3506     490.904E-03     466.871E-03
            3018            3512     332.755E-03     348.283E-03
            3018            3513     443.019E-03     481.733E-03
            3019            3506     490.904E-03     466.871E-03
            3019            3507     649.250E-03     607.812E-03
            3019            3513     443.019E-03     481.733E-03
            3019            3514     575.477E-03     635.367E-03
            3020            3507     649.250E-03     607.812E-03
            3020            3508     802.446E-03     731.005E-03
            3020            3514     575.477E-03     635.367E-03
            3020            3515     699.261E-03     769.483E-03
            3021            3508     802.446E-03     731.005E-03
            3021            3509     922.994E-03     821.922E-03
            3021            3515     699.261E-03     769.483E-03
            3021            3516     785.374E-03     873.044E-03
            3022            3509     922.994E-03     821.922E-03
            3022            3510         1.00795     914.657E-03
            3022            3516     785.374E-03     873.044E-03
            3022            3517     832.741E-03     954.882E-03
            3023            3510         1.00795     914.657E-03
            3023            3511         1.06212     987.371E-03
            3023            3517     832.741E-03     954.882E-03
            3023            3518     891.025E-03     989.963E-03
            3024             561         1.08000         1.00474
            3024             562     932.137E-03     989.460E-03
            3024            3511         1.06212     987.371E-03
            3024            3518     891.025E-03     989.963E-03
            3025             573     285.716E-03     281.893E-03
            3025             574     285.535E-03     289.595E-03
            3025            3512     332.755E-03     348.283E-03
            3025            3519     339.945E-03     330.651E-03
            3026            3512     332.755E-03     348.283E-03
            3026            3513     443.019E-03     481.733E-03
            3026            3519     339.945E-03     330.651E-03
            3026            3520     462.462E-03     442.957E-03
            3027            3513     443.019E-03     481.733E-03
            3027            3514     575.477E-03     635.367E-03
            3027            3520     462.462E-03     442.957E-03
            3027            3521     601.374E-03     571.111E-03
            3028            3514     575.477E-03     635.367E-03
            3028            3515     699.261E-03     769.483E-03
            3028            3521     601.374E-03     571.111E-03
            3028            3522     732.854E-03     688.881E-03
            3029            3515     699.261E-03     769.483E-03
            3029            3516     785.374E-03     873.044E-03
            3029            3522     732.854E-03     688.881E-03
            3029            3523     839.461E-03     778.412E-03
            3030            3516     785.374E-03     873.044E-03
            3030            3517     832.741E-03     954.882E-03
            3030            3523     839.461E-03     778.412E-03
            3030            3524     905.210E-03     846.375E-03
            3031            3517     832.741E-03     954.882E-03
            3031            3518     891.025E-03     989.963E-03
            3031            3524     905.210E-03     846.375E-03
            3031            3525     930.300E-03     875.289E-03
            3032             562     932.137E-03     989.460E-03
            3032             563     933.805E-03     871.157E-03
            3032            3518     891.025E-03     989.963E-03
            3032            3525     930.300E-03     875.289E-03
            3033             572     282.201E-03     296.082E-03
            3033             573     285.716E-03     281.893E-03
            3033            3519     339.945E-03     330.651E-03
            3033            3526     331.084E-03     336.986E-03
            3034            3519     339.945E-03     330.651E-03
            3034            3520     462.462E-03     442.957E-03
            3034            3526     331.084E-03     336.986E-03
            3034            3527     440.183E-03     431.075E-03
            3035            3520     462.462E-03     442.957E-03
            3035            3521     601.374E-03     571.111E-03
            3035            3527     440.183E-03     431.075E-03
            3035            3528     561.946E-03     539.533E-03
            3036            3521     601.374E-03     571.111E-03
            3036            3522     732.854E-03     688.881E-03
            3036            3528     561.946E-03     539.533E-03
            3036            3529     678.027E-03     649.806E-03
            3037            3522     732.854E-03     688.881E-03
            3037            3523     839.461E-03     778.412E-03
            3037            3529     678.027E-03     649.806E-03
            3037            3530     781.783E-03     754.996E-03
            3038            3523     839.461E-03     778.412E-03
            3038            3524     905.210E-03     846.375E-03
            3038            3530     781.783E-03     754.996E-03
            3038            3531     857.571E-03     839.082E-03
            3039            3524     905.210E-03     846.375E-03
            3039            3525     930.300E-03     875.289E-03
            3039            3531     857.571E-03     839.082E-03
            3039            3532     879.070E-03     854.282E-03
            3040             563     933.805E-03     871.157E-03
            3040             564     872.755E-03     834.683E-03
            3040            3525     930.300E-03     875.289E-03
            3040            3532     879.070E-03     854.282E-03
            3041              24     278.182E-03     284.644E-03
            3041             571     309.147E-03     329.350E-03
            3041             572     282.201E-03     296.082E-03
            3041            3526     331.084E-03     336.986E-03
            3042             570     383.599E-03     431.439E-03
            3042             571     309.147E-03     329.350E-03
            3042            3526     331.084E-03     336.986E-03
            3042            3527     440.183E-03     431.075E-03
            3043             569     472.285E-03     548.355E-03
            3043             570     383.599E-03     431.439E-03
            3043            3527     440.183E-03     431.075E-03
            3043            3528     561.946E-03     539.533E-03
            3044             568     558.394E-03     665.382E-03
            3044             569     472.285E-03     548.355E-03
            3044            3528     561.946E-03     539.533E-03
            3044            3529     678.027E-03     649.806E-03
            3045             567     631.429E-03     789.072E-03
            3045             568     558.394E-03     665.382E-03
            3045            3529     678.027E-03     649.806E-03
            3045            3530     781.783E-03     754.996E-03
            3046             566     690.233E-03     890.179E-03
            3046             567     631.429E-03     789.072E-03
            3046            3530     781.783E-03     754.996E-03
            3046            3531     857.571E-03     839.082E-03
            3047             565     775.727E-03     931.665E-03
            3047             566     690.233E-03     890.179E-03
            3047            3531     857.571E-03     839.082E-03
            3047            3532     879.070E-03     854.282E-03
            3048              23     833.815E-03     937.021E-03
            3048             564     872.755E-03     834.683E-03
            3048             565     775.727E-03     931.665E-03
            3048            3532     879.070E-03     854.282E-03
            3049               2     12.5091E-03     25.1070E-03
            3049              51     22.3222E-03     44.3472E-03
            3049             216     18.0508E-03     23.4112E-03
            3049            3533     33.1754E-03     46.8182E-03
            3050             215     30.0579E-03     28.4728E-03
            3050             216     18.0508E-03     23.4112E-03
            3050            3533     33.1754E-03     46.8182E-03
            3050            3534     59.5230E-03     64.3648E-03
            3051             214     44.1599E-03     43.1026E-03
            3051             215     30.0579E-03     28.4728E-03
            3051            3534     59.5230E-03     64.3648E-03
            3051            3535     88.8638E-03     91.6236E-03
            3052             213     56.6344E-03     55.9448E-03
            3052             214     44.1599E-03     43.1026E-03
            3052            3535     88.8638E-03     91.6236E-03
            3052            3536     113.554E-03     114.199E-03
            3053             212     66.3134E-03     65.7098E-03
            3053             213     56.6344E-03     55.9448E-03
            3053            3536     113.554E-03     114.199E-03
            3053            3537     133.296E-03     133.245E-03
            3054             211     73.8062E-03     73.3250E-03
            3054             212     66.3134E-03     65.7098E-03
            3054            3537     133.296E-03     133.245E-03
            3054            3538     147.927E-03     147.610E-03
            3055             210     78.0866E-03     77.7446E-03
            3055             211     73.8062E-03     73.3250E-03
            3055            3538     147.927E-03     147.610E-03
            3055            3539     156.762E-03     156.332E-03
            3056               8     79.7140E-03     79.3447E-03
            3056             210     78.0866E-03     77.7446E-03
            3056             351     159.860E-03     159.339E-03
            3056            3539     156.762E-03     156.332E-03
            3057              51     22.3222E-03     44.3472E-03
            3057              52     52.4137E-03     46.1311E-03
            3057            3533     33.1754E-03     46.8182E-03
            3057            3540     57.0945E-03     49.0925E-03
            3058            3533     33.1754E-03     46.8182E-03
            3058            3534     59.5230E-03     64.3648E-03
            3058            3540     57.0945E-03     49.0925E-03
            3058            3541     73.8069E-03     68.0128E-03
            3059            3534     59.5230E-03     64.3648E-03
            3059            3535     88.8638E-03     91.6236E-03
            3059            3541     73.8069E-03     68.0128E-03
            3059            3542     96.9995E-03     94.5389E-03
            3060            3535     88.8638E-03     91.6236E-03
            3060            3536     113.554E-03     114.199E-03
            3060            3542     96.9995E-03     94.5389E-03
            3060            3543     118.567E-03     115.945E-03
            3061            3536     113.554E-03     114.199E-03
            3061            3537     133.296E-03     133.245E-03
            3061            3543     118.567E-03     115.945E-03
            3061            3544     136.547E-03     134.738E-03
            3062            3537     133.296E-03     133.245E-03
            3062            3538     147.927E-03     147.610E-03
            3062            3544     136.547E-03     134.738E-03
            3062            3545     149.945E-03     148.527E-03
            3063            3538     147.927E-03     147.610E-03
            3063            3539     156.762E-03     156.332E-03
            3063            3545     149.945E-03     148.527E-03
            3063            3546     158.506E-03     157.251E-03
            3064             350     161.234E-03     160.134E-03
            3064             351     159.860E-03     159.339E-03
            3064            3539     156.762E-03     156.332E-03
            3064            3546     158.506E-03     157.251E-03
            3065              52     52.4137E-03     46.1311E-03
            3065              53     89.3709E-03     90.3180E-03
            3065            3540     57.0945E-03     49.0925E-03
            3065            3547     79.5431E-03     80.3526E-03
            3066            3540     57.0945E-03     49.0925E-03
            3066            3541     73.8069E-03     68.0128E-03
            3066            3547     79.5431E-03     80.3526E-03
            3066            3548     78.5890E-03     79.6069E-03
            3067            3541     73.8069E-03     68.0128E-03
            3067            3542     96.9995E-03     94.5389E-03
            3067            3548     78.5890E-03     79.6069E-03
            3067            3549     99.2657E-03     99.7274E-03
            3068            3542     96.9995E-03     94.5389E-03
            3068            3543     118.567E-03     115.945E-03
            3068            3549     99.2657E-03     99.7274E-03
            3068            3550     119.667E-03     119.373E-03
            3069            3543     118.567E-03     115.945E-03
            3069            3544     136.547E-03     134.738E-03
            3069            3550     119.667E-03     119.373E-03
            3069            3551     136.291E-03     135.612E-03
            3070            3544     136.547E-03     134.738E-03
            3070            3545     149.945E-03     148.527E-03
            3070            3551     136.291E-03     135.612E-03
            3070            3552     149.572E-03     148.078E-03
            3071            3545     149.945E-03     148.527E-03
            3071            3546     158.506E-03     157.251E-03
            3071            3552     149.572E-03     148.078E-03
            3071            3553     157.658E-03     155.754E-03
            3072             349     160.478E-03     158.446E-03
            3072             350     161.234E-03     160.134E-03
            3072            3546     158.506E-03     157.251E-03
            3072            3553     157.658E-03     155.754E-03
            3073              53     89.3709E-03     90.3180E-03
            3073              54     66.6610E-03     75.9458E-03
            3073            3547     79.5431E-03     80.3526E-03
            3073            3554     68.3657E-03     81.4739E-03
            3074            3547     79.5431E-03     80.3526E-03
            3074            3548     78.5890E-03     79.6069E-03
            3074            3554     68.3657E-03     81.4739E-03
            3074            3555     77.9524E-03     92.4553E-03
            3075            3548     78.5890E-03     79.6069E-03
            3075            3549     99.2657E-03     99.7274E-03
            3075            3555     77.9524E-03     92.4553E-03
            3075            3556     98.0009E-03     106.153E-03
            3076            3549     99.2657E-03     99.7274E-03
            3076            3550     119.667E-03     119.373E-03
            3076            3556     98.0009E-03     106.153E-03
            3076            3557     118.936E-03     122.062E-03
            3077            3550     119.667E-03     119.373E-03
            3077            3551     136.291E-03     135.612E-03
            3077            3557     118.936E-03     122.062E-03
            3077            3558     136.953E-03     137.778E-03
            3078            3551     136.291E-03     135.612E-03
            3078            3552     149.572E-03     148.078E-03
            3078            3558     136.953E-03     137.778E-03
            3078            3559     151.587E-03     151.119E-03
            3079            3552     149.572E-03     148.078E-03
            3079            3553     157.658E-03     155.754E-03
            3079            3559     151.587E-03     151.119E-03
            3079            3560     160.153E-03     159.431E-03
            3080             348     163.323E-03     162.441E-03
            3080             349     160.478E-03     158.446E-03
            3080            3553     157.658E-03     155.754E-03
            3080            3560     160.153E-03     159.431E-03
            3081              54     66.6610E-03     75.9458E-03
            3081              55     48.4680E-03     42.0730E-03
            3081            3554     68.3657E-03     81.4739E-03
            3081            3561     67.4116E-03     63.3538E-03
            3082            3554     68.3657E-03     81.4739E-03
            3082            3555     77.9524E-03     92.4553E-03
            3082            3561     67.4116E-03     63.3538E-03
            3082            3562     93.0878E-03     93.9780E-03
            3083            3555     77.9524E-03     92.4553E-03
            3083            3556     98.0009E-03     106.153E-03
            3083            3562     93.0878E-03     93.9780E-03
            3083            3563     107.631E-03     110.435E-03
            3084            3556     98.0009E-03     106.153E-03
            3084            3557     118.936E-03     122.062E-03
            3084            3563     107.631E-03     110.435E-03
            3084            3564     124.873E-03     125.280E-03
            3085            3557     118.936E-03     122.062E-03
            3085            3558     136.953E-03     137.778E-03
            3085            3564     124.873E-03     125.280E-03
            3085            3565     142.587E-03     141.035E-03
            3086            3558     136.953E-03     137.778E-03
            3086            3559     151.587E-03     151.119E-03
            3086            3565     142.587E-03     141.035E-03
            3086            3566     156.648E-03     155.100E-03
            3087            3559     151.587E-03     151.119E-03
            3087            3560     160.153E-03     159.431E-03
            3087            3566     156.648E-03     155.100E-03
            3087            3567     165.219E-03     164.337E-03
            3088             347     167.995E-03     167.519E-03
            3088             348     163.323E-03     162.441E-03
            3088            3560     160.153E-03     159.431E-03
            3088            3567     165.219E-03     164.337E-03
            3089              55     48.4680E-03     42.0730E-03
            3089              56     76.3877E-03     74.7780E-03
            3089            3561     67.4116E-03     63.3538E-03
            3089            3568     84.3651E-03     84.5550E-03
            3090            3561     67.4116E-03     63.3538E-03
            3090            3562     93.0878E-03     93.9780E-03
            3090            3568     84.3651E-03     84.5550E-03
            3090            3569     101.598E-03     104.714E-03
            3091            3562     93.0878E-03     93.9780E-03
            3091            3563     107.631E-03     110.435E-03
            3091            3569     101.598E-03     104.714E-03
            3091            3570     117.525E-03     122.138E-03
            3092            3563     107.631E-03     110.435E-03
            3092            3564     124.873E-03     125.280E-03
            3092            3570     117.525E-03     122.138E-03
            3092            3571     131.980E-03     135.088E-03
            3093            3564     124.873E-03     125.280E-03
            3093            3565     142.587E-03     141.035E-03
            3093            3571     131.980E-03     135.088E-03
            3093            3572     146.896E-03     146.835E-03
            3094            3565     142.587E-03     141.035E-03
            3094            3566     156.648E-03     155.100E-03
            3094            3572     146.896E-03     146.835E-03
            3094            3573     158.944E-03     157.446E-03
            3095            3566     156.648E-03     155.100E-03
            3095            3567     165.219E-03     164.337E-03
            3095            3573     158.944E-03     157.446E-03
            3095            3574     166.225E-03     164.825E-03
            3096             346     168.571E-03     167.412E-03
            3096             347     167.995E-03     167.519E-03
            3096            3567     165.219E-03     164.337E-03
            3096            3574     166.225E-03     164.825E-03
            3097              56     76.3877E-03     74.7780E-03
            3097              57     108.620E-03     107.390E-03
            3097            3568     84.3651E-03     84.5550E-03
            3097            3575     108.468E-03     109.439E-03
            3098            3568     84.3651E-03     84.5550E-03
            3098            3569     101.598E-03     104.714E-03
            3098            3575     108.468E-03     109.439E-03
            3098            3576     115.293E-03     117.937E-03
            3099            3569     101.598E-03     104.714E-03
            3099            3570     117.525E-03     122.138E-03
            3099            3576     115.293E-03     117.937E-03
            3099            3577     129.031E-03     132.022E-03
            3100            3570     117.525E-03     122.138E-03
            3100            3571     131.980E-03     135.088E-03
            3100            3577     129.031E-03     132.022E-03
            3100            3578     141.445E-03     144.407E-03
            3101            3571     131.980E-03     135.088E-03
            3101            3572     146.896E-03     146.835E-03
            3101            3578     141.445E-03     144.407E-03
            3101            3579     152.352E-03     153.060E-03
            3102            3572     146.896E-03     146.835E-03
            3102            3573     158.944E-03     157.446E-03
            3102            3579     152.352E-03     153.060E-03
            3102            3580     161.304E-03     160.384E-03
            3103            3573     158.944E-03     157.446E-03
            3103            3574     166.225E-03     164.825E-03
            3103            3580     161.304E-03     160.384E-03
            3103            3581     166.779E-03     165.795E-03
            3104             345     168.533E-03     167.762E-03
            3104             346     168.571E-03     167.412E-03
            3104            3574     166.225E-03     164.825E-03
            3104            3581     166.779E-03     165.795E-03
            3105              57     108.620E-03     107.390E-03
            3105              58     138.079E-03     137.667E-03
            3105            3575     108.468E-03     109.439E-03
            3105            3582     134.017E-03     136.965E-03
            3106            3575     108.468E-03     109.439E-03
            3106            3576     115.293E-03     117.937E-03
            3106            3582     134.017E-03     136.965E-03
            3106            3583     133.905E-03     137.907E-03
            3107            3576     115.293E-03     117.937E-03
            3107            3577     129.031E-03     132.022E-03
            3107            3583     133.905E-03     137.907E-03
            3107            3584     143.327E-03     144.927E-03
            3108            3577     129.031E-03     132.022E-03
            3108            3578     141.445E-03     144.407E-03
            3108            3584     143.327E-03     144.927E-03
            3108            3585     152.310E-03     154.245E-03
            3109            3578     141.445E-03     144.407E-03
            3109            3579     152.352E-03     153.060E-03
            3109            3585     152.310E-03     154.245E-03
            3109            3586     158.774E-03     160.230E-03
            3110            3579     152.352E-03     153.060E-03
            3110            3580     161.304E-03     160.384E-03
            3110            3586     158.774E-03     160.230E-03
            3110            3587     163.948E-03     163.908E-03
            3111            3580     161.304E-03     160.384E-03
            3111            3581     166.779E-03     165.795E-03
            3111            3587     163.948E-03     163.908E-03
            3111            3588     167.164E-03     166.649E-03
            3112             344     168.130E-03     167.727E-03
            3112             345     168.533E-03     167.762E-03
            3112            3581     166.779E-03     165.795E-03
            3112            3588     167.164E-03     166.649E-03
            3113              58     138.079E-03     137.667E-03
            3113              59     166.555E-03     167.508E-03
            3113            3582     134.017E-03     136.965E-03
            3113            3589     161.305E-03     164.889E-03
            3114            3582     134.017E-03     136.965E-03
            3114            3583     133.905E-03     137.907E-03
            3114            3589     161.305E-03     164.889E-03
            3114            3590     157.304E-03     160.436E-03
            3115            3583     133.905E-03     137.907E-03
            3115            3584     143.327E-03     144.927E-03
            3115            3590     157.304E-03     160.436E-03
            3115            3591     161.224E-03     160.096E-03
            3116            3584     143.327E-03     144.927E-03
            3116            3585     152.310E-03     154.245E-03
            3116            3591     161.224E-03     160.096E-03
            3116            3592     165.293E-03     164.083E-03
            3117            3585     152.310E-03     154.245E-03
            3117            3586     158.774E-03     160.230E-03
            3117            3592     165.293E-03     164.083E-03
            3117            3593     167.106E-03     167.178E-03
            3118            3586     158.774E-03     160.230E-03
            3118            3587     163.948E-03     163.908E-03
            3118            3593     167.106E-03     167.178E-03
            3118            3594     167.783E-03     167.817E-03
            3119            3587     163.948E-03     163.908E-03
            3119            3588     167.164E-03     166.649E-03
            3119            3594     167.783E-03     167.817E-03
            3119            3595     168.107E-03     167.799E-03
            3120             343     168.134E-03     167.708E-03
            3120             344     168.130E-03     167.727E-03
            3120            3588     167.164E-03     166.649E-03
            3120            3595     168.107E-03     167.799E-03
            3121              59     166.555E-03     167.508E-03
            3121              60     197.447E-03     192.818E-03
            3121            3589     161.305E-03     164.889E-03
            3121            3596     190.649E-03     189.402E-03
            3122            3589     161.305E-03     164.889E-03
            3122            3590     157.304E-03     160.436E-03
            3122            3596     190.649E-03     189.402E-03
            3122            3597     180.790E-03     181.657E-03
            3123            3590     157.304E-03     160.436E-03
            3123            3591     161.224E-03     160.096E-03
            3123            3597     180.790E-03     181.657E-03
            3123            3598     177.592E-03     175.851E-03
            3124            3591     161.224E-03     160.096E-03
            3124            3592     165.293E-03     164.083E-03
            3124            3598     177.592E-03     175.851E-03
            3124            3599     177.011E-03     174.122E-03
            3125            3592     165.293E-03     164.083E-03
            3125            3593     167.106E-03     167.178E-03
            3125            3599     177.011E-03     174.122E-03
            3125            3600     174.803E-03     173.371E-03
            3126            3593     167.106E-03     167.178E-03
            3126            3594     167.783E-03     167.817E-03
            3126            3600     174.803E-03     173.371E-03
            3126            3601     171.300E-03     171.198E-03
            3127            3594     167.783E-03     167.817E-03
            3127            3595     168.107E-03     167.799E-03
            3127            3601     171.300E-03     171.198E-03
            3127            3602     168.770E-03     168.290E-03
            3128             342     167.942E-03     167.018E-03
            3128             343     168.134E-03     167.708E-03
            3128            3595     168.107E-03     167.799E-03
            3128            3602     168.770E-03     168.290E-03
            3129              60     197.447E-03     192.818E-03
            3129              61     220.024E-03     231.737E-03
            3129            3596     190.649E-03     189.402E-03
            3129            3603     210.529E-03     229.480E-03
            3130            3596     190.649E-03     189.402E-03
            3130            3597     180.790E-03     181.657E-03
            3130            3603     210.529E-03     229.480E-03
            3130            3604     196.726E-03     219.797E-03
            3131            3597     180.790E-03     181.657E-03
            3131            3598     177.592E-03     175.851E-03
            3131            3604     196.726E-03     219.797E-03
            3131            3605     190.298E-03     204.915E-03
            3132            3598     177.592E-03     175.851E-03
            3132            3599     177.011E-03     174.122E-03
            3132            3605     190.298E-03     204.915E-03
            3132            3606     185.927E-03     193.828E-03
            3133            3599     177.011E-03     174.122E-03
            3133            3600     174.803E-03     173.371E-03
            3133            3606     185.927E-03     193.828E-03
            3133            3607     179.947E-03     186.195E-03
            3134            3600     174.803E-03     173.371E-03
            3134            3601     171.300E-03     171.198E-03
            3134            3607     179.947E-03     186.195E-03
            3134            3608     172.865E-03     177.848E-03
            3135            3601     171.300E-03     171.198E-03
            3135            3602     168.770E-03     168.290E-03
            3135            3608     172.865E-03     177.848E-03
            3135            3609     168.095E-03     170.647E-03
            3136             341     166.641E-03     167.746E-03
            3136             342     167.942E-03     167.018E-03
            3136            3602     168.770E-03     168.290E-03
            3136            3609     168.095E-03     170.647E-03
            3137              61     220.024E-03     231.737E-03
            3137              62     271.614E-03     256.183E-03
            3137            3603     210.529E-03     229.480E-03
            3137            3610     266.312E-03     249.201E-03
            3138            3603     210.529E-03     229.480E-03
            3138            3604     196.726E-03     219.797E-03
            3138            3610     266.312E-03     249.201E-03
            3138            3611     251.099E-03     228.982E-03
            3139            3604     196.726E-03     219.797E-03
            3139            3605     190.298E-03     204.915E-03
            3139            3611     251.099E-03     228.982E-03
            3139            3612     233.475E-03     209.145E-03
            3140            3605     190.298E-03     204.915E-03
            3140            3606     185.927E-03     193.828E-03
            3140            3612     233.475E-03     209.145E-03
            3140            3613     217.270E-03     197.819E-03
            3141            3606     185.927E-03     193.828E-03
            3141            3607     179.947E-03     186.195E-03
            3141            3613     217.270E-03     197.819E-03
            3141            3614     199.506E-03     188.224E-03
            3142            3607     179.947E-03     186.195E-03
            3142            3608     172.865E-03     177.848E-03
            3142            3614     199.506E-03     188.224E-03
            3142            3615     183.441E-03     178.915E-03
            3143            3608     172.865E-03     177.848E-03
            3143            3609     168.095E-03     170.647E-03
            3143            3615     183.441E-03     178.915E-03
            3143            3616     172.812E-03     171.451E-03
            3144             340     168.927E-03     168.383E-03
            3144             341     166.641E-03     167.746E-03
            3144            3609     168.095E-03     170.647E-03
            3144            3616     172.812E-03     171.451E-03
            3145              62     271.614E-03     256.183E-03
            3145              63     306.801E-03     300.146E-03
            3145            3610     266.312E-03     249.201E-03
            3145            3617     286.593E-03     284.004E-03
            3146            3610     266.312E-03     249.201E-03
            3146            3611     251.099E-03     228.982E-03
            3146            3617     286.593E-03     284.004E-03
            3146            3618     254.151E-03     253.815E-03
            3147            3611     251.099E-03     228.982E-03
            3147            3612     233.475E-03     209.145E-03
            3147            3618     254.151E-03     253.815E-03
            3147            3619     234.052E-03     229.817E-03
            3148            3612     233.475E-03     209.145E-03
            3148            3613     217.270E-03     197.819E-03
            3148            3619     234.052E-03     229.817E-03
            3148            3620     216.103E-03     209.815E-03
            3149            3613     217.270E-03     197.819E-03
            3149            3614     199.506E-03     188.224E-03
            3149            3620     216.103E-03     209.815E-03
            3149            3621     197.786E-03     192.139E-03
            3150            3614     199.506E-03     188.224E-03
            3150            3615     183.441E-03     178.915E-03
            3150            3621     197.786E-03     192.139E-03
            3150            3622     182.682E-03     177.883E-03
            3151            3615     183.441E-03     178.915E-03
            3151            3616     172.812E-03     171.451E-03
            3151            3622     182.682E-03     177.883E-03
            3151            3623     172.176E-03     167.371E-03
            3152             339     168.496E-03     163.444E-03
            3152             340     168.927E-03     168.383E-03
            3152            3616     172.812E-03     171.451E-03
            3152            3623     172.176E-03     167.371E-03
            3153              63     306.801E-03     300.146E-03
            3153              64     255.565E-03     286.367E-03
            3153            3617     286.593E-03     284.004E-03
            3153            3624     240.561E-03     289.209E-03
            3154            3617     286.593E-03     284.004E-03
            3154            3618     254.151E-03     253.815E-03
            3154            3624     240.561E-03     289.209E-03
            3154            3625     217.875E-03     283.886E-03
            3155            3618     254.151E-03     253.815E-03
            3155            3619     234.052E-03     229.817E-03
            3155            3625     217.875E-03     283.886E-03
            3155            3626     204.274E-03     257.439E-03
            3156            3619     234.052E-03     229.817E-03
            3156            3620     216.103E-03     209.815E-03
            3156            3626     204.274E-03     257.439E-03
            3156            3627     192.184E-03     224.085E-03
            3157            3620     216.103E-03     209.815E-03
            3157            3621     197.786E-03     192.139E-03
            3157            3627     192.184E-03     224.085E-03
            3157            3628     181.746E-03     198.740E-03
            3158            3621     197.786E-03     192.139E-03
            3158            3622     182.682E-03     177.883E-03
            3158            3628     181.746E-03     198.740E-03
            3158            3629     174.412E-03     181.696E-03
            3159            3622     182.682E-03     177.883E-03
            3159            3623     172.176E-03     167.371E-03
            3159            3629     174.412E-03     181.696E-03
            3159            3630     169.902E-03     171.303E-03
            3160             338     168.427E-03     167.630E-03
            3160             339     168.496E-03     163.444E-03
            3160            3623     172.176E-03     167.371E-03
            3160            3630     169.902E-03     171.303E-03
            3161              64     255.565E-03     286.367E-03
            3161              65     241.556E-03     224.693E-03
            3161            3624     240.561E-03     289.209E-03
            3161            3631     252.993E-03     243.055E-03
            3162            3624     240.561E-03     289.209E-03
            3162            3625     217.875E-03     283.886E-03
            3162            3631     252.993E-03     243.055E-03
            3162            3632     259.181E-03     257.810E-03
            3163            3625     217.875E-03     283.886E-03
            3163            3626     204.274E-03     257.439E-03
            3163            3632     259.181E-03     257.810E-03
            3163            3633     242.535E-03     241.388E-03
            3164            3626     204.274E-03     257.439E-03
            3164            3627     192.184E-03     224.085E-03
            3164            3633     242.535E-03     241.388E-03
            3164            3634     219.624E-03     215.826E-03
            3165            3627     192.184E-03     224.085E-03
            3165            3628     181.746E-03     198.740E-03
            3165            3634     219.624E-03     215.826E-03
            3165            3635     199.312E-03     194.591E-03
            3166            3628     181.746E-03     198.740E-03
            3166            3629     174.412E-03     181.696E-03
            3166            3635     199.312E-03     194.591E-03
            3166            3636     184.403E-03     181.552E-03
            3167            3629     174.412E-03     181.696E-03
            3167            3630     169.902E-03     171.303E-03
            3167            3636     184.403E-03     181.552E-03
            3167            3637     174.995E-03     174.884E-03
            3168             337     171.648E-03     172.724E-03
            3168             338     168.427E-03     167.630E-03
            3168            3630     169.902E-03     171.303E-03
            3168            3637     174.995E-03     174.884E-03
            3169              65     241.556E-03     224.693E-03
            3169              66     267.521E-03     254.282E-03
            3169            3631     252.993E-03     243.055E-03
            3169            3638     271.475E-03     261.940E-03
            3170            3631     252.993E-03     243.055E-03
            3170            3632     259.181E-03     257.810E-03
            3170            3638     271.475E-03     261.940E-03
            3170            3639     274.117E-03     266.018E-03
            3171            3632     259.181E-03     257.810E-03
            3171            3633     242.535E-03     241.388E-03
            3171            3639     274.117E-03     266.018E-03
            3171            3640     262.036E-03     254.317E-03
            3172            3633     242.535E-03     241.388E-03
            3172            3634     219.624E-03     215.826E-03
            3172            3640     262.036E-03     254.317E-03
            3172            3641     237.796E-03     233.108E-03
            3173            3634     219.624E-03     215.826E-03
            3173            3635     199.312E-03     194.591E-03
            3173            3641     237.796E-03     233.108E-03
            3173            3642     212.468E-03     208.042E-03
            3174            3635     199.312E-03     194.591E-03
            3174            3636     184.403E-03     181.552E-03
            3174            3642     212.468E-03     208.042E-03
            3174            3643     191.801E-03     187.579E-03
            3175            3636     184.403E-03     181.552E-03
            3175            3637     174.995E-03     174.884E-03
            3175            3643     191.801E-03     187.579E-03
            3175            3644     177.867E-03     174.605E-03
            3176             336     172.682E-03     170.060E-03
            3176             337     171.648E-03     172.724E-03
            3176            3637     174.995E-03     174.884E-03
            3176            3644     177.867E-03     174.605E-03
            3177              66     267.521E-03     254.282E-03
            3177              67     287.775E-03     290.854E-03
            3177            3638     271.475E-03     261.940E-03
            3177            3645     279.206E-03     292.490E-03
            3178            3638     271.475E-03     261.940E-03
            3178            3639     274.117E-03     266.018E-03
            3178            3645     279.206E-03     292.490E-03
            3178            3646     267.921E-03     287.724E-03
            3179            3639     274.117E-03     266.018E-03
            3179            3640     262.036E-03     254.317E-03
            3179            3646     267.921E-03     287.724E-03
            3179            3647     259.122E-03     272.846E-03
            3180            3640     262.036E-03     254.317E-03
            3180            3641     237.796E-03     233.108E-03
            3180            3647     259.122E-03     272.846E-03
            3180            3648     241.280E-03     251.339E-03
            3181            3641     237.796E-03     233.108E-03
            3181            3642     212.468E-03     208.042E-03
            3181            3648     241.280E-03     251.339E-03
            3181            3649     217.561E-03     223.452E-03
            3182            3642     212.468E-03     208.042E-03
            3182            3643     191.801E-03     187.579E-03
            3182            3649     217.561E-03     223.452E-03
            3182            3650     195.583E-03     196.669E-03
            3183            3643     191.801E-03     187.579E-03
            3183            3644     177.867E-03     174.605E-03
            3183            3650     195.583E-03     196.669E-03
            3183            3651     179.654E-03     178.128E-03
            3184             335     173.685E-03     171.450E-03
            3184             336     172.682E-03     170.060E-03
            3184            3644     177.867E-03     174.605E-03
            3184            3651     179.654E-03     178.128E-03
            3185              67     287.775E-03     290.854E-03
            3185              68     319.050E-03     316.545E-03
            3185            3645     279.206E-03     292.490E-03
            3185            3652     309.724E-03     312.403E-03
            3186            3645     279.206E-03     292.490E-03
            3186            3646     267.921E-03     287.724E-03
            3186            3652     309.724E-03     312.403E-03
            3186            3653     293.438E-03     297.824E-03
            3187            3646     267.921E-03     287.724E-03
            3187            3647     259.122E-03     272.846E-03
            3187            3653     293.438E-03     297.824E-03
            3187            3654     278.551E-03     278.090E-03
            3188            3647     259.122E-03     272.846E-03
            3188            3648     241.280E-03     251.339E-03
            3188            3654     278.551E-03     278.090E-03
            3188            3655     258.370E-03     257.351E-03
            3189            3648     241.280E-03     251.339E-03
            3189            3649     217.561E-03     223.452E-03
            3189            3655     258.370E-03     257.351E-03
            3189            3656     230.968E-03     230.832E-03
            3190            3649     217.561E-03     223.452E-03
            3190            3650     195.583E-03     196.669E-03
            3190            3656     230.968E-03     230.832E-03
            3190            3657     202.580E-03     201.974E-03
            3191            3650     195.583E-03     196.669E-03
            3191            3651     179.654E-03     178.128E-03
            3191            3657     202.580E-03     201.974E-03
            3191            3658     181.124E-03     179.947E-03
            3192             334     172.842E-03     171.635E-03
            3192             335     173.685E-03     171.450E-03
            3192            3651     179.654E-03     178.128E-03
            3192            3658     181.124E-03     179.947E-03
            3193              68     319.050E-03     316.545E-03
            3193              69     346.621E-03     346.166E-03
            3193            3652     309.724E-03     312.403E-03
            3193            3659     333.375E-03     341.859E-03
            3194            3652     309.724E-03     312.403E-03
            3194            3653     293.438E-03     297.824E-03
            3194            3659     333.375E-03     341.859E-03
            3194            3660     311.129E-03     324.646E-03
            3195            3653     293.438E-03     297.824E-03
            3195            3654     278.551E-03     278.090E-03
            3195            3660     311.129E-03     324.646E-03
            3195            3661     293.515E-03     298.614E-03
            3196            3654     278.551E-03     278.090E-03
            3196            3655     258.370E-03     257.351E-03
            3196            3661     293.515E-03     298.614E-03
            3196            3662     271.604E-03     272.299E-03
            3197            3655     258.370E-03     257.351E-03
            3197            3656     230.968E-03     230.832E-03
            3197            3662     271.604E-03     272.299E-03
            3197            3663     241.345E-03     242.886E-03
            3198            3656     230.968E-03     230.832E-03
            3198            3657     202.580E-03     201.974E-03
            3198            3663     241.345E-03     242.886E-03
            3198            3664     208.316E-03     209.931E-03
            3199            3657     202.580E-03     201.974E-03
            3199            3658     181.124E-03     179.947E-03
            3199            3664     208.316E-03     209.931E-03
            3199            3665     182.253E-03     182.443E-03
            3200             333     172.191E-03     171.614E-03
            3200             334     172.842E-03     171.635E-03
            3200            3658     181.124E-03     179.947E-03
            3200            3665     182.253E-03     182.443E-03
            3201              69     346.621E-03     346.166E-03
            3201              70     373.163E-03     375.378E-03
            3201            3659     333.375E-03     341.859E-03
            3201            3666     360.504E-03     369.304E-03
            3202            3659     333.375E-03     341.859E-03
            3202            3660     311.129E-03     324.646E-03
            3202            3666     360.504E-03     369.304E-03
            3202            3667     337.283E-03     347.888E-03
            3203            3660     311.129E-03     324.646E-03
            3203            3661     293.515E-03     298.614E-03
            3203            3667     337.283E-03     347.888E-03
            3203            3668     315.176E-03     316.566E-03
            3204            3661     293.515E-03     298.614E-03
            3204            3662     271.604E-03     272.299E-03
            3204            3668     315.176E-03     316.566E-03
            3204            3669     288.692E-03     285.432E-03
            3205            3662     271.604E-03     272.299E-03
            3205            3663     241.345E-03     242.886E-03
            3205            3669     288.692E-03     285.432E-03
            3205            3670     254.195E-03     252.613E-03
            3206            3663     241.345E-03     242.886E-03
            3206            3664     208.316E-03     209.931E-03
            3206            3670     254.195E-03     252.613E-03
            3206            3671     215.426E-03     216.481E-03
            3207            3664     208.316E-03     209.931E-03
            3207            3665     182.253E-03     182.443E-03
            3207            3671     215.426E-03     216.481E-03
            3207            3672     184.002E-03     185.002E-03
            3208             332     171.717E-03     171.916E-03
            3208             333     172.191E-03     171.614E-03
            3208            3665     182.253E-03     182.443E-03
            3208            3672     184.002E-03     185.002E-03
            3209              70     373.163E-03     375.378E-03
            3209              71     405.025E-03     397.467E-03
            3209            3666     360.504E-03     369.304E-03
            3209            3673     391.537E-03     390.876E-03
            3210            3666     360.504E-03     369.304E-03
            3210            3667     337.283E-03     347.888E-03
            3210            3673     391.537E-03     390.876E-03
            3210            3674     363.777E-03     367.788E-03
            3211            3667     337.283E-03     347.888E-03
            3211            3668     315.176E-03     316.566E-03
            3211            3674     363.777E-03     367.788E-03
            3211            3675     335.698E-03     333.444E-03
            3212            3668     315.176E-03     316.566E-03
            3212            3669     288.692E-03     285.432E-03
            3212            3675     335.698E-03     333.444E-03
            3212            3676     304.493E-03     297.775E-03
            3213            3669     288.692E-03     285.432E-03
            3213            3670     254.195E-03     252.613E-03
            3213            3676     304.493E-03     297.775E-03
            3213            3677     265.012E-03     260.733E-03
            3214            3670     254.195E-03     252.613E-03
            3214            3671     215.426E-03     216.481E-03
            3214            3677     265.012E-03     260.733E-03
            3214            3678     221.000E-03     220.883E-03
            3215            3671     215.426E-03     216.481E-03
            3215            3672     184.002E-03     185.002E-03
            3215            3678     221.000E-03     220.883E-03
            3215            3679     185.126E-03     185.632E-03
            3216             331     171.102E-03     170.929E-03
            3216             332     171.717E-03     171.916E-03
            3216            3672     184.002E-03     185.002E-03
            3216            3679     185.126E-03     185.632E-03
            3217              71     405.025E-03     397.467E-03
            3217              72     423.497E-03     441.422E-03
            3217            3673     391.537E-03     390.876E-03
            3217            3680     406.216E-03     438.452E-03
            3218            3673     391.537E-03     390.876E-03
            3218            3674     363.777E-03     367.788E-03
            3218            3680     406.216E-03     438.452E-03
            3218            3681     375.694E-03     416.988E-03
            3219            3674     363.777E-03     367.788E-03
            3219            3675     335.698E-03     333.444E-03
            3219            3681     375.694E-03     416.988E-03
            3219            3682     347.585E-03     374.804E-03
            3220            3675     335.698E-03     333.444E-03
            3220            3676     304.493E-03     297.775E-03
            3220            3682     347.585E-03     374.804E-03
            3220            3683     313.097E-03     328.980E-03
            3221            3676     304.493E-03     297.775E-03
            3221            3677     265.012E-03     260.733E-03
            3221            3683     313.097E-03     328.980E-03
            3221            3684     269.103E-03     281.861E-03
            3222            3677     265.012E-03     260.733E-03
            3222            3678     221.000E-03     220.883E-03
            3222            3684     269.103E-03     281.861E-03
            3222            3685     221.429E-03     232.056E-03
            3223            3678     221.000E-03     220.883E-03
            3223            3679     185.126E-03     185.632E-03
            3223            3685     221.429E-03     232.056E-03
            3223            3686     183.476E-03     189.848E-03
            3224             330     168.747E-03     172.376E-03
            3224             331     171.102E-03     170.929E-03
            3224            3679     185.126E-03     185.632E-03
            3224            3686     183.476E-03     189.848E-03
            3225              72     423.497E-03     441.422E-03
            3225              73     487.277E-03     460.284E-03
            3225            3680     406.216E-03     438.452E-03
            3225            3687     480.120E-03     452.406E-03
            3226            3680     406.216E-03     438.452E-03
            3226            3681     375.694E-03     416.988E-03
            3226            3687     480.120E-03     452.406E-03
            3226            3688     454.440E-03     419.163E-03
            3227            3681     375.694E-03     416.988E-03
            3227            3682     347.585E-03     374.804E-03
            3227            3688     454.440E-03     419.163E-03
            3227            3689     413.212E-03     373.115E-03
            3228            3682     347.585E-03     374.804E-03
            3228            3683     313.097E-03     328.980E-03
            3228            3689     413.212E-03     373.115E-03
            3228            3690     361.649E-03     328.724E-03
            3229            3683     313.097E-03     328.980E-03
            3229            3684     269.103E-03     281.861E-03
            3229            3690     361.649E-03     328.724E-03
            3229            3691     300.653E-03     279.502E-03
            3230            3684     269.103E-03     281.861E-03
            3230            3685     221.429E-03     232.056E-03
            3230            3691     300.653E-03     279.502E-03
            3230            3692     239.867E-03     230.122E-03
            3231            3685     221.429E-03     232.056E-03
            3231            3686     183.476E-03     189.848E-03
            3231            3692     239.867E-03     230.122E-03
            3231            3693     192.066E-03     189.813E-03
            3232             329     172.825E-03     173.291E-03
            3232             330     168.747E-03     172.376E-03
            3232            3686     183.476E-03     189.848E-03
            3232            3693     192.066E-03     189.813E-03
            3233              73     487.277E-03     460.284E-03
            3233              74     524.975E-03     509.204E-03
            3233            3687     480.120E-03     452.406E-03
            3233            3694     499.503E-03     491.822E-03
            3234            3687     480.120E-03     452.406E-03
            3234            3688     454.440E-03     419.163E-03
            3234            3694     499.503E-03     491.822E-03
            3234            3695     451.683E-03     449.453E-03
            3235            3688     454.440E-03     419.163E-03
            3235            3689     413.212E-03     373.115E-03
            3235            3695     451.683E-03     449.453E-03
            3235            3696     405.945E-03     398.056E-03
            3236            3689     413.212E-03     373.115E-03
            3236            3690     361.649E-03     328.724E-03
            3236            3696     405.945E-03     398.056E-03
            3236            3697     352.155E-03     340.858E-03
            3237            3690     361.649E-03     328.724E-03
            3237            3691     300.653E-03     279.502E-03
            3237            3697     352.155E-03     340.858E-03
            3237            3698     292.082E-03     281.422E-03
            3238            3691     300.653E-03     279.502E-03
            3238            3692     239.867E-03     230.122E-03
            3238            3698     292.082E-03     281.422E-03
            3238            3699     234.972E-03     226.351E-03
            3239            3692     239.867E-03     230.122E-03
            3239            3693     192.066E-03     189.813E-03
            3239            3699     234.972E-03     226.351E-03
            3239            3700     189.980E-03     182.508E-03
            3240             328     172.340E-03     165.003E-03
            3240             329     172.825E-03     173.291E-03
            3240            3693     192.066E-03     189.813E-03
            3240            3700     189.980E-03     182.508E-03
            3241              74     524.975E-03     509.204E-03
            3241              75     456.900E-03     512.553E-03
            3241            3694     499.503E-03     491.822E-03
            3241            3701     427.952E-03     515.464E-03
            3242            3694     499.503E-03     491.822E-03
            3242            3695     451.683E-03     449.453E-03
            3242            3701     427.952E-03     515.464E-03
            3242            3702     381.998E-03     500.991E-03
            3243            3695     451.683E-03     449.453E-03
            3243            3696     405.945E-03     398.056E-03
            3243            3702     381.998E-03     500.991E-03
            3243            3703     345.112E-03     443.818E-03
            3244            3696     405.945E-03     398.056E-03
            3244            3697     352.155E-03     340.858E-03
            3244            3703     345.112E-03     443.818E-03
            3244            3704     302.262E-03     366.181E-03
            3245            3697     352.155E-03     340.858E-03
            3245            3698     292.082E-03     281.422E-03
            3245            3704     302.262E-03     366.181E-03
            3245            3705     256.488E-03     294.958E-03
            3246            3698     292.082E-03     281.422E-03
            3246            3699     234.972E-03     226.351E-03
            3246            3705     256.488E-03     294.958E-03
            3246            3706     214.561E-03     234.448E-03
            3247            3699     234.972E-03     226.351E-03
            3247            3700     189.980E-03     182.508E-03
            3247            3706     214.561E-03     234.448E-03
            3247            3707     183.727E-03     189.902E-03
            3248             327     171.956E-03     172.405E-03
            3248             328     172.340E-03     165.003E-03
            3248            3700     189.980E-03     182.508E-03
            3248            3707     183.727E-03     189.902E-03
            3249              75     456.900E-03     512.553E-03
            3249              76     457.217E-03     431.087E-03
            3249            3701     427.952E-03     515.464E-03
            3249            3708     463.143E-03     448.214E-03
            3250            3701     427.952E-03     515.464E-03
            3250            3702     381.998E-03     500.991E-03
            3250            3708     463.143E-03     448.214E-03
            3250            3709     453.951E-03     450.981E-03
            3251            3702     381.998E-03     500.991E-03
            3251            3703     345.112E-03     443.818E-03
            3251            3709     453.951E-03     450.981E-03
            3251            3710     412.175E-03     407.488E-03
            3252            3703     345.112E-03     443.818E-03
            3252            3704     302.262E-03     366.181E-03
            3252            3710     412.175E-03     407.488E-03
            3252            3711     353.989E-03     345.342E-03
            3253            3704     302.262E-03     366.181E-03
            3253            3705     256.488E-03     294.958E-03
            3253            3711     353.989E-03     345.342E-03
            3253            3712     292.340E-03     283.120E-03
            3254            3705     256.488E-03     294.958E-03
            3254            3706     214.561E-03     234.448E-03
            3254            3712     292.340E-03     283.120E-03
            3254            3713     236.294E-03     230.969E-03
            3255            3706     214.561E-03     234.448E-03
            3255            3707     183.727E-03     189.902E-03
            3255            3713     236.294E-03     230.969E-03
            3255            3714     193.852E-03     194.158E-03
            3256             326     177.248E-03     180.214E-03
            3256             327     171.956E-03     172.405E-03
            3256            3707     183.727E-03     189.902E-03
            3256            3714     193.852E-03     194.158E-03
            3257              76     457.217E-03     431.087E-03
            3257              77     480.451E-03     455.490E-03
            3257            3708     463.143E-03     448.214E-03
            3257            3715     482.181E-03     462.122E-03
            3258            3708     463.143E-03     448.214E-03
            3258            3709     453.951E-03     450.981E-03
            3258            3715     482.181E-03     462.122E-03
            3258            3716     474.568E-03     453.723E-03
            3259            3709     453.951E-03     450.981E-03
            3259            3710     412.175E-03     407.488E-03
            3259            3716     474.568E-03     453.723E-03
            3259            3717     440.478E-03     417.734E-03
            3260            3710     412.175E-03     407.488E-03
            3260            3711     353.989E-03     345.342E-03
            3260            3717     440.478E-03     417.734E-03
            3260            3718     382.411E-03     365.745E-03
            3261            3711     353.989E-03     345.342E-03
            3261            3712     292.340E-03     283.120E-03
            3261            3718     382.411E-03     365.745E-03
            3261            3719     314.783E-03     302.217E-03
            3262            3712     292.340E-03     283.120E-03
            3262            3713     236.294E-03     230.969E-03
            3262            3719     314.783E-03     302.217E-03
            3262            3720     250.081E-03     241.049E-03
            3263            3713     236.294E-03     230.969E-03
            3263            3714     193.852E-03     194.158E-03
            3263            3720     250.081E-03     241.049E-03
            3263            3721     199.375E-03     193.763E-03
            3264             325     178.969E-03     175.057E-03
            3264             326     177.248E-03     180.214E-03
            3264            3714     193.852E-03     194.158E-03
            3264            3721     199.375E-03     193.763E-03
            3265              77     480.451E-03     455.490E-03
            3265              78     488.334E-03     497.178E-03
            3265            3715     482.181E-03     462.122E-03
            3265            3722     471.678E-03     498.039E-03
            3266            3715     482.181E-03     462.122E-03
            3266            3716     474.568E-03     453.723E-03
            3266            3722     471.678E-03     498.039E-03
            3266            3723     444.876E-03     482.295E-03
            3267            3716     474.568E-03     453.723E-03
            3267            3717     440.478E-03     417.734E-03
            3267            3723     444.876E-03     482.295E-03
            3267            3724     417.976E-03     443.211E-03
            3268            3717     440.478E-03     417.734E-03
            3268            3718     382.411E-03     365.745E-03
            3268            3724     417.976E-03     443.211E-03
            3268            3725     373.352E-03     391.078E-03
            3269            3718     382.411E-03     365.745E-03
            3269            3719     314.783E-03     302.217E-03
            3269            3725     373.352E-03     391.078E-03
            3269            3726     313.559E-03     325.775E-03
            3270            3719     314.783E-03     302.217E-03
            3270            3720     250.081E-03     241.049E-03
            3270            3726     313.559E-03     325.775E-03
            3270            3727     251.536E-03     256.630E-03
            3271            3720     250.081E-03     241.049E-03
            3271            3721     199.375E-03     193.763E-03
            3271            3727     251.536E-03     256.630E-03
            3271            3728     201.170E-03     200.481E-03
            3272             324     180.816E-03     177.726E-03
            3272             325     178.969E-03     175.057E-03
            3272            3721     199.375E-03     193.763E-03
            3272            3728     201.170E-03     200.481E-03
            3273              78     488.334E-03     497.178E-03
            3273              79     523.128E-03     517.787E-03
            3273            3722     471.678E-03     498.039E-03
            3273            3729     507.044E-03     510.396E-03
            3274            3722     471.678E-03     498.039E-03
            3274            3723     444.876E-03     482.295E-03
            3274            3729     507.044E-03     510.396E-03
            3274            3730     474.944E-03     482.083E-03
            3275            3723     444.876E-03     482.295E-03
            3275            3724     417.976E-03     443.211E-03
            3275            3730     474.944E-03     482.083E-03
            3275            3731     440.106E-03     438.966E-03
            3276            3724     417.976E-03     443.211E-03
            3276            3725     373.352E-03     391.078E-03
            3276            3731     440.106E-03     438.966E-03
            3276            3732     393.995E-03     390.303E-03
            3277            3725     373.352E-03     391.078E-03
            3277            3726     313.559E-03     325.775E-03
            3277            3732     393.995E-03     390.303E-03
            3277            3733     331.784E-03     330.170E-03
            3278            3726     313.559E-03     325.775E-03
            3278            3727     251.536E-03     256.630E-03
            3278            3733     331.784E-03     330.170E-03
            3278            3734     262.445E-03     261.832E-03
            3279            3727     251.536E-03     256.630E-03
            3279            3728     201.170E-03     200.481E-03
            3279            3734     262.445E-03     261.832E-03
            3279            3735     203.789E-03     202.734E-03
            3280             323     179.450E-03     178.205E-03
            3280             324     180.816E-03     177.726E-03
            3280            3728     201.170E-03     200.481E-03
            3280            3735     203.789E-03     202.734E-03
            3281              79     523.128E-03     517.787E-03
            3281              80     549.595E-03     549.631E-03
            3281            3729     507.044E-03     510.396E-03
            3281            3736     528.853E-03     542.319E-03
            3282            3729     507.044E-03     510.396E-03
            3282            3730     474.944E-03     482.083E-03
            3282            3736     528.853E-03     542.319E-03
            3282            3737     490.626E-03     511.433E-03
            3283            3730     474.944E-03     482.083E-03
            3283            3731     440.106E-03     438.966E-03
            3283            3737     490.626E-03     511.433E-03
            3283            3738     453.998E-03     461.408E-03
            3284            3731     440.106E-03     438.966E-03
            3284            3732     393.995E-03     390.303E-03
            3284            3738     453.998E-03     461.408E-03
            3284            3739     407.247E-03     406.975E-03
            3285            3732     393.995E-03     390.303E-03
            3285            3733     331.784E-03     330.170E-03
            3285            3739     407.247E-03     406.975E-03
            3285            3740     343.505E-03     344.683E-03
            3286            3733     331.784E-03     330.170E-03
            3286            3734     262.445E-03     261.832E-03
            3286            3740     343.505E-03     344.683E-03
            3286            3741     269.773E-03     272.564E-03
            3287            3734     262.445E-03     261.832E-03
            3287            3735     203.789E-03     202.734E-03
            3287            3741     269.773E-03     272.564E-03
            3287            3742     205.393E-03     206.505E-03
            3288             322     178.506E-03     178.145E-03
            3288             323     179.450E-03     178.205E-03
            3288            3735     203.789E-03     202.734E-03
            3288            3742     205.393E-03     206.505E-03
            3289              80     549.595E-03     549.631E-03
            3289              81     576.275E-03     578.994E-03
            3289            3736     528.853E-03     542.319E-03
            3289            3743     556.128E-03     569.911E-03
            3290            3736     528.853E-03     542.319E-03
            3290            3737     490.626E-03     511.433E-03
            3290            3743     556.128E-03     569.911E-03
            3290            3744     517.081E-03     534.922E-03
            3291            3737     490.626E-03     511.433E-03
            3291            3738     453.998E-03     461.408E-03
            3291            3744     517.081E-03     534.922E-03
            3291            3745     476.248E-03     479.841E-03
            3292            3738     453.998E-03     461.408E-03
            3292            3739     407.247E-03     406.975E-03
            3292            3745     476.248E-03     479.841E-03
            3292            3746     425.290E-03     420.878E-03
            3293            3739     407.247E-03     406.975E-03
            3293            3740     343.505E-03     344.683E-03
            3293            3746     425.290E-03     420.878E-03
            3293            3747     357.717E-03     355.505E-03
            3294            3740     343.505E-03     344.683E-03
            3294            3741     269.773E-03     272.564E-03
            3294            3747     357.717E-03     355.505E-03
            3294            3748     278.243E-03     280.459E-03
            3295            3741     269.773E-03     272.564E-03
            3295            3742     205.393E-03     206.505E-03
            3295            3748     278.243E-03     280.459E-03
            3295            3749     207.605E-03     209.856E-03
            3296             321     177.786E-03     178.602E-03
            3296             322     178.506E-03     178.145E-03
            3296            3742     205.393E-03     206.505E-03
            3296            3749     207.605E-03     209.856E-03
            3297              81     576.275E-03     578.994E-03
            3297              82     609.535E-03     599.116E-03
            3297            3743     556.128E-03     569.911E-03
            3297            3750     589.320E-03     589.297E-03
            3298            3743     556.128E-03     569.911E-03
            3298            3744     517.081E-03     534.922E-03
            3298            3750     589.320E-03     589.297E-03
            3298            3751     546.099E-03     552.815E-03
            3299            3744     517.081E-03     534.922E-03
            3299            3745     476.248E-03     479.841E-03
            3299            3751     546.099E-03     552.815E-03
            3299            3752     498.844E-03     495.831E-03
            3300            3745     476.248E-03     479.841E-03
            3300            3746     425.290E-03     420.878E-03
            3300            3752     498.844E-03     495.831E-03
            3300            3753     442.743E-03     433.069E-03
            3301            3746     425.290E-03     420.878E-03
            3301            3747     357.717E-03     355.505E-03
            3301            3753     442.743E-03     433.069E-03
            3301            3754     369.521E-03     363.432E-03
            3302            3747     357.717E-03     355.505E-03
            3302            3748     278.243E-03     280.459E-03
            3302            3754     369.521E-03     363.432E-03
            3302            3755     284.429E-03     284.533E-03
            3303            3748     278.243E-03     280.459E-03
            3303            3749     207.605E-03     209.856E-03
            3303            3755     284.429E-03     284.533E-03
            3303            3756     208.815E-03     210.040E-03
            3304             320     176.809E-03     177.134E-03
            3304             321     177.786E-03     178.602E-03
            3304            3749     207.605E-03     209.856E-03
            3304            3756     208.815E-03     210.040E-03
            3305              82     609.535E-03     599.116E-03
            3305              83     624.691E-03     648.483E-03
            3305            3750     589.320E-03     589.297E-03
            3305            3757     599.455E-03     644.806E-03
            3306            3750     589.320E-03     589.297E-03
            3306            3751     546.099E-03     552.815E-03
            3306            3757     599.455E-03     644.806E-03
            3306            3758     554.018E-03     613.009E-03
            3307            3751     546.099E-03     552.815E-03
            3307            3752     498.844E-03     495.831E-03
            3307            3758     554.018E-03     613.009E-03
            3307            3759     508.953E-03     547.830E-03
            3308            3752     498.844E-03     495.831E-03
            3308            3753     442.743E-03     433.069E-03
            3308            3759     508.953E-03     547.830E-03
            3308            3760     449.382E-03     472.928E-03
            3309            3753     442.743E-03     433.069E-03
            3309            3754     369.521E-03     363.432E-03
            3309            3760     449.382E-03     472.928E-03
            3309            3761     370.919E-03     390.355E-03
            3310            3754     369.521E-03     363.432E-03
            3310            3755     284.429E-03     284.533E-03
            3310            3761     370.919E-03     390.355E-03
            3310            3762     282.541E-03     298.928E-03
            3311            3755     284.429E-03     284.533E-03
            3311            3756     208.815E-03     210.040E-03
            3311            3762     282.541E-03     298.928E-03
            3311            3763     205.665E-03     215.740E-03
            3312             319     173.300E-03     179.125E-03
            3312             320     176.809E-03     177.134E-03
            3312            3756     208.815E-03     210.040E-03
            3312            3763     205.665E-03     215.740E-03
            3313              83     624.691E-03     648.483E-03
            3313              84     701.147E-03     662.498E-03
            3313            3757     599.455E-03     644.806E-03
            3313            3764     692.109E-03     653.794E-03
            3314            3757     599.455E-03     644.806E-03
            3314            3758     554.018E-03     613.009E-03
            3314            3764     692.109E-03     653.794E-03
            3314            3765     657.006E-03     608.882E-03
            3315            3758     554.018E-03     613.009E-03
            3315            3759     508.953E-03     547.830E-03
            3315            3765     657.006E-03     608.882E-03
            3315            3766     595.273E-03     540.022E-03
            3316            3759     508.953E-03     547.830E-03
            3316            3760     449.382E-03     472.928E-03
            3316            3766     595.273E-03     540.022E-03
            3316            3767     512.553E-03     467.101E-03
            3317            3760     449.382E-03     472.928E-03
            3317            3761     370.919E-03     390.355E-03
            3317            3767     512.553E-03     467.101E-03
            3317            3768     412.029E-03     382.031E-03
            3318            3761     370.919E-03     390.355E-03
            3318            3762     282.541E-03     298.928E-03
            3318            3768     412.029E-03     382.031E-03
            3318            3769     307.386E-03     292.636E-03
            3319            3762     282.541E-03     298.928E-03
            3319            3763     205.665E-03     215.740E-03
            3319            3769     307.386E-03     292.636E-03
            3319            3770     217.738E-03     214.061E-03
            3320             318     179.135E-03     179.966E-03
            3320             319     173.300E-03     179.125E-03
            3320            3763     205.665E-03     215.740E-03
            3320            3770     217.738E-03     214.061E-03
            3321              84     701.147E-03     662.498E-03
            3321              85     742.040E-03     717.019E-03
            3321            3764     692.109E-03     653.794E-03
            3321            3771     711.363E-03     698.723E-03
            3322            3764     692.109E-03     653.794E-03
            3322            3765     657.006E-03     608.882E-03
            3322            3771     711.363E-03     698.723E-03
            3322            3772     648.955E-03     645.243E-03
            3323            3765     657.006E-03     608.882E-03
            3323            3766     595.273E-03     540.022E-03
            3323            3772     648.955E-03     645.243E-03
            3323            3773     579.998E-03     568.670E-03
            3324            3766     595.273E-03     540.022E-03
            3324            3767     512.553E-03     467.101E-03
            3324            3773     579.998E-03     568.670E-03
            3324            3774     494.139E-03     477.952E-03
            3325            3767     512.553E-03     467.101E-03
            3325            3768     412.029E-03     382.031E-03
            3325            3774     494.139E-03     477.952E-03
            3325            3775     395.749E-03     380.437E-03
            3326            3768     412.029E-03     382.031E-03
            3326            3769     307.386E-03     292.636E-03
            3326            3775     395.749E-03     380.437E-03
            3326            3776     297.288E-03     285.349E-03
            3327            3769     307.386E-03     292.636E-03
            3327            3770     217.738E-03     214.061E-03
            3327            3776     297.288E-03     285.349E-03
            3327            3777     213.461E-03     203.536E-03
            3328             317     178.221E-03     168.507E-03
            3328             318     179.135E-03     179.966E-03
            3328            3770     217.738E-03     214.061E-03
            3328            3777     213.461E-03     203.536E-03
            3329              85     742.040E-03     717.019E-03
            3329              86     657.638E-03     738.167E-03
            3329            3771     711.363E-03     698.723E-03
            3329            3778     614.673E-03     741.013E-03
            3330            3771     711.363E-03     698.723E-03
            3330            3772     648.955E-03     645.243E-03
            3330            3778     614.673E-03     741.013E-03
            3330            3779     546.138E-03     717.355E-03
            3331            3772     648.955E-03     645.243E-03
            3331            3773     579.998E-03     568.670E-03
            3331            3779     546.138E-03     717.355E-03
            3331            3780     488.702E-03     630.801E-03
            3332            3773     579.998E-03     568.670E-03
            3332            3774     494.139E-03     477.952E-03
            3332            3780     488.702E-03     630.801E-03
            3332            3781     419.137E-03     512.841E-03
            3333            3774     494.139E-03     477.952E-03
            3333            3775     395.749E-03     380.437E-03
            3333            3781     419.137E-03     512.841E-03
            3333            3782     341.781E-03     400.919E-03
            3334            3775     395.749E-03     380.437E-03
            3334            3776     297.288E-03     285.349E-03
            3334            3782     341.781E-03     400.919E-03
            3334            3783     265.058E-03     298.691E-03
            3335            3776     297.288E-03     285.349E-03
            3335            3777     213.461E-03     203.536E-03
            3335            3783     265.058E-03     298.691E-03
            3335            3784     202.320E-03     215.027E-03
            3336             316     176.563E-03     179.457E-03
            3336             317     178.221E-03     168.507E-03
            3336            3777     213.461E-03     203.536E-03
            3336            3784     202.320E-03     215.027E-03
            3337              86     657.638E-03     738.167E-03
            3337              87     671.903E-03     637.544E-03
            3337            3778     614.673E-03     741.013E-03
            3337            3785     672.390E-03     653.093E-03
            3338            3778     614.673E-03     741.013E-03
            3338            3779     546.138E-03     717.355E-03
            3338            3785     672.390E-03     653.093E-03
            3338            3786     647.799E-03     643.317E-03
            3339            3779     546.138E-03     717.355E-03
            3339            3780     488.702E-03     630.801E-03
            3339            3786     647.799E-03     643.317E-03
            3339            3787     582.847E-03     574.770E-03
            3340            3780     488.702E-03     630.801E-03
            3340            3781     419.137E-03     512.841E-03
            3340            3787     582.847E-03     574.770E-03
            3340            3788     494.323E-03     480.562E-03
            3341            3781     419.137E-03     512.841E-03
            3341            3782     341.781E-03     400.919E-03
            3341            3788     494.323E-03     480.562E-03
            3341            3789     396.360E-03     382.507E-03
            3342            3782     341.781E-03     400.919E-03
            3342            3783     265.058E-03     298.691E-03
            3342            3789     396.360E-03     382.507E-03
            3342            3790     300.234E-03     292.680E-03
            3343            3783     265.058E-03     298.691E-03
            3343            3784     202.320E-03     215.027E-03
            3343            3790     300.234E-03     292.680E-03
            3343            3791     218.486E-03     219.867E-03
            3344             315     183.430E-03     189.706E-03
            3344             316     176.563E-03     179.457E-03
            3344            3784     202.320E-03     215.027E-03
            3344            3791     218.486E-03     219.867E-03
            3345              87     671.903E-03     637.544E-03
            3345              88     693.935E-03     656.632E-03
            3345            3785     672.390E-03     653.093E-03
            3345            3792     692.497E-03     662.245E-03
            3346            3785     672.390E-03     653.093E-03
            3346            3786     647.799E-03     643.317E-03
            3346            3792     692.497E-03     662.245E-03
            3346            3793     674.683E-03     641.474E-03
            3347            3786     647.799E-03     643.317E-03
            3347            3787     582.847E-03     574.770E-03
            3347            3793     674.683E-03     641.474E-03
            3347            3794     621.506E-03     582.599E-03
            3348            3787     582.847E-03     574.770E-03
            3348            3788     494.323E-03     480.562E-03
            3348            3794     621.506E-03     582.599E-03
            3348            3795     533.695E-03     503.751E-03
            3349            3788     494.323E-03     480.562E-03
            3349            3789     396.360E-03     382.507E-03
            3349            3795     533.695E-03     503.751E-03
            3349            3796     428.224E-03     406.618E-03
            3350            3789     396.360E-03     382.507E-03
            3350            3790     300.234E-03     292.680E-03
            3350            3796     428.224E-03     406.618E-03
            3350            3797     320.396E-03     306.274E-03
            3351            3790     300.234E-03     292.680E-03
            3351            3791     218.486E-03     219.867E-03
            3351            3797     320.396E-03     306.274E-03
            3351            3798     226.488E-03     219.629E-03
            3352             314     185.813E-03     182.428E-03
            3352             315     183.430E-03     189.706E-03
            3352            3791     218.486E-03     219.867E-03
            3352            3798     226.488E-03     219.629E-03
            3353              88     693.935E-03     656.632E-03
            3353              89     688.926E-03     704.768E-03
            3353            3792     692.497E-03     662.245E-03
            3353            3799     665.045E-03     703.274E-03
            3354            3792     692.497E-03     662.245E-03
            3354            3793     674.683E-03     641.474E-03
            3354            3799     665.045E-03     703.274E-03
            3354            3800     623.882E-03     675.173E-03
            3355            3793     674.683E-03     641.474E-03
            3355            3794     621.506E-03     582.599E-03
            3355            3800     623.882E-03     675.173E-03
            3355            3801     580.271E-03     614.063E-03
            3356            3794     621.506E-03     582.599E-03
            3356            3795     533.695E-03     503.751E-03
            3356            3801     580.271E-03     614.063E-03
            3356            3802     512.404E-03     535.727E-03
            3357            3795     533.695E-03     503.751E-03
            3357            3796     428.224E-03     406.618E-03
            3357            3802     512.404E-03     535.727E-03
            3357            3803     419.621E-03     437.190E-03
            3358            3796     428.224E-03     406.618E-03
            3358            3797     320.396E-03     306.274E-03
            3358            3803     419.621E-03     437.190E-03
            3358            3804     317.195E-03     327.162E-03
            3359            3797     320.396E-03     306.274E-03
            3359            3798     226.488E-03     219.629E-03
            3359            3804     317.195E-03     327.162E-03
            3359            3805     226.886E-03     229.013E-03
            3360             313     187.636E-03     186.051E-03
            3360             314     185.813E-03     182.428E-03
            3360            3798     226.488E-03     219.629E-03
            3360            3805     226.886E-03     229.013E-03
            3361              89     688.926E-03     704.768E-03
            3361              90     729.148E-03     720.012E-03
            3361            3799     665.045E-03     703.274E-03
            3361            3806     703.565E-03     710.554E-03
            3362            3799     665.045E-03     703.274E-03
            3362            3800     623.882E-03     675.173E-03
            3362            3806     703.565E-03     710.554E-03
            3362            3807     653.730E-03     670.591E-03
            3363            3800     623.882E-03     675.173E-03
            3363            3801     580.271E-03     614.063E-03
            3363            3807     653.730E-03     670.591E-03
            3363            3808     602.901E-03     606.289E-03
            3364            3801     580.271E-03     614.063E-03
            3364            3802     512.404E-03     535.727E-03
            3364            3808     602.901E-03     606.289E-03
            3364            3809     534.914E-03     532.274E-03
            3365            3802     512.404E-03     535.727E-03
            3365            3803     419.621E-03     437.190E-03
            3365            3809     534.914E-03     532.274E-03
            3365            3810     440.038E-03     440.624E-03
            3366            3803     419.621E-03     437.190E-03
            3366            3804     317.195E-03     327.162E-03
            3366            3810     440.038E-03     440.624E-03
            3366            3811     329.828E-03     332.486E-03
            3367            3804     317.195E-03     327.162E-03
            3367            3805     226.886E-03     229.013E-03
            3367            3811     329.828E-03     332.486E-03
            3367            3812     229.259E-03     231.268E-03
            3368             312     185.304E-03     186.620E-03
            3368             313     187.636E-03     186.051E-03
            3368            3805     226.886E-03     229.013E-03
            3368            3812     229.259E-03     231.268E-03
            3369              90     729.148E-03     720.012E-03
            3369              91     753.635E-03     757.851E-03
            3369            3806     703.565E-03     710.554E-03
            3369            3813     728.721E-03     745.850E-03
            3370            3806     703.565E-03     710.554E-03
            3370            3807     653.730E-03     670.591E-03
            3370            3813     728.721E-03     745.850E-03
            3370            3814     680.679E-03     698.657E-03
            3371            3807     653.730E-03     670.591E-03
            3371            3808     602.901E-03     606.289E-03
            3371            3814     680.679E-03     698.657E-03
            3371            3815     627.687E-03     625.115E-03
            3372            3808     602.901E-03     606.289E-03
            3372            3809     534.914E-03     532.274E-03
            3372            3815     627.687E-03     625.115E-03
            3372            3816     556.196E-03     546.049E-03
            3373            3809     534.914E-03     532.274E-03
            3373            3810     440.038E-03     440.624E-03
            3373            3816     556.196E-03     546.049E-03
            3373            3817     457.853E-03     453.543E-03
            3374            3810     440.038E-03     440.624E-03
            3374            3811     329.828E-03     332.486E-03
            3374            3817     457.853E-03     453.543E-03
            3374            3818     340.585E-03     342.712E-03
            3375            3811     329.828E-03     332.486E-03
            3375            3812     229.259E-03     231.268E-03
            3375            3818     340.585E-03     342.712E-03
            3375            3819     232.641E-03     234.723E-03
            3376             311     185.111E-03     185.634E-03
            3376             312     185.304E-03     186.620E-03
            3376            3812     229.259E-03     231.268E-03
            3376            3819     232.641E-03     234.723E-03
            3377              91     753.635E-03     757.851E-03
            3377              92     789.511E-03     776.074E-03
            3377            3813     728.721E-03     745.850E-03
            3377            3820     761.351E-03     764.001E-03
            3378            3813     728.721E-03     745.850E-03
            3378            3814     680.679E-03     698.657E-03
            3378            3820     761.351E-03     764.001E-03
            3378            3821     703.571E-03     716.876E-03
            3379            3814     680.679E-03     698.657E-03
            3379            3815     627.687E-03     625.115E-03
            3379            3821     703.571E-03     716.876E-03
            3379            3822     643.233E-03     642.469E-03
            3380            3815     627.687E-03     625.115E-03
            3380            3816     556.196E-03     546.049E-03
            3380            3822     643.233E-03     642.469E-03
            3380            3823     568.615E-03     559.460E-03
            3381            3816     556.196E-03     546.049E-03
            3381            3817     457.853E-03     453.543E-03
            3381            3823     568.615E-03     559.460E-03
            3381            3824     466.626E-03     462.741E-03
            3382            3817     457.853E-03     453.543E-03
            3382            3818     340.585E-03     342.712E-03
            3382            3824     466.626E-03     462.741E-03
            3382            3825     345.509E-03     348.182E-03
            3383            3818     340.585E-03     342.712E-03
            3383            3819     232.641E-03     234.723E-03
            3383            3825     345.509E-03     348.182E-03
            3383            3826     233.569E-03     235.248E-03
            3384             310     184.517E-03     183.664E-03
            3384             311     185.111E-03     185.634E-03
            3384            3819     232.641E-03     234.723E-03
            3384            3826     233.569E-03     235.248E-03
            3385              92     789.511E-03     776.074E-03
            3385              93     801.923E-03     831.146E-03
            3385            3820     761.351E-03     764.001E-03
            3385            3827     769.504E-03     825.731E-03
            3386            3820     761.351E-03     764.001E-03
            3386            3821     703.571E-03     716.876E-03
            3386            3827     769.504E-03     825.731E-03
            3386            3828     711.170E-03     783.354E-03
            3387            3821     703.571E-03     716.876E-03
            3387            3822     643.233E-03     642.469E-03
            3387            3828     711.170E-03     783.354E-03
            3387            3829     652.864E-03     699.235E-03
            3388            3822     643.233E-03     642.469E-03
            3388            3823     568.615E-03     559.460E-03
            3388            3829     652.864E-03     699.235E-03
            3388            3830     573.614E-03     602.485E-03
            3389            3823     568.615E-03     559.460E-03
            3389            3824     466.626E-03     462.741E-03
            3389            3830     573.614E-03     602.485E-03
            3389            3831     466.054E-03     491.790E-03
            3390            3824     466.626E-03     462.741E-03
            3390            3825     345.509E-03     348.182E-03
            3390            3831     466.054E-03     491.790E-03
            3390            3832     342.031E-03     364.357E-03
            3391            3825     345.509E-03     348.182E-03
            3391            3826     233.569E-03     235.248E-03
            3391            3832     342.031E-03     364.357E-03
            3391            3833     229.255E-03     242.076E-03
            3392             309     179.660E-03     185.972E-03
            3392             310     184.517E-03     183.664E-03
            3392            3826     233.569E-03     235.248E-03
            3392            3833     229.255E-03     242.076E-03
            3393              93     801.923E-03     831.146E-03
            3393              94     891.125E-03     841.148E-03
            3393            3827     769.504E-03     825.731E-03
            3393            3834     879.151E-03     831.428E-03
            3394            3827     769.504E-03     825.731E-03
            3394            3828     711.170E-03     783.354E-03
            3394            3834     879.151E-03     831.428E-03
            3394            3835     834.832E-03     775.350E-03
            3395            3828     711.170E-03     783.354E-03
            3395            3829     652.864E-03     699.235E-03
            3395            3835     834.832E-03     775.350E-03
            3395            3836     756.327E-03     686.449E-03
            3396            3829     652.864E-03     699.235E-03
            3396            3830     573.614E-03     602.485E-03
            3396            3836     756.327E-03     686.449E-03
            3396            3837     647.900E-03     590.840E-03
            3397            3830     573.614E-03     602.485E-03
            3397            3831     466.054E-03     491.790E-03
            3397            3837     647.900E-03     590.840E-03
            3397            3838     514.289E-03     477.437E-03
            3398            3831     466.054E-03     491.790E-03
            3398            3832     342.031E-03     364.357E-03
            3398            3838     514.289E-03     477.437E-03
            3398            3839     372.238E-03     354.110E-03
            3399            3832     342.031E-03     364.357E-03
            3399            3833     229.255E-03     242.076E-03
            3399            3839     372.238E-03     354.110E-03
            3399            3840     244.405E-03     238.879E-03
            3400             308     187.121E-03     186.495E-03
            3400             309     179.660E-03     185.972E-03
            3400            3833     229.255E-03     242.076E-03
            3400            3840     244.405E-03     238.879E-03
            3401              94     891.125E-03     841.148E-03
            3401              95     934.928E-03     901.825E-03
            3401            3834     879.151E-03     831.428E-03
            3401            3841     898.942E-03     882.298E-03
            3402            3834     879.151E-03     831.428E-03
            3402            3835     834.832E-03     775.350E-03
            3402            3841     898.942E-03     882.298E-03
            3402            3842     822.292E-03     817.575E-03
            3403            3835     834.832E-03     775.350E-03
            3403            3836     756.327E-03     686.449E-03
            3403            3842     822.292E-03     817.575E-03
            3403            3843     732.788E-03     718.169E-03
            3404            3836     756.327E-03     686.449E-03
            3404            3837     647.900E-03     590.840E-03
            3404            3843     732.788E-03     718.169E-03
            3404            3844     620.293E-03     599.415E-03
            3405            3837     647.900E-03     590.840E-03
            3405            3838     514.289E-03     477.437E-03
            3405            3844     620.293E-03     599.415E-03
            3405            3845     490.370E-03     471.524E-03
            3406            3838     514.289E-03     477.437E-03
            3406            3839     372.238E-03     354.110E-03
            3406            3845     490.370E-03     471.524E-03
            3406            3846     357.259E-03     343.617E-03
            3407            3839     372.238E-03     354.110E-03
            3407            3840     244.405E-03     238.879E-03
            3407            3846     357.259E-03     343.617E-03
            3407            3847     237.901E-03     225.979E-03
            3408             307     185.240E-03     172.754E-03
            3408             308     187.121E-03     186.495E-03
            3408            3840     244.405E-03     238.879E-03
            3408            3847     237.901E-03     225.979E-03
            3409              95     934.928E-03     901.825E-03
            3409              96     830.369E-03     933.407E-03
            3409            3841     898.942E-03     882.298E-03
            3409            3848     772.916E-03     933.057E-03
            3410            3841     898.942E-03     882.298E-03
            3410            3842     822.292E-03     817.575E-03
            3410            3848     772.916E-03     933.057E-03
            3410            3849     682.761E-03     896.477E-03
            3411            3842     822.292E-03     817.575E-03
            3411            3843     732.788E-03     718.169E-03
            3411            3849     682.761E-03     896.477E-03
            3411            3850     610.753E-03     785.338E-03
            3412            3843     732.788E-03     718.169E-03
            3412            3844     620.293E-03     599.415E-03
            3412            3850     610.753E-03     785.338E-03
            3412            3851     523.793E-03     640.245E-03
            3413            3844     620.293E-03     599.415E-03
            3413            3845     490.370E-03     471.524E-03
            3413            3851     523.793E-03     640.245E-03
            3413            3852     423.477E-03     502.401E-03
            3414            3845     490.370E-03     471.524E-03
            3414            3846     357.259E-03     343.617E-03
            3414            3852     423.477E-03     502.401E-03
            3414            3853     316.583E-03     367.425E-03
            3415            3846     357.259E-03     343.617E-03
            3415            3847     237.901E-03     225.979E-03
            3415            3853     316.583E-03     367.425E-03
            3415            3854     219.868E-03     243.076E-03
            3416             306     177.278E-03     185.888E-03
            3416             307     185.240E-03     172.754E-03
            3416            3847     237.901E-03     225.979E-03
            3416            3854     219.868E-03     243.076E-03
            3417              96     830.369E-03     933.407E-03
            3417              97     850.196E-03     814.507E-03
            3417            3848     772.916E-03     933.057E-03
            3417            3855     845.290E-03     823.176E-03
            3418            3848     772.916E-03     933.057E-03
            3418            3849     682.761E-03     896.477E-03
            3418            3855     845.290E-03     823.176E-03
            3418            3856     809.555E-03     793.766E-03
            3419            3849     682.761E-03     896.477E-03
            3419            3850     610.753E-03     785.338E-03
            3419            3856     809.555E-03     793.766E-03
            3419            3857     730.311E-03     705.658E-03
            3420            3850     610.753E-03     785.338E-03
            3420            3851     523.793E-03     640.245E-03
            3420            3857     730.311E-03     705.658E-03
            3420            3858     623.693E-03     597.890E-03
            3421            3851     523.793E-03     640.245E-03
            3421            3852     423.477E-03     502.401E-03
            3421            3858     623.693E-03     597.890E-03
            3421            3859     501.269E-03     481.376E-03
            3422            3852     423.477E-03     502.401E-03
            3422            3853     316.583E-03     367.425E-03
            3422            3859     501.269E-03     481.376E-03
            3422            3860     368.870E-03     360.334E-03
            3423            3853     316.583E-03     367.425E-03
            3423            3854     219.868E-03     243.076E-03
            3423            3860     368.870E-03     360.334E-03
            3423            3861     241.835E-03     246.753E-03
            3424             305     182.822E-03     195.302E-03
            3424             306     177.278E-03     185.888E-03
            3424            3854     219.868E-03     243.076E-03
            3424            3861     241.835E-03     246.753E-03
            3425              97     850.196E-03     814.507E-03
            3425              98     883.795E-03     824.159E-03
            3425            3855     845.290E-03     823.176E-03
            3425            3862     877.541E-03     824.232E-03
            3426            3855     845.290E-03     823.176E-03
            3426            3856     809.555E-03     793.766E-03
            3426            3862     877.541E-03     824.232E-03
            3426            3863     847.044E-03     788.041E-03
            3427            3856     809.555E-03     793.766E-03
            3427            3857     730.311E-03     705.658E-03
            3427            3863     847.044E-03     788.041E-03
            3427            3864     778.686E-03     716.145E-03
            3428            3857     730.311E-03     705.658E-03
            3428            3858     623.693E-03     597.890E-03
            3428            3864     778.686E-03     716.145E-03
            3428            3865     671.322E-03     626.042E-03
            3429            3858     623.693E-03     597.890E-03
            3429            3859     501.269E-03     481.376E-03
            3429            3865     671.322E-03     626.042E-03
            3429            3866     536.365E-03     506.118E-03
            3430            3859     501.269E-03     481.376E-03
            3430            3860     368.870E-03     360.334E-03
            3430            3866     536.365E-03     506.118E-03
            3430            3867     389.334E-03     369.700E-03
            3431            3860     368.870E-03     360.334E-03
            3431            3861     241.835E-03     246.753E-03
            3431            3867     389.334E-03     369.700E-03
            3431            3868     250.297E-03     240.677E-03
            3432             304     186.412E-03     182.464E-03
            3432             305     182.822E-03     195.302E-03
            3432            3861     241.835E-03     246.753E-03
            3432            3868     250.297E-03     240.677E-03
            3433              98     883.795E-03     824.159E-03
            3433              99     858.404E-03     911.021E-03
            3433            3862     877.541E-03     824.232E-03
            3433            3869     819.910E-03     911.127E-03
            3434            3862     877.541E-03     824.232E-03
            3434            3863     847.044E-03     788.041E-03
            3434            3869     819.910E-03     911.127E-03
            3434            3870     763.453E-03     876.338E-03
            3435            3863     847.044E-03     788.041E-03
            3435            3864     778.686E-03     716.145E-03
            3435            3870     763.453E-03     876.338E-03
            3435            3871     715.014E-03     795.916E-03
            3436            3864     778.686E-03     716.145E-03
            3436            3865     671.322E-03     626.042E-03
            3436            3871     715.014E-03     795.916E-03
            3436            3872     628.845E-03     693.926E-03
            3437            3865     671.322E-03     626.042E-03
            3437            3866     536.365E-03     506.118E-03
            3437            3872     628.845E-03     693.926E-03
            3437            3873     504.002E-03     560.716E-03
            3438            3866     536.365E-03     506.118E-03
            3438            3867     389.334E-03     369.700E-03
            3438            3873     504.002E-03     560.716E-03
            3438            3874     365.375E-03     403.547E-03
            3439            3867     389.334E-03     369.700E-03
            3439            3868     250.297E-03     240.677E-03
            3439            3874     365.375E-03     403.547E-03
            3439            3875     240.484E-03     256.624E-03
            3440             303     184.927E-03     189.953E-03
            3440             304     186.412E-03     182.464E-03
            3440            3868     250.297E-03     240.677E-03
            3440            3875     240.484E-03     256.624E-03
            3441              99     858.404E-03     911.021E-03
            3441             100     970.858E-03     903.970E-03
            3441            3869     819.910E-03     911.127E-03
            3441            3876     956.107E-03     891.357E-03
            3442            3869     819.910E-03     911.127E-03
            3442            3870     763.453E-03     876.338E-03
            3442            3876     956.107E-03     891.357E-03
            3442            3877     908.515E-03     829.208E-03
            3443            3870     763.453E-03     876.338E-03
            3443            3871     715.014E-03     795.916E-03
            3443            3877     908.515E-03     829.208E-03
            3443            3878     828.983E-03     742.575E-03
            3444            3871     715.014E-03     795.916E-03
            3444            3872     628.845E-03     693.926E-03
            3444            3878     828.983E-03     742.575E-03
            3444            3879     713.394E-03     651.891E-03
            3445            3872     628.845E-03     693.926E-03
            3445            3873     504.002E-03     560.716E-03
            3445            3879     713.394E-03     651.891E-03
            3445            3880     565.297E-03     529.041E-03
            3446            3873     504.002E-03     560.716E-03
            3446            3874     365.375E-03     403.547E-03
            3446            3880     565.297E-03     529.041E-03
            3446            3881     406.636E-03     385.148E-03
            3447            3874     365.375E-03     403.547E-03
            3447            3875     240.484E-03     256.624E-03
            3447            3881     406.636E-03     385.148E-03
            3447            3882     260.864E-03     250.739E-03
            3448             302     194.384E-03     190.812E-03
            3448             303     184.927E-03     189.953E-03
            3448            3875     240.484E-03     256.624E-03
            3448            3882     260.864E-03     250.739E-03
            3449             100     970.858E-03     903.970E-03
            3449             101         1.01541     981.129E-03
            3449            3876     956.107E-03     891.357E-03
            3449            3883     974.437E-03     956.641E-03
            3450            3876     956.107E-03     891.357E-03
            3450            3877     908.515E-03     829.208E-03
            3450            3883     974.437E-03     956.641E-03
            3450            3884     891.390E-03     878.708E-03
            3451            3877     908.515E-03     829.208E-03
            3451            3878     828.983E-03     742.575E-03
            3451            3884     891.390E-03     878.708E-03
            3451            3885     798.069E-03     770.558E-03
            3452            3878     828.983E-03     742.575E-03
            3452            3879     713.394E-03     651.891E-03
            3452            3885     798.069E-03     770.558E-03
            3452            3886     679.592E-03     652.365E-03
            3453            3879     713.394E-03     651.891E-03
            3453            3880     565.297E-03     529.041E-03
            3453            3886     679.592E-03     652.365E-03
            3453            3887     539.623E-03     521.390E-03
            3454            3880     565.297E-03     529.041E-03
            3454            3881     406.636E-03     385.148E-03
            3454            3887     539.623E-03     521.390E-03
            3454            3888     391.801E-03     379.221E-03
            3455            3881     406.636E-03     385.148E-03
            3455            3882     260.864E-03     250.739E-03
            3455            3888     391.801E-03     379.221E-03
            3455            3889     255.152E-03     240.354E-03
            3456             301     193.422E-03     176.003E-03
            3456             302     194.384E-03     190.812E-03
            3456            3882     260.864E-03     250.739E-03
            3456            3889     255.152E-03     240.354E-03
            3457               3     915.118E-03         1.03531
            3457             101         1.01541     981.129E-03
            3457             489     849.589E-03         1.02925
            3457            3883     974.437E-03     956.641E-03
            3458             489     849.589E-03         1.02925
            3458             490     750.297E-03     979.177E-03
            3458            3883     974.437E-03     956.641E-03
            3458            3884     891.390E-03     878.708E-03
            3459             490     750.297E-03     979.177E-03
            3459             491     673.718E-03     854.602E-03
            3459            3884     891.390E-03     878.708E-03
            3459            3885     798.069E-03     770.558E-03
            3460             491     673.718E-03     854.602E-03
            3460             492     579.949E-03     703.155E-03
            3460            3885     798.069E-03     770.558E-03
            3460            3886     679.592E-03     652.365E-03
            3461             492     579.949E-03     703.155E-03
            3461             493     467.909E-03     558.762E-03
            3461            3886     679.592E-03     652.365E-03
            3461            3887     539.623E-03     521.390E-03
            3462             493     467.909E-03     558.762E-03
            3462             494     343.513E-03     407.167E-03
            3462            3887     539.623E-03     521.390E-03
            3462            3888     391.801E-03     379.221E-03
            3463             494     343.513E-03     407.167E-03
            3463             495     227.575E-03     256.606E-03
            3463            3888     391.801E-03     379.221E-03
            3463            3889     255.152E-03     240.354E-03
            3464              12     174.081E-03     182.284E-03
            3464             301     193.422E-03     176.003E-03
            3464             495     227.575E-03     256.606E-03
            3464            3889     255.152E-03     240.354E-03
            3755              16         1.02441         1.11637
            3755             507     958.244E-03         1.08562
            3755             528         1.14194         1.10593
            3755            4114         1.08722         1.06978
            3756             506     854.757E-03         1.00909
            3756             507     958.244E-03         1.08562
            3756            4114         1.08722         1.06978
            3756            4115     985.056E-03     972.642E-03
            3757             505     769.802E-03     890.939E-03
            3757             506     854.757E-03         1.00909
            3757            4115     985.056E-03     972.642E-03
            3757            4116     884.160E-03     853.803E-03
            3758             504     661.611E-03     744.111E-03
            3758             505     769.802E-03     890.939E-03
            3758            4116     884.160E-03     853.803E-03
            3758            4117     759.387E-03     729.760E-03
            3759             503     532.342E-03     589.984E-03
            3759             504     661.611E-03     744.111E-03
            3759            4117     759.387E-03     729.760E-03
            3759            4118     613.499E-03     594.330E-03
            3760             502     392.251E-03     425.880E-03
            3760             503     532.342E-03     589.984E-03
            3760            4118     613.499E-03     594.330E-03
            3760            4119     466.567E-03     451.886E-03
            3761             501     261.728E-03     267.093E-03
            3761             502     392.251E-03     425.880E-03
            3761            4119     466.567E-03     451.886E-03
            3761            4120     343.351E-03     324.722E-03
            3762              19     206.203E-03     197.449E-03
            3762             501     261.728E-03     267.093E-03
            3762             576     294.865E-03     273.388E-03
            3762            4120     343.351E-03     324.722E-03
            3763             528         1.14194         1.10593
            3763             529         1.07284     997.777E-03
            3763            4114         1.08722         1.06978
            3763            4121         1.05448     980.157E-03
            3764            4114         1.08722         1.06978
            3764            4115     985.056E-03     972.642E-03
            3764            4121         1.05448     980.157E-03
            3764            4122     999.464E-03     906.918E-03
            3765            4115     985.056E-03     972.642E-03
            3765            4116     884.160E-03     853.803E-03
            3765            4122     999.464E-03     906.918E-03
            3765            4123     913.636E-03     813.577E-03
            3766            4116     884.160E-03     853.803E-03
            3766            4117     759.387E-03     729.760E-03
            3766            4123     913.636E-03     813.577E-03
            3766            4124     791.982E-03     722.059E-03
            3767            4117     759.387E-03     729.760E-03
            3767            4118     613.499E-03     594.330E-03
            3767            4124     791.982E-03     722.059E-03
            3767            4125     637.964E-03     598.442E-03
            3768            4118     613.499E-03     594.330E-03
            3768            4119     466.567E-03     451.886E-03
            3768            4125     637.964E-03     598.442E-03
            3768            4126     479.998E-03     457.920E-03
            3769            4119     466.567E-03     451.886E-03
            3769            4120     343.351E-03     324.722E-03
            3769            4126     479.998E-03     457.920E-03
            3769            4127     348.338E-03     338.479E-03
            3770             575     295.561E-03     291.687E-03
            3770             576     294.865E-03     273.388E-03
            3770            4120     343.351E-03     324.722E-03
            3770            4127     348.338E-03     338.479E-03
            3771             529         1.07284     997.777E-03
            3771             530     926.600E-03     983.515E-03
            3771            4121         1.05448     980.157E-03
            3771            4128     885.253E-03     983.479E-03
            3772            4121         1.05448     980.157E-03
            3772            4122     999.464E-03     906.918E-03
            3772            4128     885.253E-03     983.479E-03
            3772            4129     826.364E-03     947.375E-03
            3773            4122     999.464E-03     906.918E-03
            3773            4123     913.636E-03     813.577E-03
            3773            4129     826.364E-03     947.375E-03
            3773            4130     778.273E-03     864.639E-03
            3774            4123     913.636E-03     813.577E-03
            3774            4124     791.982E-03     722.059E-03
            3774            4130     778.273E-03     864.639E-03
            3774            4131     691.518E-03     760.237E-03
            3775            4124     791.982E-03     722.059E-03
            3775            4125     637.964E-03     598.442E-03
            3775            4131     691.518E-03     760.237E-03
            3775            4132     567.477E-03     625.608E-03
            3776            4125     637.964E-03     598.442E-03
            3776            4126     479.998E-03     457.920E-03
            3776            4132     567.477E-03     625.608E-03
            3776            4133     435.617E-03     472.459E-03
            3777            4126     479.998E-03     457.920E-03
            3777            4127     348.338E-03     338.479E-03
            3777            4133     435.617E-03     472.459E-03
            3777            4134     327.790E-03     341.868E-03
            3778             574     285.535E-03     289.595E-03
            3778             575     295.561E-03     291.687E-03
            3778            4127     348.338E-03     338.479E-03
            3778            4134     327.790E-03     341.868E-03
            3779             530     926.600E-03     983.515E-03
            3779             531     929.597E-03     866.951E-03
            3779            4128     885.253E-03     983.479E-03
            3779            4135     925.564E-03     870.713E-03
            3780            4128     885.253E-03     983.479E-03
            3780            4129     826.364E-03     947.375E-03
            3780            4135     925.564E-03     870.713E-03
            3780            4136     899.232E-03     840.930E-03
            3781            4129     826.364E-03     947.375E-03
            3781            4130     778.273E-03     864.639E-03
            3781            4136     899.232E-03     840.930E-03
            3781            4137     832.285E-03     772.003E-03
            3782            4130     778.273E-03     864.639E-03
            3782            4131     691.518E-03     760.237E-03
            3782            4137     832.285E-03     772.003E-03
            3782            4138     725.078E-03     681.716E-03
            3783            4131     691.518E-03     760.237E-03
            3783            4132     567.477E-03     625.608E-03
            3783            4138     725.078E-03     681.716E-03
            3783            4139     593.583E-03     563.698E-03
            3784            4132     567.477E-03     625.608E-03
            3784            4133     435.617E-03     472.459E-03
            3784            4139     593.583E-03     563.698E-03
            3784            4140     455.269E-03     436.138E-03
            3785            4133     435.617E-03     472.459E-03
            3785            4134     327.790E-03     341.868E-03
            3785            4140     455.269E-03     436.138E-03
            3785            4141     335.011E-03     326.067E-03
            3786             573     285.716E-03     281.893E-03
            3786             574     285.535E-03     289.595E-03
            3786            4134     327.790E-03     341.868E-03
            3786            4141     335.011E-03     326.067E-03
            3787             531     929.597E-03     866.951E-03
            3787             532     871.512E-03     832.102E-03
            3787            4135     925.564E-03     870.713E-03
            3787            4142     876.820E-03     851.367E-03
            3788            4135     925.564E-03     870.713E-03
            3788            4136     899.232E-03     840.930E-03
            3788            4142     876.820E-03     851.367E-03
            3788            4143     853.063E-03     835.350E-03
            3789            4136     899.232E-03     840.930E-03
            3789            4137     832.285E-03     772.003E-03
            3789            4143     853.063E-03     835.350E-03
            3789            4144     775.632E-03     750.282E-03
            3790            4137     832.285E-03     772.003E-03
            3790            4138     725.078E-03     681.716E-03
            3790            4144     775.632E-03     750.282E-03
            3790            4145     671.539E-03     644.492E-03
            3791            4138     725.078E-03     681.716E-03
            3791            4139     593.583E-03     563.698E-03
            3791            4145     671.539E-03     644.492E-03
            3791            4146     555.687E-03     534.275E-03
            3792            4139     593.583E-03     563.698E-03
            3792            4140     455.269E-03     436.138E-03
            3792            4146     555.687E-03     534.275E-03
            3792            4147     434.509E-03     426.448E-03
            3793            4140     455.269E-03     436.138E-03
            3793            4141     335.011E-03     326.067E-03
            3793            4147     434.509E-03     426.448E-03
            3793            4148     327.205E-03     334.006E-03
            3794             572     282.201E-03     296.082E-03
            3794             573     285.716E-03     281.893E-03
            3794            4141     335.011E-03     326.067E-03
            3794            4148     327.205E-03     334.006E-03
            3795              21     831.833E-03     934.039E-03
            3795             532     871.512E-03     832.102E-03
            3795             596     773.398E-03     928.262E-03
            3795            4142     876.820E-03     851.367E-03
            3796             595     686.864E-03     885.751E-03
            3796             596     773.398E-03     928.262E-03
            3796            4142     876.820E-03     851.367E-03
            3796            4143     853.063E-03     835.350E-03
            3797             594     627.195E-03     783.665E-03
            3797             595     686.864E-03     885.751E-03
            3797            4143     853.063E-03     835.350E-03
            3797            4144     775.632E-03     750.282E-03
            3798             593     553.909E-03     659.369E-03
            3798             594     627.195E-03     783.665E-03
            3798            4144     775.632E-03     750.282E-03
            3798            4145     671.539E-03     644.492E-03
            3799             592     467.878E-03     542.152E-03
            3799             593     553.909E-03     659.369E-03
            3799            4145     671.539E-03     644.492E-03
            3799            4146     555.687E-03     534.275E-03
            3800             591     379.758E-03     425.684E-03
            3800             592     467.878E-03     542.152E-03
            3800            4146     555.687E-03     534.275E-03
            3800            4147     434.509E-03     426.448E-03
            3801             590     306.705E-03     325.456E-03
            3801             591     379.758E-03     425.684E-03
            3801            4147     434.509E-03     426.448E-03
            3801            4148     327.205E-03     334.006E-03
            3802              24     278.182E-03     284.644E-03
            3802             572     282.201E-03     296.082E-03
            3802             590     306.705E-03     325.456E-03
            3802            4148     327.205E-03     334.006E-03
            3803              24     278.182E-03     284.644E-03
            3803             571     309.147E-03     329.350E-03
            3803             659     287.076E-03     269.309E-03
            3803            4149     324.601E-03     310.628E-03
            3804             570     383.599E-03     431.439E-03
            3804             571     309.147E-03     329.350E-03
            3804            4149     324.601E-03     310.628E-03
            3804            4150     412.285E-03     407.506E-03
            3805             569     472.285E-03     548.355E-03
            3805             570     383.599E-03     431.439E-03
            3805            4150     412.285E-03     407.506E-03
            3805            4151     517.347E-03     520.713E-03
            3806             568     558.394E-03     665.382E-03
            3806             569     472.285E-03     548.355E-03
            3806            4151     517.347E-03     520.713E-03
            3806            4152     623.483E-03     627.889E-03
            3807             567     631.429E-03     789.072E-03
            3807             568     558.394E-03     665.382E-03
            3807            4152     623.483E-03     627.889E-03
            3807            4153     713.061E-03     716.499E-03
            3808             566     690.233E-03     890.179E-03
            3808             567     631.429E-03     789.072E-03
            3808            4153     713.061E-03     716.499E-03
            3808            4154     778.551E-03     795.997E-03
            3809             565     775.727E-03     931.665E-03
            3809             566     690.233E-03     890.179E-03
            3809            4154     778.551E-03     795.997E-03
            3809            4155     856.110E-03     866.727E-03
            3810              23     833.815E-03     937.021E-03
            3810             565     775.727E-03     931.665E-03
            3810             597     905.402E-03     895.721E-03
            3810            4155     856.110E-03     866.727E-03
            3811             658     285.142E-03     280.485E-03
            3811             659     287.076E-03     269.309E-03
            3811            4149     324.601E-03     310.628E-03
            3811            4156     330.974E-03     315.879E-03
            3812            4149     324.601E-03     310.628E-03
            3812            4150     412.285E-03     407.506E-03
            3812            4156     330.974E-03     315.879E-03
            3812            4157     434.941E-03     400.984E-03
            3813            4150     412.285E-03     407.506E-03
            3813            4151     517.347E-03     520.713E-03
            3813            4157     434.941E-03     400.984E-03
            3813            4158     557.087E-03     504.457E-03
            3814            4151     517.347E-03     520.713E-03
            3814            4152     623.483E-03     627.889E-03
            3814            4158     557.087E-03     504.457E-03
            3814            4159     678.428E-03     602.029E-03
            3815            4152     623.483E-03     627.889E-03
            3815            4153     713.061E-03     716.499E-03
            3815            4159     678.428E-03     602.029E-03
            3815            4160     783.576E-03     671.564E-03
            3816            4153     713.061E-03     716.499E-03
            3816            4154     778.551E-03     795.997E-03
            3816            4160     783.576E-03     671.564E-03
            3816            4161     851.726E-03     732.642E-03
            3817            4154     778.551E-03     795.997E-03
            3817            4155     856.110E-03     866.727E-03
            3817            4161     851.726E-03     732.642E-03
            3817            4162     868.441E-03     766.984E-03
            3818             597     905.402E-03     895.721E-03
            3818             598     863.469E-03     764.965E-03
            3818            4155     856.110E-03     866.727E-03
            3818            4162     868.441E-03     766.984E-03
            3819             657     274.007E-03     288.588E-03
            3819             658     285.142E-03     280.485E-03
            3819            4156     330.974E-03     315.879E-03
            3819            4163     308.745E-03     322.090E-03
            3820            4156     330.974E-03     315.879E-03
            3820            4157     434.941E-03     400.984E-03
            3820            4163     308.745E-03     322.090E-03
            3820            4164     391.070E-03     402.426E-03
            3821            4157     434.941E-03     400.984E-03
            3821            4158     557.087E-03     504.457E-03
            3821            4164     391.070E-03     402.426E-03
            3821            4165     489.500E-03     498.787E-03
            3822            4158     557.087E-03     504.457E-03
            3822            4159     678.428E-03     602.029E-03
            3822            4165     489.500E-03     498.787E-03
            3822            4166     583.152E-03     591.983E-03
            3823            4159     678.428E-03     602.029E-03
            3823            4160     783.576E-03     671.564E-03
            3823            4166     583.152E-03     591.983E-03
            3823            4167     663.264E-03     677.095E-03
            3824            4160     783.576E-03     671.564E-03
            3824            4161     851.726E-03     732.642E-03
            3824            4167     663.264E-03     677.095E-03
            3824            4168     718.557E-03     745.088E-03
            3825            4161     851.726E-03     732.642E-03
            3825            4162     868.441E-03     766.984E-03
            3825            4168     718.557E-03     745.088E-03
            3825            4169     734.388E-03     751.203E-03
            3826             598     863.469E-03     764.965E-03
            3826             599     731.310E-03     729.908E-03
            3826            4162     868.441E-03     766.984E-03
            3826            4169     734.388E-03     751.203E-03
            3827             656     277.985E-03     279.722E-03
            3827             657     274.007E-03     288.588E-03
            3827            4163     308.745E-03     322.090E-03
            3827            4170     300.782E-03     313.840E-03
            3828            4163     308.745E-03     322.090E-03
            3828            4164     391.070E-03     402.426E-03
            3828            4170     300.782E-03     313.840E-03
            3828            4171     359.085E-03     395.357E-03
            3829            4164     391.070E-03     402.426E-03
            3829            4165     489.500E-03     498.787E-03
            3829            4171     359.085E-03     395.357E-03
            3829            4172     432.395E-03     494.187E-03
            3830            4165     489.500E-03     498.787E-03
            3830            4166     583.152E-03     591.983E-03
            3830            4172     432.395E-03     494.187E-03
            3830            4173     504.894E-03     598.607E-03
            3831            4166     583.152E-03     591.983E-03
            3831            4167     663.264E-03     677.095E-03
            3831            4173     504.894E-03     598.607E-03
            3831            4174     568.625E-03     709.580E-03
            3832            4167     663.264E-03     677.095E-03
            3832            4168     718.557E-03     745.088E-03
            3832            4174     568.625E-03     709.580E-03
            3832            4175     624.745E-03     796.598E-03
            3833            4168     718.557E-03     745.088E-03
            3833            4169     734.388E-03     751.203E-03
            3833            4175     624.745E-03     796.598E-03
            3833            4176     700.330E-03     830.520E-03
            3834             599     731.310E-03     729.908E-03
            3834             600     748.297E-03     834.482E-03
            3834            4169     734.388E-03     751.203E-03
            3834            4176     700.330E-03     830.520E-03
            3835             655     287.675E-03     274.534E-03
            3835             656     277.985E-03     279.722E-03
            3835            4170     300.782E-03     313.840E-03
            3835            4177     317.352E-03     304.949E-03
            3836            4170     300.782E-03     313.840E-03
            3836            4171     359.085E-03     395.357E-03
            3836            4177     317.352E-03     304.949E-03
            3836            4178     390.909E-03     377.816E-03
            3837            4171     359.085E-03     395.357E-03
            3837            4172     432.395E-03     494.187E-03
            3837            4178     390.909E-03     377.816E-03
            3837            4179     483.850E-03     467.001E-03
            3838            4172     432.395E-03     494.187E-03
            3838            4173     504.894E-03     598.607E-03
            3838            4179     483.850E-03     467.001E-03
            3838            4180     581.548E-03     562.684E-03
            3839            4173     504.894E-03     598.607E-03
            3839            4174     568.625E-03     709.580E-03
            3839            4180     581.548E-03     562.684E-03
            3839            4181     669.134E-03     655.964E-03
            3840            4174     568.625E-03     709.580E-03
            3840            4175     624.745E-03     796.598E-03
            3840            4181     669.134E-03     655.964E-03
            3840            4182     744.723E-03     741.645E-03
            3841            4175     624.745E-03     796.598E-03
            3841            4176     700.330E-03     830.520E-03
            3841            4182     744.723E-03     741.645E-03
            3841            4183     825.639E-03     813.338E-03
            3842             600     748.297E-03     834.482E-03
            3842             601     869.112E-03     842.836E-03
            3842            4176     700.330E-03     830.520E-03
            3842            4183     825.639E-03     813.338E-03
            3843             654     288.900E-03     288.045E-03
            3843             655     287.675E-03     274.534E-03
            3843            4177     317.352E-03     304.949E-03
            3843            4184     321.000E-03     316.458E-03
            3844            4177     317.352E-03     304.949E-03
            3844            4178     390.909E-03     377.816E-03
            3844            4184     321.000E-03     316.458E-03
            3844            4185     399.124E-03     383.664E-03
            3845            4178     390.909E-03     377.816E-03
            3845            4179     483.850E-03     467.001E-03
            3845            4185     399.124E-03     383.664E-03
            3845            4186     498.737E-03     464.154E-03
            3846            4179     483.850E-03     467.001E-03
            3846            4180     581.548E-03     562.684E-03
            3846            4186     498.737E-03     464.154E-03
            3846            4187     598.635E-03     542.800E-03
            3847            4180     581.548E-03     562.684E-03
            3847            4181     669.134E-03     655.964E-03
            3847            4187     598.635E-03     542.800E-03
            3847            4188     682.411E-03     613.818E-03
            3848            4181     669.134E-03     655.964E-03
            3848            4182     744.723E-03     741.645E-03
            3848            4188     682.411E-03     613.818E-03
            3848            4189     749.484E-03     689.805E-03
            3849            4182     744.723E-03     741.645E-03
            3849            4183     825.639E-03     813.338E-03
            3849            4189     749.484E-03     689.805E-03
            3849            4190     792.915E-03     746.103E-03
            3850             601     869.112E-03     842.836E-03
            3850             602     805.901E-03     759.833E-03
            3850            4183     825.639E-03     813.338E-03
            3850            4190     792.915E-03     746.103E-03
            3851             653     282.252E-03     286.671E-03
            3851             654     288.900E-03     288.045E-03
            3851            4184     321.000E-03     316.458E-03
            3851            4191     306.276E-03     316.407E-03
            3852            4184     321.000E-03     316.458E-03
            3852            4185     399.124E-03     383.664E-03
            3852            4191     306.276E-03     316.407E-03
            3852            4192     367.923E-03     386.774E-03
            3853            4185     399.124E-03     383.664E-03
            3853            4186     498.737E-03     464.154E-03
            3853            4192     367.923E-03     386.774E-03
            3853            4193     446.499E-03     468.791E-03
            3854            4186     498.737E-03     464.154E-03
            3854            4187     598.635E-03     542.800E-03
            3854            4193     446.499E-03     468.791E-03
            3854            4194     518.784E-03     544.223E-03
            3855            4187     598.635E-03     542.800E-03
            3855            4188     682.411E-03     613.818E-03
            3855            4194     518.784E-03     544.223E-03
            3855            4195     573.924E-03     616.598E-03
            3856            4188     682.411E-03     613.818E-03
            3856            4189     749.484E-03     689.805E-03
            3856            4195     573.924E-03     616.598E-03
            3856            4196     618.434E-03     685.181E-03
            3857            4189     749.484E-03     689.805E-03
            3857            4190     792.915E-03     746.103E-03
            3857            4196     618.434E-03     685.181E-03
            3857            4197     668.757E-03     721.722E-03
            3858             602     805.901E-03     759.833E-03
            3858             603     697.860E-03     727.353E-03
            3858            4190     792.915E-03     746.103E-03
            3858            4197     668.757E-03     721.722E-03
            3859             652     286.340E-03     284.573E-03
            3859             653     282.252E-03     286.671E-03
            3859            4191     306.276E-03     316.407E-03
            3859            4198     308.846E-03     309.079E-03
            3860            4191     306.276E-03     316.407E-03
            3860            4192     367.923E-03     386.774E-03
            3860            4198     308.846E-03     309.079E-03
            3860            4199     366.612E-03     367.965E-03
            3861            4192     367.923E-03     386.774E-03
            3861            4193     446.499E-03     468.791E-03
            3861            4199     366.612E-03     367.965E-03
            3861            4200     438.950E-03     434.899E-03
            3862            4193     446.499E-03     468.791E-03
            3862            4194     518.784E-03     544.223E-03
            3862            4200     438.950E-03     434.899E-03
            3862            4201     503.904E-03     495.146E-03
            3863            4194     518.784E-03     544.223E-03
            3863            4195     573.924E-03     616.598E-03
            3863            4201     503.904E-03     495.146E-03
            3863            4202     552.818E-03     550.757E-03
            3864            4195     573.924E-03     616.598E-03
            3864            4196     618.434E-03     685.181E-03
            3864            4202     552.818E-03     550.757E-03
            3864            4203     595.890E-03     605.007E-03
            3865            4196     618.434E-03     685.181E-03
            3865            4197     668.757E-03     721.722E-03
            3865            4203     595.890E-03     605.007E-03
            3865            4204     641.982E-03     642.386E-03
            3866             603     697.860E-03     727.353E-03
            3866             604     665.619E-03     652.995E-03
            3866            4197     668.757E-03     721.722E-03
            3866            4204     641.982E-03     642.386E-03
            3867             651     286.874E-03     286.482E-03
            3867             652     286.340E-03     284.573E-03
            3867            4198     308.846E-03     309.079E-03
            3867            4205     306.901E-03     307.448E-03
            3868            4198     308.846E-03     309.079E-03
            3868            4199     366.612E-03     367.965E-03
            3868            4205     306.901E-03     307.448E-03
            3868            4206     357.971E-03     358.979E-03
            3869            4199     366.612E-03     367.965E-03
            3869            4200     438.950E-03     434.899E-03
            3869            4206     357.971E-03     358.979E-03
            3869            4207     422.609E-03     419.968E-03
            3870            4200     438.950E-03     434.899E-03
            3870            4201     503.904E-03     495.146E-03
            3870            4207     422.609E-03     419.968E-03
            3870            4208     481.225E-03     473.799E-03
            3871            4201     503.904E-03     495.146E-03
            3871            4202     552.818E-03     550.757E-03
            3871            4208     481.225E-03     473.799E-03
            3871            4209     524.258E-03     521.549E-03
            3872            4202     552.818E-03     550.757E-03
            3872            4203     595.890E-03     605.007E-03
            3872            4209     524.258E-03     521.549E-03
            3872            4210     556.633E-03     570.274E-03
            3873            4203     595.890E-03     605.007E-03
            3873            4204     641.982E-03     642.386E-03
            3873            4210     556.633E-03     570.274E-03
            3873            4211     591.200E-03     604.684E-03
            3874             604     665.619E-03     652.995E-03
            3874             605     611.111E-03     614.398E-03
            3874            4204     641.982E-03     642.386E-03
            3874            4211     591.200E-03     604.684E-03
            3875             650     286.982E-03     287.199E-03
            3875             651     286.874E-03     286.482E-03
            3875            4205     306.901E-03     307.448E-03
            3875            4212     303.405E-03     303.739E-03
            3876            4205     306.901E-03     307.448E-03
            3876            4206     357.971E-03     358.979E-03
            3876            4212     303.405E-03     303.739E-03
            3876            4213     345.626E-03     346.986E-03
            3877            4206     357.971E-03     358.979E-03
            3877            4207     422.609E-03     419.968E-03
            3877            4213     345.626E-03     346.986E-03
            3877            4214     399.810E-03     402.223E-03
            3878            4207     422.609E-03     419.968E-03
            3878            4208     481.225E-03     473.799E-03
            3878            4214     399.810E-03     402.223E-03
            3878            4215     451.311E-03     452.448E-03
            3879            4208     481.225E-03     473.799E-03
            3879            4209     524.258E-03     521.549E-03
            3879            4215     451.311E-03     452.448E-03
            3879            4216     487.741E-03     492.042E-03
            3880            4209     524.258E-03     521.549E-03
            3880            4210     556.633E-03     570.274E-03
            3880            4216     487.741E-03     492.042E-03
            3880            4217     513.887E-03     528.564E-03
            3881            4210     556.633E-03     570.274E-03
            3881            4211     591.200E-03     604.684E-03
            3881            4217     513.887E-03     528.564E-03
            3881            4218     546.170E-03     553.703E-03
            3882             605     611.111E-03     614.398E-03
            3882             606     565.463E-03     560.027E-03
            3882            4211     591.200E-03     604.684E-03
            3882            4218     546.170E-03     553.703E-03
            3883             649     289.024E-03     286.736E-03
            3883             650     286.982E-03     287.199E-03
            3883            4212     303.405E-03     303.739E-03
            3883            4219     301.705E-03     300.298E-03
            3884            4212     303.405E-03     303.739E-03
            3884            4213     345.626E-03     346.986E-03
            3884            4219     301.705E-03     300.298E-03
            3884            4220     334.448E-03     336.782E-03
            3885            4213     345.626E-03     346.986E-03
            3885            4214     399.810E-03     402.223E-03
            3885            4220     334.448E-03     336.782E-03
            3885            4221     378.138E-03     387.650E-03
            3886            4214     399.810E-03     402.223E-03
            3886            4215     451.311E-03     452.448E-03
            3886            4221     378.138E-03     387.650E-03
            3886            4222     423.050E-03     439.112E-03
            3887            4215     451.311E-03     452.448E-03
            3887            4216     487.741E-03     492.042E-03
            3887            4222     423.050E-03     439.112E-03
            3887            4223     456.396E-03     478.388E-03
            3888            4216     487.741E-03     492.042E-03
            3888            4217     513.887E-03     528.564E-03
            3888            4223     456.396E-03     478.388E-03
            3888            4224     474.505E-03     506.745E-03
            3889            4217     513.887E-03     528.564E-03
            3889            4218     546.170E-03     553.703E-03
            3889            4224     474.505E-03     506.745E-03
            3889            4225     495.408E-03     518.520E-03
            3890             606     565.463E-03     560.027E-03
            3890             607     510.232E-03     517.625E-03
            3890            4218     546.170E-03     553.703E-03
            3890            4225     495.408E-03     518.520E-03
            3891             648     287.462E-03     284.598E-03
            3891             649     289.024E-03     286.736E-03
            3891            4219     301.705E-03     300.298E-03
            3891            4226     298.732E-03     294.152E-03
            3892            4219     301.705E-03     300.298E-03
            3892            4220     334.448E-03     336.782E-03
            3892            4226     298.732E-03     294.152E-03
            3892            4227     328.885E-03     320.969E-03
            3893            4220     334.448E-03     336.782E-03
            3893            4221     378.138E-03     387.650E-03
            3893            4227     328.885E-03     320.969E-03
            3893            4228     370.329E-03     360.664E-03
            3894            4221     378.138E-03     387.650E-03
            3894            4222     423.050E-03     439.112E-03
            3894            4228     370.329E-03     360.664E-03
            3894            4229     418.313E-03     407.002E-03
            3895            4222     423.050E-03     439.112E-03
            3895            4223     456.396E-03     478.388E-03
            3895            4229     418.313E-03     407.002E-03
            3895            4230     462.972E-03     446.175E-03
            3896            4223     456.396E-03     478.388E-03
            3896            4224     474.505E-03     506.745E-03
            3896            4230     462.972E-03     446.175E-03
            3896            4231     485.133E-03     469.687E-03
            3897            4224     474.505E-03     506.745E-03
            3897            4225     495.408E-03     518.520E-03
            3897            4231     485.133E-03     469.687E-03
            3897            4232     482.872E-03     465.713E-03
            3898             607     510.232E-03     517.625E-03
            3898             608     477.745E-03     453.527E-03
            3898            4225     495.408E-03     518.520E-03
            3898            4232     482.872E-03     465.713E-03
            3899             647     285.819E-03     289.450E-03
            3899             648     287.462E-03     284.598E-03
            3899            4226     298.732E-03     294.152E-03
            3899            4233     293.766E-03     294.616E-03
            3900            4226     298.732E-03     294.152E-03
            3900            4227     328.885E-03     320.969E-03
            3900            4233     293.766E-03     294.616E-03
            3900            4234     315.182E-03     310.313E-03
            3901            4227     328.885E-03     320.969E-03
            3901            4228     370.329E-03     360.664E-03
            3901            4234     315.182E-03     310.313E-03
            3901            4235     346.032E-03     336.832E-03
            3902            4228     370.329E-03     360.664E-03
            3902            4229     418.313E-03     407.002E-03
            3902            4235     346.032E-03     336.832E-03
            3902            4236     384.744E-03     376.884E-03
            3903            4229     418.313E-03     407.002E-03
            3903            4230     462.972E-03     446.175E-03
            3903            4236     384.744E-03     376.884E-03
            3903            4237     426.575E-03     423.610E-03
            3904            4230     462.972E-03     446.175E-03
            3904            4231     485.133E-03     469.687E-03
            3904            4237     426.575E-03     423.610E-03
            3904            4238     457.513E-03     454.643E-03
            3905            4231     485.133E-03     469.687E-03
            3905            4232     482.872E-03     465.713E-03
            3905            4238     457.513E-03     454.643E-03
            3905            4239     449.620E-03     433.284E-03
            3906             608     477.745E-03     453.527E-03
            3906             609     431.425E-03     403.719E-03
            3906            4232     482.872E-03     465.713E-03
            3906            4239     449.620E-03     433.284E-03
            3907             646     281.761E-03     281.159E-03
            3907             647     285.819E-03     289.450E-03
            3907            4233     293.766E-03     294.616E-03
            3907            4240     285.237E-03     288.814E-03
            3908            4233     293.766E-03     294.616E-03
            3908            4234     315.182E-03     310.313E-03
            3908            4240     285.237E-03     288.814E-03
            3908            4241     296.641E-03     310.959E-03
            3909            4234     315.182E-03     310.313E-03
            3909            4235     346.032E-03     336.832E-03
            3909            4241     296.641E-03     310.959E-03
            3909            4242     313.589E-03     345.750E-03
            3910            4235     346.032E-03     336.832E-03
            3910            4236     384.744E-03     376.884E-03
            3910            4242     313.589E-03     345.750E-03
            3910            4243     335.647E-03     394.210E-03
            3911            4236     384.744E-03     376.884E-03
            3911            4237     426.575E-03     423.610E-03
            3911            4243     335.647E-03     394.210E-03
            3911            4244     360.555E-03     455.858E-03
            3912            4237     426.575E-03     423.610E-03
            3912            4238     457.513E-03     454.643E-03
            3912            4244     360.555E-03     455.858E-03
            3912            4245     386.554E-03     504.307E-03
            3913            4238     457.513E-03     454.643E-03
            3913            4239     449.620E-03     433.284E-03
            3913            4245     386.554E-03     504.307E-03
            3913            4246     427.737E-03     514.954E-03
            3914             609     431.425E-03     403.719E-03
            3914             610     454.978E-03     510.733E-03
            3914            4239     449.620E-03     433.284E-03
            3914            4246     427.737E-03     514.954E-03
            3915             645     282.788E-03     274.262E-03
            3915             646     281.761E-03     281.159E-03
            3915            4240     285.237E-03     288.814E-03
            3915            4247     290.461E-03     281.971E-03
            3916            4240     285.237E-03     288.814E-03
            3916            4241     296.641E-03     310.959E-03
            3916            4247     290.461E-03     281.971E-03
            3916            4248     312.564E-03     303.572E-03
            3917            4241     296.641E-03     310.959E-03
            3917            4242     313.589E-03     345.750E-03
            3917            4248     312.564E-03     303.572E-03
            3917            4249     343.851E-03     333.640E-03
            3918            4242     313.589E-03     345.750E-03
            3918            4243     335.647E-03     394.210E-03
            3918            4249     343.851E-03     333.640E-03
            3918            4250     381.128E-03     370.569E-03
            3919            4243     335.647E-03     394.210E-03
            3919            4244     360.555E-03     455.858E-03
            3919            4250     381.128E-03     370.569E-03
            3919            4251     417.395E-03     410.542E-03
            3920            4244     360.555E-03     455.858E-03
            3920            4245     386.554E-03     504.307E-03
            3920            4251     417.395E-03     410.542E-03
            3920            4252     455.598E-03     454.731E-03
            3921            4245     386.554E-03     504.307E-03
            3921            4246     427.737E-03     514.954E-03
            3921            4252     455.598E-03     454.731E-03
            3921            4253     512.207E-03     506.932E-03
            3922             610     454.978E-03     510.733E-03
            3922             611     546.558E-03     534.239E-03
            3922            4246     427.737E-03     514.954E-03
            3922            4253     512.207E-03     506.932E-03
            3923             644     283.365E-03     283.156E-03
            3923             645     282.788E-03     274.262E-03
            3923            4247     290.461E-03     281.971E-03
            3923            4254     291.650E-03     289.205E-03
            3924            4247     290.461E-03     281.971E-03
            3924            4248     312.564E-03     303.572E-03
            3924            4254     291.650E-03     289.205E-03
            3924            4255     314.454E-03     305.091E-03
            3925            4248     312.564E-03     303.572E-03
            3925            4249     343.851E-03     333.640E-03
            3925            4255     314.454E-03     305.091E-03
            3925            4256     347.759E-03     326.234E-03
            3926            4249     343.851E-03     333.640E-03
            3926            4250     381.128E-03     370.569E-03
            3926            4256     347.759E-03     326.234E-03
            3926            4257     384.354E-03     349.372E-03
            3927            4250     381.128E-03     370.569E-03
            3927            4251     417.395E-03     410.542E-03
            3927            4257     384.354E-03     349.372E-03
            3927            4258     418.199E-03     374.941E-03
            3928            4251     417.395E-03     410.542E-03
            3928            4252     455.598E-03     454.731E-03
            3928            4258     418.199E-03     374.941E-03
            3928            4259     452.690E-03     413.077E-03
            3929            4252     455.598E-03     454.731E-03
            3929            4253     512.207E-03     506.932E-03
            3929            4259     452.690E-03     413.077E-03
            3929            4260     479.779E-03     449.158E-03
            3930             611     546.558E-03     534.239E-03
            3930             612     488.523E-03     461.019E-03
            3930            4253     512.207E-03     506.932E-03
            3930            4260     479.779E-03     449.158E-03
            3931             643     279.101E-03     282.021E-03
            3931             644     283.365E-03     283.156E-03
            3931            4254     291.650E-03     289.205E-03
            3931            4261     282.811E-03     287.931E-03
            3932            4254     291.650E-03     289.205E-03
            3932            4255     314.454E-03     305.091E-03
            3932            4261     282.811E-03     287.931E-03
            3932            4262     294.873E-03     303.662E-03
            3933            4255     314.454E-03     305.091E-03
            3933            4256     347.759E-03     326.234E-03
            3933            4262     294.873E-03     303.662E-03
            3933            4263     312.089E-03     323.067E-03
            3934            4256     347.759E-03     326.234E-03
            3934            4257     384.354E-03     349.372E-03
            3934            4263     312.089E-03     323.067E-03
            3934            4264     327.961E-03     342.934E-03
            3935            4257     384.354E-03     349.372E-03
            3935            4258     418.199E-03     374.941E-03
            3935            4264     327.961E-03     342.934E-03
            3935            4265     341.597E-03     369.197E-03
            3936            4258     418.199E-03     374.941E-03
            3936            4259     452.690E-03     413.077E-03
            3936            4265     341.597E-03     369.197E-03
            3936            4266     358.260E-03     399.916E-03
            3937            4259     452.690E-03     413.077E-03
            3937            4260     479.779E-03     449.158E-03
            3937            4266     358.260E-03     399.916E-03
            3937            4267     384.593E-03     418.344E-03
            3938             612     488.523E-03     461.019E-03
            3938             613     401.127E-03     422.246E-03
            3938            4260     479.779E-03     449.158E-03
            3938            4267     384.593E-03     418.344E-03
            3939             642     281.363E-03     280.398E-03
            3939             643     279.101E-03     282.021E-03
            3939            4261     282.811E-03     287.931E-03
            3939            4268     283.784E-03     283.520E-03
            3940            4261     282.811E-03     287.931E-03
            3940            4262     294.873E-03     303.662E-03
            3940            4268     283.784E-03     283.520E-03
            3940            4269     292.017E-03     291.579E-03
            3941            4262     294.873E-03     303.662E-03
            3941            4263     312.089E-03     323.067E-03
            3941            4269     292.017E-03     291.579E-03
            3941            4270     303.108E-03     299.460E-03
            3942            4263     312.089E-03     323.067E-03
            3942            4264     327.961E-03     342.934E-03
            3942            4270     303.108E-03     299.460E-03
            3942            4271     312.397E-03     306.651E-03
            3943            4264     327.961E-03     342.934E-03
            3943            4265     341.597E-03     369.197E-03
            3943            4271     312.397E-03     306.651E-03
            3943            4272     320.002E-03     317.708E-03
            3944            4265     341.597E-03     369.197E-03
            3944            4266     358.260E-03     399.916E-03
            3944            4272     320.002E-03     317.708E-03
            3944            4273     332.188E-03     334.770E-03
            3945            4266     358.260E-03     399.916E-03
            3945            4267     384.593E-03     418.344E-03
            3945            4273     332.188E-03     334.770E-03
            3945            4274     352.928E-03     350.940E-03
            3946             613     401.127E-03     422.246E-03
            3946             614     365.361E-03     357.145E-03
            3946            4267     384.593E-03     418.344E-03
            3946            4274     352.928E-03     350.940E-03
            3947             641     281.834E-03     281.423E-03
            3947             642     281.363E-03     280.398E-03
            3947            4268     283.784E-03     283.520E-03
            3947            4275     282.425E-03     282.485E-03
            3948            4268     283.784E-03     283.520E-03
            3948            4269     292.017E-03     291.579E-03
            3948            4275     282.425E-03     282.485E-03
            3948            4276     285.321E-03     285.717E-03
            3949            4269     292.017E-03     291.579E-03
            3949            4270     303.108E-03     299.460E-03
            3949            4276     285.321E-03     285.717E-03
            3949            4277     289.325E-03     288.229E-03
            3950            4270     303.108E-03     299.460E-03
            3950            4271     312.397E-03     306.651E-03
            3950            4277     289.325E-03     288.229E-03
            3950            4278     291.361E-03     288.075E-03
            3951            4271     312.397E-03     306.651E-03
            3951            4272     320.002E-03     317.708E-03
            3951            4278     291.361E-03     288.075E-03
            3951            4279     290.783E-03     289.433E-03
            3952            4272     320.002E-03     317.708E-03
            3952            4273     332.188E-03     334.770E-03
            3952            4279     290.783E-03     289.433E-03
            3952            4280     292.426E-03     298.583E-03
            3953            4273     332.188E-03     334.770E-03
            3953            4274     352.928E-03     350.940E-03
            3953            4280     292.426E-03     298.583E-03
            3953            4281     304.542E-03     311.414E-03
            3954             614     365.361E-03     357.145E-03
            3954             615     314.439E-03     317.290E-03
            3954            4274     352.928E-03     350.940E-03
            3954            4281     304.542E-03     311.414E-03
            3955             640     282.205E-03     281.204E-03
            3955             641     281.834E-03     281.423E-03
            3955            4275     282.425E-03     282.485E-03
            3955            4282     280.682E-03     280.084E-03
            3956            4275     282.425E-03     282.485E-03
            3956            4276     285.321E-03     285.717E-03
            3956            4282     280.682E-03     280.084E-03
            3956            4283     277.722E-03     278.857E-03
            3957            4276     285.321E-03     285.717E-03
            3957            4277     289.325E-03     288.229E-03
            3957            4283     277.722E-03     278.857E-03
            3957            4284     273.700E-03     276.588E-03
            3958            4277     289.325E-03     288.229E-03
            3958            4278     291.361E-03     288.075E-03
            3958            4284     273.700E-03     276.588E-03
            3958            4285     267.972E-03     270.255E-03
            3959            4278     291.361E-03     288.075E-03
            3959            4279     290.783E-03     289.433E-03
            3959            4285     267.972E-03     270.255E-03
            3959            4286     258.114E-03     262.368E-03
            3960            4279     290.783E-03     289.433E-03
            3960            4280     292.426E-03     298.583E-03
            3960            4286     258.114E-03     262.368E-03
            3960            4287     250.168E-03     261.033E-03
            3961            4280     292.426E-03     298.583E-03
            3961            4281     304.542E-03     311.414E-03
            3961            4287     250.168E-03     261.033E-03
            3961            4288     259.484E-03     266.005E-03
            3962             615     314.439E-03     317.290E-03
            3962             616     270.415E-03     268.975E-03
            3962            4281     304.542E-03     311.414E-03
            3962            4288     259.484E-03     266.005E-03
            3963             639     282.780E-03     281.030E-03
            3963             640     282.205E-03     281.204E-03
            3963            4282     280.682E-03     280.084E-03
            3963            4289     279.792E-03     278.042E-03
            3964            4282     280.682E-03     280.084E-03
            3964            4283     277.722E-03     278.857E-03
            3964            4289     279.792E-03     278.042E-03
            3964            4290     272.457E-03     271.590E-03
            3965            4283     277.722E-03     278.857E-03
            3965            4284     273.700E-03     276.588E-03
            3965            4290     272.457E-03     271.590E-03
            3965            4291     262.060E-03     263.490E-03
            3966            4284     273.700E-03     276.588E-03
            3966            4285     267.972E-03     270.255E-03
            3966            4291     262.060E-03     263.490E-03
            3966            4292     249.660E-03     251.601E-03
            3967            4285     267.972E-03     270.255E-03
            3967            4286     258.114E-03     262.368E-03
            3967            4292     249.660E-03     251.601E-03
            3967            4293     234.280E-03     234.243E-03
            3968            4286     258.114E-03     262.368E-03
            3968            4287     250.168E-03     261.033E-03
            3968            4293     234.280E-03     234.243E-03
            3968            4294     219.000E-03     221.662E-03
            3969            4287     250.168E-03     261.033E-03
            3969            4288     259.484E-03     266.005E-03
            3969            4294     219.000E-03     221.662E-03
            3969            4295     217.564E-03     220.899E-03
            3970             616     270.415E-03     268.975E-03
            3970             617     222.799E-03     223.020E-03
            3970            4288     259.484E-03     266.005E-03
            3970            4295     217.564E-03     220.899E-03
            3971             638     283.136E-03     281.296E-03
            3971             639     282.780E-03     281.030E-03
            3971            4289     279.792E-03     278.042E-03
            3971            4296     278.734E-03     276.711E-03
            3972            4289     279.792E-03     278.042E-03
            3972            4290     272.457E-03     271.590E-03
            3972            4296     278.734E-03     276.711E-03
            3972            4297     267.596E-03     266.110E-03
            3973            4290     272.457E-03     271.590E-03
            3973            4291     262.060E-03     263.490E-03
            3973            4297     267.596E-03     266.110E-03
            3973            4298     250.518E-03     252.263E-03
            3974            4291     262.060E-03     263.490E-03
            3974            4292     249.660E-03     251.601E-03
            3974            4298     250.518E-03     252.263E-03
            3974            4299     230.937E-03     236.729E-03
            3975            4292     249.660E-03     251.601E-03
            3975            4293     234.280E-03     234.243E-03
            3975            4299     230.937E-03     236.729E-03
            3975            4300     209.509E-03     215.764E-03
            3976            4293     234.280E-03     234.243E-03
            3976            4294     219.000E-03     221.662E-03
            3976            4300     209.509E-03     215.764E-03
            3976            4301     185.909E-03     191.977E-03
            3977            4294     219.000E-03     221.662E-03
            3977            4295     217.564E-03     220.899E-03
            3977            4301     185.909E-03     191.977E-03
            3977            4302     174.794E-03     176.810E-03
            3978             617     222.799E-03     223.020E-03
            3978             618     175.524E-03     172.605E-03
            3978            4295     217.564E-03     220.899E-03
            3978            4302     174.794E-03     176.810E-03
            3979             637     283.177E-03     280.571E-03
            3979             638     283.136E-03     281.296E-03
            3979            4296     278.734E-03     276.711E-03
            3979            4303     277.835E-03     275.037E-03
            3980            4296     278.734E-03     276.711E-03
            3980            4297     267.596E-03     266.110E-03
            3980            4303     277.835E-03     275.037E-03
            3980            4304     263.408E-03     261.026E-03
            3981            4297     267.596E-03     266.110E-03
            3981            4298     250.518E-03     252.263E-03
            3981            4304     263.408E-03     261.026E-03
            3981            4305     241.217E-03     241.810E-03
            3982            4298     250.518E-03     252.263E-03
            3982            4299     230.937E-03     236.729E-03
            3982            4305     241.217E-03     241.810E-03
            3982            4306     214.897E-03     221.287E-03
            3983            4299     230.937E-03     236.729E-03
            3983            4300     209.509E-03     215.764E-03
            3983            4306     214.897E-03     221.287E-03
            3983            4307     190.481E-03     199.247E-03
            3984            4300     209.509E-03     215.764E-03
            3984            4301     185.909E-03     191.977E-03
            3984            4307     190.481E-03     199.247E-03
            3984            4308     164.759E-03     169.865E-03
            3985            4301     185.909E-03     191.977E-03
            3985            4302     174.794E-03     176.810E-03
            3985            4308     164.759E-03     169.865E-03
            3985            4309     135.662E-03     135.984E-03
            3986             618     175.524E-03     172.605E-03
            3986             619     121.547E-03     119.669E-03
            3986            4302     174.794E-03     176.810E-03
            3986            4309     135.662E-03     135.984E-03
            3987             636     282.190E-03     280.735E-03
            3987             637     283.177E-03     280.571E-03
            3987            4303     277.835E-03     275.037E-03
            3987            4310     276.116E-03     274.249E-03
            3988            4303     277.835E-03     275.037E-03
            3988            4304     263.408E-03     261.026E-03
            3988            4310     276.116E-03     274.249E-03
            3988            4311     259.860E-03     257.282E-03
            3989            4304     263.408E-03     261.026E-03
            3989            4305     241.217E-03     241.810E-03
            3989            4311     259.860E-03     257.282E-03
            3989            4312     234.415E-03     232.484E-03
            3990            4305     241.217E-03     241.810E-03
            3990            4306     214.897E-03     221.287E-03
            3990            4312     234.415E-03     232.484E-03
            3990            4313     203.892E-03     205.251E-03
            3991            4306     214.897E-03     221.287E-03
            3991            4307     190.481E-03     199.247E-03
            3991            4313     203.892E-03     205.251E-03
            3991            4314     175.197E-03     180.357E-03
            3992            4307     190.481E-03     199.247E-03
            3992            4308     164.759E-03     169.865E-03
            3992            4314     175.197E-03     180.357E-03
            3992            4315     151.271E-03     153.089E-03
            3993            4308     164.759E-03     169.865E-03
            3993            4309     135.662E-03     135.984E-03
            3993            4315     151.271E-03     153.089E-03
            3993            4316     108.552E-03     101.671E-03
            3994             619     121.547E-03     119.669E-03
            3994             620     76.7725E-03     65.9609E-03
            3994            4309     135.662E-03     135.984E-03
            3994            4316     108.552E-03     101.671E-03
            3995             635     273.686E-03     271.989E-03
            3995             636     282.190E-03     280.735E-03
            3995            4310     276.116E-03     274.249E-03
            3995            4317     267.477E-03     266.022E-03
            3996            4310     276.116E-03     274.249E-03
            3996            4311     259.860E-03     257.282E-03
            3996            4317     267.477E-03     266.022E-03
            3996            4318     251.745E-03     250.927E-03
            3997            4311     259.860E-03     257.282E-03
            3997            4312     234.415E-03     232.484E-03
            3997            4318     251.745E-03     250.927E-03
            3997            4319     226.200E-03     227.538E-03
            3998            4312     234.415E-03     232.484E-03
            3998            4313     203.892E-03     205.251E-03
            3998            4319     226.200E-03     227.538E-03
            3998            4320     195.225E-03     200.692E-03
            3999            4313     203.892E-03     205.251E-03
            3999            4314     175.197E-03     180.357E-03
            3999            4320     195.225E-03     200.692E-03
            3999            4321     159.702E-03     173.640E-03
            4000            4314     175.197E-03     180.357E-03
            4000            4315     151.271E-03     153.089E-03
            4000            4321     159.702E-03     173.640E-03
            4000            4322     126.518E-03     150.766E-03
            4001            4315     151.271E-03     153.089E-03
            4001            4316     108.552E-03     101.671E-03
            4001            4322     126.518E-03     150.766E-03
            4001            4323     111.143E-03     133.019E-03
            4002             620     76.7725E-03     65.9609E-03
            4002             621     108.791E-03     124.100E-03
            4002            4316     108.552E-03     101.671E-03
            4002            4323     111.143E-03     133.019E-03
            4003             634     268.602E-03     265.205E-03
            4003             635     273.686E-03     271.989E-03
            4003            4317     267.477E-03     266.022E-03
            4003            4324     263.002E-03     259.831E-03
            4004            4317     267.477E-03     266.022E-03
            4004            4318     251.745E-03     250.927E-03
            4004            4324     263.002E-03     259.831E-03
            4004            4325     248.604E-03     246.129E-03
            4005            4318     251.745E-03     250.927E-03
            4005            4319     226.200E-03     227.538E-03
            4005            4325     248.604E-03     246.129E-03
            4005            4326     225.540E-03     224.452E-03
            4006            4319     226.200E-03     227.538E-03
            4006            4320     195.225E-03     200.692E-03
            4006            4326     225.540E-03     224.452E-03
            4006            4327     196.921E-03     196.544E-03
            4007            4320     195.225E-03     200.692E-03
            4007            4321     159.702E-03     173.640E-03
            4007            4327     196.921E-03     196.544E-03
            4007            4328     162.103E-03     163.142E-03
            4008            4321     159.702E-03     173.640E-03
            4008            4322     126.518E-03     150.766E-03
            4008            4328     162.103E-03     163.142E-03
            4008            4329     127.221E-03     129.137E-03
            4009            4322     126.518E-03     150.766E-03
            4009            4323     111.143E-03     133.019E-03
            4009            4329     127.221E-03     129.137E-03
            4009            4330     130.113E-03     131.712E-03
            4010             621     108.791E-03     124.100E-03
            4010             622     147.847E-03     149.867E-03
            4010            4323     111.143E-03     133.019E-03
            4010            4330     130.113E-03     131.712E-03
            4011             633     269.893E-03     268.025E-03
            4011             634     268.602E-03     265.205E-03
            4011            4324     263.002E-03     259.831E-03
            4011            4331     264.457E-03     262.361E-03
            4012            4324     263.002E-03     259.831E-03
            4012            4325     248.604E-03     246.129E-03
            4012            4331     264.457E-03     262.361E-03
            4012            4332     249.273E-03     246.931E-03
            4013            4325     248.604E-03     246.129E-03
            4013            4326     225.540E-03     224.452E-03
            4013            4332     249.273E-03     246.931E-03
            4013            4333     226.033E-03     223.068E-03
            4014            4326     225.540E-03     224.452E-03
            4014            4327     196.921E-03     196.544E-03
            4014            4333     226.033E-03     223.068E-03
            4014            4334     195.202E-03     190.890E-03
            4015            4327     196.921E-03     196.544E-03
            4015            4328     162.103E-03     163.142E-03
            4015            4334     195.202E-03     190.890E-03
            4015            4335     158.477E-03     154.493E-03
            4016            4328     162.103E-03     163.142E-03
            4016            4329     127.221E-03     129.137E-03
            4016            4335     158.477E-03     154.493E-03
            4016            4336     119.451E-03     109.694E-03
            4017            4329     127.221E-03     129.137E-03
            4017            4330     130.113E-03     131.712E-03
            4017            4336     119.451E-03     109.694E-03
            4017            4337     94.3487E-03     80.2818E-03
            4018             622     147.847E-03     149.867E-03
            4018             623     89.3078E-03     77.7630E-03
            4018            4330     130.113E-03     131.712E-03
            4018            4337     94.3487E-03     80.2818E-03
            4019             632     267.585E-03     266.709E-03
            4019             633     269.893E-03     268.025E-03
            4019            4331     264.457E-03     262.361E-03
            4019            4338     261.601E-03     260.904E-03
            4020            4331     264.457E-03     262.361E-03
            4020            4332     249.273E-03     246.931E-03
            4020            4338     261.601E-03     260.904E-03
            4020            4339     246.040E-03     245.558E-03
            4021            4332     249.273E-03     246.931E-03
            4021            4333     226.033E-03     223.068E-03
            4021            4339     246.040E-03     245.558E-03
            4021            4340     220.827E-03     220.821E-03
            4022            4333     226.033E-03     223.068E-03
            4022            4334     195.202E-03     190.890E-03
            4022            4340     220.827E-03     220.821E-03
            4022            4341     187.165E-03     188.322E-03
            4023            4334     195.202E-03     190.890E-03
            4023            4335     158.477E-03     154.493E-03
            4023            4341     187.165E-03     188.322E-03
            4023            4342     145.312E-03     150.026E-03
            4024            4335     158.477E-03     154.493E-03
            4024            4336     119.451E-03     109.694E-03
            4024            4342     145.312E-03     150.026E-03
            4024            4343     95.8700E-03     104.235E-03
            4025            4336     119.451E-03     109.694E-03
            4025            4337     94.3487E-03     80.2818E-03
            4025            4343     95.8700E-03     104.235E-03
            4025            4344     55.6799E-03     77.7913E-03
            4026             623     89.3078E-03     77.7630E-03
            4026             624     41.4966E-03     76.5251E-03
            4026            4337     94.3487E-03     80.2818E-03
            4026            4344     55.6799E-03     77.7913E-03
            4027              27     133.362E-03     132.760E-03
            4027             631     130.246E-03     129.736E-03
            4027             632     267.585E-03     266.709E-03
            4027            4338     261.601E-03     260.904E-03
            4028             630     122.706E-03     122.012E-03
            4028             631     130.246E-03     129.736E-03
            4028            4338     261.601E-03     260.904E-03
            4028            4339     246.040E-03     245.558E-03
            4029             629     109.819E-03     108.974E-03
            4029             630     122.706E-03     122.012E-03
            4029            4339     246.040E-03     245.558E-03
            4029            4340     220.827E-03     220.821E-03
            4030             628     93.3170E-03     92.3737E-03
            4030             629     109.819E-03     108.974E-03
            4030            4340     220.827E-03     220.821E-03
            4030            4341     187.165E-03     188.322E-03
            4031             627     72.1864E-03     70.6902E-03
            4031             628     93.3170E-03     92.3737E-03
            4031            4341     187.165E-03     188.322E-03
            4031            4342     145.312E-03     150.026E-03
            4032             626     48.3499E-03     46.1964E-03
            4032             627     72.1864E-03     70.6902E-03
            4032            4342     145.312E-03     150.026E-03
            4032            4343     95.8700E-03     104.235E-03
            4033             625     30.0736E-03     39.3085E-03
            4033             626     48.3499E-03     46.1964E-03
            4033            4343     95.8700E-03     104.235E-03
            4033            4344     55.6799E-03     77.7913E-03
            4034              26     22.7331E-03     43.6681E-03
            4034             624     41.4966E-03     76.5251E-03
            4034             625     30.0736E-03     39.3085E-03
            4034            4344     55.6799E-03     77.7913E-03
            4994              12     174.081E-03     182.284E-03
            4994             300     225.232E-03     251.680E-03
            4994             496     170.736E-03     179.833E-03
            4994            5152     241.182E-03     242.309E-03
            4995             299     340.586E-03     401.071E-03
            4995             300     225.232E-03     251.680E-03
            4995            5152     241.182E-03     242.309E-03
            4995            5153     394.934E-03     382.705E-03
            4996             298     465.299E-03     553.170E-03
            4996             299     340.586E-03     401.071E-03
            4996            5153     394.934E-03     382.705E-03
            4996            5154     551.080E-03     527.870E-03
            4997             297     578.336E-03     698.655E-03
            4997             298     465.299E-03     553.170E-03
            4997            5154     551.080E-03     527.870E-03
            4997            5155     692.219E-03     660.539E-03
            4998             296     672.936E-03     850.941E-03
            4998             297     578.336E-03     698.655E-03
            4998            5155     692.219E-03     660.539E-03
            4998            5156     811.430E-03     777.853E-03
            4999             295     748.482E-03     976.166E-03
            4999             296     672.936E-03     850.941E-03
            4999            5156     811.430E-03     777.853E-03
            4999            5157     899.748E-03     870.148E-03
            5000             294     845.593E-03         1.02694
            5000             295     748.482E-03     976.166E-03
            5000            5157     899.748E-03     870.148E-03
            5000            5158     944.780E-03     906.499E-03
            5001              11     910.094E-03         1.03324
            5001             294     845.593E-03         1.02694
            5001             527     953.947E-03     904.469E-03
            5001            5158     944.780E-03     906.499E-03
            5002             496     170.736E-03     179.833E-03
            5002             497     170.102E-03     172.012E-03
            5002            5152     241.182E-03     242.309E-03
            5002            5159     247.415E-03     249.422E-03
            5003            5152     241.182E-03     242.309E-03
            5003            5153     394.934E-03     382.705E-03
            5003            5159     247.415E-03     249.422E-03
            5003            5160     411.719E-03     413.369E-03
            5004            5153     394.934E-03     382.705E-03
            5004            5154     551.080E-03     527.870E-03
            5004            5160     411.719E-03     413.369E-03
            5004            5161     581.123E-03     582.297E-03
            5005            5154     551.080E-03     527.870E-03
            5005            5155     692.219E-03     660.539E-03
            5005            5161     581.123E-03     582.297E-03
            5005            5162     737.456E-03     728.513E-03
            5006            5155     692.219E-03     660.539E-03
            5006            5156     811.430E-03     777.853E-03
            5006            5162     737.456E-03     728.513E-03
            5006            5163     859.939E-03     837.352E-03
            5007            5156     811.430E-03     777.853E-03
            5007            5157     899.748E-03     870.148E-03
            5007            5163     859.939E-03     837.352E-03
            5007            5164     929.055E-03     922.513E-03
            5008            5157     899.748E-03     870.148E-03
            5008            5158     944.780E-03     906.499E-03
            5008            5164     929.055E-03     922.513E-03
            5008            5165     961.261E-03     960.268E-03
            5009             526     973.574E-03     957.506E-03
            5009             527     953.947E-03     904.469E-03
            5009            5158     944.780E-03     906.499E-03
            5009            5165     961.261E-03     960.268E-03
            5010             497     170.102E-03     172.012E-03
            5010             498     184.175E-03     178.292E-03
            5010            5159     247.415E-03     249.422E-03
            5010            5166     264.742E-03     255.849E-03
            5011            5159     247.415E-03     249.422E-03
            5011            5160     411.719E-03     413.369E-03
            5011            5166     264.742E-03     255.849E-03
            5011            5167     430.542E-03     419.517E-03
            5012            5160     411.719E-03     413.369E-03
            5012            5161     581.123E-03     582.297E-03
            5012            5167     430.542E-03     419.517E-03
            5012            5168     603.773E-03     589.928E-03
            5013            5161     581.123E-03     582.297E-03
            5013            5162     737.456E-03     728.513E-03
            5013            5168     603.773E-03     589.928E-03
            5013            5169     766.268E-03     736.784E-03
            5014            5162     737.456E-03     728.513E-03
            5014            5163     859.939E-03     837.352E-03
            5014            5169     766.268E-03     736.784E-03
            5014            5170     892.951E-03     842.610E-03
            5015            5163     859.939E-03     837.352E-03
            5015            5164     929.055E-03     922.513E-03
            5015            5170     892.951E-03     842.610E-03
            5015            5171     970.903E-03     934.760E-03
            5016            5164     929.055E-03     922.513E-03
            5016            5165     961.261E-03     960.268E-03
            5016            5171     970.903E-03     934.760E-03
            5016            5172         1.01897     992.410E-03
            5017             525         1.03922         1.00019
            5017             526     973.574E-03     957.506E-03
            5017            5165     961.261E-03     960.268E-03
            5017            5172         1.01897     992.410E-03
            5018             498     184.175E-03     178.292E-03
            5018             499     179.926E-03     163.311E-03
            5018            5166     264.742E-03     255.849E-03
            5018            5173     257.717E-03     243.424E-03
            5019            5166     264.742E-03     255.849E-03
            5019            5167     430.542E-03     419.517E-03
            5019            5173     257.717E-03     243.424E-03
            5019            5174     418.718E-03     404.360E-03
            5020            5167     430.542E-03     419.517E-03
            5020            5168     603.773E-03     589.928E-03
            5020            5174     418.718E-03     404.360E-03
            5020            5175     583.920E-03     564.753E-03
            5021            5168     603.773E-03     589.928E-03
            5021            5169     766.268E-03     736.784E-03
            5021            5175     583.920E-03     564.753E-03
            5021            5176     735.833E-03     707.666E-03
            5022            5169     766.268E-03     736.784E-03
            5022            5170     892.951E-03     842.610E-03
            5022            5176     735.833E-03     707.666E-03
            5022            5177     862.864E-03     830.962E-03
            5023            5170     892.951E-03     842.610E-03
            5023            5171     970.903E-03     934.760E-03
            5023            5177     862.864E-03     830.962E-03
            5023            5178     965.636E-03     940.574E-03
            5024            5171     970.903E-03     934.760E-03
            5024            5172         1.01897     992.410E-03
            5024            5178     965.636E-03     940.574E-03
            5024            5179         1.06041         1.02590
            5025             524         1.10686         1.05783
            5025             525         1.03922         1.00019
            5025            5172         1.01897     992.410E-03
            5025            5179         1.06041         1.02590
            5026             499     179.926E-03     163.311E-03
            5026             500     146.914E-03     143.567E-03
            5026            5173     257.717E-03     243.424E-03
            5026            5180     222.595E-03     237.623E-03
            5027            5173     257.717E-03     243.424E-03
            5027            5174     418.718E-03     404.360E-03
            5027            5180     222.595E-03     237.623E-03
            5027            5181     373.046E-03     414.761E-03
            5028            5174     418.718E-03     404.360E-03
            5028            5175     583.920E-03     564.753E-03
            5028            5181     373.046E-03     414.761E-03
            5028            5182     524.061E-03     585.010E-03
            5029            5175     583.920E-03     564.753E-03
            5029            5176     735.833E-03     707.666E-03
            5029            5182     524.061E-03     585.010E-03
            5029            5183     658.090E-03     737.854E-03
            5030            5176     735.833E-03     707.666E-03
            5030            5177     862.864E-03     830.962E-03
            5030            5183     658.090E-03     737.854E-03
            5030            5184     768.823E-03     880.087E-03
            5031            5177     862.864E-03     830.962E-03
            5031            5178     965.636E-03     940.574E-03
            5031            5184     768.823E-03     880.087E-03
            5031            5185     855.463E-03     995.011E-03
            5032            5178     965.636E-03     940.574E-03
            5032            5179         1.06041         1.02590
            5032            5185     855.463E-03     995.011E-03
            5032            5186     950.279E-03         1.06517
            5033             523         1.00786         1.09065
            5033             524         1.10686         1.05783
            5033            5179         1.06041         1.02590
            5033            5186     950.279E-03         1.06517
            5034              19     206.203E-03     197.449E-03
            5034             500     146.914E-03     143.567E-03
            5034             553     270.825E-03     278.939E-03
            5034            5180     222.595E-03     237.623E-03
            5035             553     270.825E-03     278.939E-03
            5035             554     403.422E-03     440.291E-03
            5035            5180     222.595E-03     237.623E-03
            5035            5181     373.046E-03     414.761E-03
            5036             554     403.422E-03     440.291E-03
            5036             555     543.489E-03     604.133E-03
            5036            5181     373.046E-03     414.761E-03
            5036            5182     524.061E-03     585.010E-03
            5037             555     543.489E-03     604.133E-03
            5037             556     671.966E-03     757.239E-03
            5037            5182     524.061E-03     585.010E-03
            5037            5183     658.090E-03     737.854E-03
            5038             556     671.966E-03     757.239E-03
            5038             557     779.236E-03     902.782E-03
            5038            5183     658.090E-03     737.854E-03
            5038            5184     768.823E-03     880.087E-03
            5039             557     779.236E-03     902.782E-03
            5039             558     863.688E-03         1.01935
            5039            5184     768.823E-03     880.087E-03
            5039            5185     855.463E-03     995.011E-03
            5040             558     863.688E-03         1.01935
            5040             559     966.780E-03         1.09421
            5040            5185     855.463E-03     995.011E-03
            5040            5186     950.279E-03         1.06517
            5041              20         1.03268         1.12422
            5041             523         1.00786         1.09065
            5041             559     966.780E-03         1.09421
            5041            5186     950.279E-03         1.06517
            5077              21     831.833E-03     934.039E-03
            5077             596     773.398E-03     928.262E-03
            5077             664     900.901E-03     891.831E-03
            5077            5211     851.612E-03     862.588E-03
            5078             595     686.864E-03     885.751E-03
            5078             596     773.398E-03     928.262E-03
            5078            5211     851.612E-03     862.588E-03
            5078            5212     773.964E-03     791.177E-03
            5079             594     627.195E-03     783.665E-03
            5079             595     686.864E-03     885.751E-03
            5079            5212     773.964E-03     791.177E-03
            5079            5213     708.028E-03     710.930E-03
            5080             593     553.909E-03     659.369E-03
            5080             594     627.195E-03     783.665E-03
            5080            5213     708.028E-03     710.930E-03
            5080            5214     617.746E-03     621.702E-03
            5081             592     467.878E-03     542.152E-03
            5081             593     553.909E-03     659.369E-03
            5081            5214     617.746E-03     621.702E-03
            5081            5215     511.246E-03     514.141E-03
            5082             591     379.758E-03     425.684E-03
            5082             592     467.878E-03     542.152E-03
            5082            5215     511.246E-03     514.141E-03
            5082            5216     406.661E-03     401.293E-03
            5083             590     306.705E-03     325.456E-03
            5083             591     379.758E-03     425.684E-03
            5083            5216     406.661E-03     401.293E-03
            5083            5217     320.913E-03     306.423E-03
            5084              24     278.182E-03     284.644E-03
            5084             590     306.705E-03     325.456E-03
            5084             659     287.076E-03     269.309E-03
            5084            5217     320.913E-03     306.423E-03
            5085             664     900.901E-03     891.831E-03
            5085             665     860.088E-03     761.674E-03
            5085            5211     851.612E-03     862.588E-03
            5085            5218     864.596E-03     763.464E-03
            5086            5211     851.612E-03     862.588E-03
            5086            5212     773.964E-03     791.177E-03
            5086            5218     864.596E-03     763.464E-03
            5086            5219     846.914E-03     728.605E-03
            5087            5212     773.964E-03     791.177E-03
            5087            5213     708.028E-03     710.930E-03
            5087            5219     846.914E-03     728.605E-03
            5087            5220     777.793E-03     666.852E-03
            5088            5213     708.028E-03     710.930E-03
            5088            5214     617.746E-03     621.702E-03
            5088            5220     777.793E-03     666.852E-03
            5088            5221     671.882E-03     596.711E-03
            5089            5214     617.746E-03     621.702E-03
            5089            5215     511.246E-03     514.141E-03
            5089            5221     671.882E-03     596.711E-03
            5089            5222     550.196E-03     498.916E-03
            5090            5215     511.246E-03     514.141E-03
            5090            5216     406.661E-03     401.293E-03
            5090            5222     550.196E-03     498.916E-03
            5090            5223     428.459E-03     395.909E-03
            5091            5216     406.661E-03     401.293E-03
            5091            5217     320.913E-03     306.423E-03
            5091            5223     428.459E-03     395.909E-03
            5091            5224     326.609E-03     312.567E-03
            5092             658     285.142E-03     280.485E-03
            5092             659     287.076E-03     269.309E-03
            5092            5217     320.913E-03     306.423E-03
            5092            5224     326.609E-03     312.567E-03
            5093             665     860.088E-03     761.674E-03
            5093             666     729.845E-03     727.659E-03
            5093            5218     864.596E-03     763.464E-03
            5093            5225     732.291E-03     748.568E-03
            5094            5218     864.596E-03     763.464E-03
            5094            5219     846.914E-03     728.605E-03
            5094            5225     732.291E-03     748.568E-03
            5094            5226     715.081E-03     741.649E-03
            5095            5219     846.914E-03     728.605E-03
            5095            5220     777.793E-03     666.852E-03
            5095            5226     715.081E-03     741.649E-03
            5095            5227     658.747E-03     672.845E-03
            5096            5220     777.793E-03     666.852E-03
            5096            5221     671.882E-03     596.711E-03
            5096            5227     658.747E-03     672.845E-03
            5096            5228     578.231E-03     587.160E-03
            5097            5221     671.882E-03     596.711E-03
            5097            5222     550.196E-03     498.916E-03
            5097            5228     578.231E-03     587.160E-03
            5097            5229     484.509E-03     493.837E-03
            5098            5222     550.196E-03     498.916E-03
            5098            5223     428.459E-03     395.909E-03
            5098            5229     484.509E-03     493.837E-03
            5098            5230     386.486E-03     397.961E-03
            5099            5223     428.459E-03     395.909E-03
            5099            5224     326.609E-03     312.567E-03
            5099            5230     386.486E-03     397.961E-03
            5099            5231     305.720E-03     319.212E-03
            5100             657     274.007E-03     288.588E-03
            5100             658     285.142E-03     280.485E-03
            5100            5224     326.609E-03     312.567E-03
            5100            5231     305.720E-03     319.212E-03
            5101             666     729.845E-03     727.659E-03
            5101             667     746.416E-03     832.457E-03
            5101            5225     732.291E-03     748.568E-03
            5101            5232     698.229E-03     828.121E-03
            5102            5225     732.291E-03     748.568E-03
            5102            5226     715.081E-03     741.649E-03
            5102            5232     698.229E-03     828.121E-03
            5102            5233     622.045E-03     793.243E-03
            5103            5226     715.081E-03     741.649E-03
            5103            5227     658.747E-03     672.845E-03
            5103            5233     622.045E-03     793.243E-03
            5103            5234     565.471E-03     705.270E-03
            5104            5227     658.747E-03     672.845E-03
            5104            5228     578.231E-03     587.160E-03
            5104            5234     565.471E-03     705.270E-03
            5104            5235     501.567E-03     593.679E-03
            5105            5228     578.231E-03     587.160E-03
            5105            5229     484.509E-03     493.837E-03
            5105            5235     501.567E-03     593.679E-03
            5105            5236     429.048E-03     489.043E-03
            5106            5229     484.509E-03     493.837E-03
            5106            5230     386.486E-03     397.961E-03
            5106            5236     429.048E-03     489.043E-03
            5106            5237     356.127E-03     390.649E-03
            5107            5230     386.486E-03     397.961E-03
            5107            5231     305.720E-03     319.212E-03
            5107            5237     356.127E-03     390.649E-03
            5107            5238     298.926E-03     310.764E-03
            5108             656     277.985E-03     279.722E-03
            5108             657     274.007E-03     288.588E-03
            5108            5231     305.720E-03     319.212E-03
            5108            5238     298.926E-03     310.764E-03
            5109             667     746.416E-03     832.457E-03
            5109             668     866.151E-03     840.360E-03
            5109            5232     698.229E-03     828.121E-03
            5109            5239     822.544E-03     810.688E-03
            5110            5232     698.229E-03     828.121E-03
            5110            5233     622.045E-03     793.243E-03
            5110            5239     822.544E-03     810.688E-03
            5110            5240     741.373E-03     738.400E-03
            5111            5233     622.045E-03     793.243E-03
            5111            5234     565.471E-03     705.270E-03
            5111            5240     741.373E-03     738.400E-03
            5111            5241     665.489E-03     652.011E-03
            5112            5234     565.471E-03     705.270E-03
            5112            5235     501.567E-03     593.679E-03
            5112            5241     665.489E-03     652.011E-03
            5112            5242     577.478E-03     558.262E-03
            5113            5235     501.567E-03     593.679E-03
            5113            5236     429.048E-03     489.043E-03
            5113            5242     577.478E-03     558.262E-03
            5113            5243     479.469E-03     462.403E-03
            5114            5236     429.048E-03     489.043E-03
            5114            5237     356.127E-03     390.649E-03
            5114            5243     479.469E-03     462.403E-03
            5114            5244     386.817E-03     373.590E-03
            5115            5237     356.127E-03     390.649E-03
            5115            5238     298.926E-03     310.764E-03
            5115            5244     386.817E-03     373.590E-03
            5115            5245     314.678E-03     302.176E-03
            5116             655     287.675E-03     274.534E-03
            5116             656     277.985E-03     279.722E-03
            5116            5238     298.926E-03     310.764E-03
            5116            5245     314.678E-03     302.176E-03
            5117             668     866.151E-03     840.360E-03
            5117             669     803.414E-03     757.382E-03
            5117            5239     822.544E-03     810.688E-03
            5117            5246     790.133E-03     743.516E-03
            5118            5239     822.544E-03     810.688E-03
            5118            5240     741.373E-03     738.400E-03
            5118            5246     790.133E-03     743.516E-03
            5118            5247     746.167E-03     686.846E-03
            5119            5240     741.373E-03     738.400E-03
            5119            5241     665.489E-03     652.011E-03
            5119            5247     746.167E-03     686.846E-03
            5119            5248     678.639E-03     610.395E-03
            5120            5241     665.489E-03     652.011E-03
            5120            5242     577.478E-03     558.262E-03
            5120            5248     678.639E-03     610.395E-03
            5120            5249     594.418E-03     539.090E-03
            5121            5242     577.478E-03     558.262E-03
            5121            5243     479.469E-03     462.403E-03
            5121            5249     594.418E-03     539.090E-03
            5121            5250     494.192E-03     460.423E-03
            5122            5243     479.469E-03     462.403E-03
            5122            5244     386.817E-03     373.590E-03
            5122            5250     494.192E-03     460.423E-03
            5122            5251     394.829E-03     380.293E-03
            5123            5244     386.817E-03     373.590E-03
            5123            5245     314.678E-03     302.176E-03
            5123            5251     394.829E-03     380.293E-03
            5123            5252     318.187E-03     314.284E-03
            5124             654     288.900E-03     288.045E-03
            5124             655     287.675E-03     274.534E-03
            5124            5245     314.678E-03     302.176E-03
            5124            5252     318.187E-03     314.284E-03
            5125             669     803.414E-03     757.382E-03
            5125             670     695.823E-03     725.250E-03
            5125            5246     790.133E-03     743.516E-03
            5125            5253     666.492E-03     719.361E-03
            5126            5246     790.133E-03     743.516E-03
            5126            5247     746.167E-03     686.846E-03
            5126            5253     666.492E-03     719.361E-03
            5126            5254     615.812E-03     682.294E-03
            5127            5247     746.167E-03     686.846E-03
            5127            5248     678.639E-03     610.395E-03
            5127            5254     615.812E-03     682.294E-03
            5127            5255     571.139E-03     613.244E-03
            5128            5248     678.639E-03     610.395E-03
            5128            5249     594.418E-03     539.090E-03
            5128            5255     571.139E-03     613.244E-03
            5128            5256     515.869E-03     540.579E-03
            5129            5249     594.418E-03     539.090E-03
            5129            5250     494.192E-03     460.423E-03
            5129            5256     515.869E-03     540.579E-03
            5129            5257     443.463E-03     465.091E-03
            5130            5250     494.192E-03     460.423E-03
            5130            5251     394.829E-03     380.293E-03
            5130            5257     443.463E-03     465.091E-03
            5130            5258     365.122E-03     383.413E-03
            5131            5251     394.829E-03     380.293E-03
            5131            5252     318.187E-03     314.284E-03
            5131            5258     365.122E-03     383.413E-03
            5131            5259     304.488E-03     314.221E-03
            5132             653     282.252E-03     286.671E-03
            5132             654     288.900E-03     288.045E-03
            5132            5252     318.187E-03     314.284E-03
            5132            5259     304.488E-03     314.221E-03
            5133             670     695.823E-03     725.250E-03
            5133             671     663.700E-03     651.155E-03
            5133            5253     666.492E-03     719.361E-03
            5133            5260     639.893E-03     640.402E-03
            5134            5253     666.492E-03     719.361E-03
            5134            5254     615.812E-03     682.294E-03
            5134            5260     639.893E-03     640.402E-03
            5134            5261     593.579E-03     602.697E-03
            5135            5254     615.812E-03     682.294E-03
            5135            5255     571.139E-03     613.244E-03
            5135            5261     593.579E-03     602.697E-03
            5135            5262     550.418E-03     548.207E-03
            5136            5255     571.139E-03     613.244E-03
            5136            5256     515.869E-03     540.579E-03
            5136            5262     550.418E-03     548.207E-03
            5136            5263     501.411E-03     492.527E-03
            5137            5256     515.869E-03     540.579E-03
            5137            5257     443.463E-03     465.091E-03
            5137            5263     501.411E-03     492.527E-03
            5137            5264     436.382E-03     432.301E-03
            5138            5257     443.463E-03     465.091E-03
            5138            5258     365.122E-03     383.413E-03
            5138            5264     436.382E-03     432.301E-03
            5138            5265     364.273E-03     365.629E-03
            5139            5258     365.122E-03     383.413E-03
            5139            5259     304.488E-03     314.221E-03
            5139            5265     364.273E-03     365.629E-03
            5139            5266     307.378E-03     307.588E-03
            5140             652     286.340E-03     284.573E-03
            5140             653     282.252E-03     286.671E-03
            5140            5259     304.488E-03     314.221E-03
            5140            5266     307.378E-03     307.588E-03
            5141             671     663.700E-03     651.155E-03
            5141             672     609.515E-03     612.741E-03
            5141            5260     639.893E-03     640.402E-03
            5141            5267     589.492E-03     602.972E-03
            5142            5260     639.893E-03     640.402E-03
            5142            5261     593.579E-03     602.697E-03
            5142            5267     589.492E-03     602.972E-03
            5142            5268     554.787E-03     568.406E-03
            5143            5261     593.579E-03     602.697E-03
            5143            5262     550.418E-03     548.207E-03
            5143            5268     554.787E-03     568.406E-03
            5143            5269     522.382E-03     519.573E-03
            5144            5262     550.418E-03     548.207E-03
            5144            5263     501.411E-03     492.527E-03
            5144            5269     522.382E-03     519.573E-03
            5144            5270     479.297E-03     471.830E-03
            5145            5263     501.411E-03     492.527E-03
            5145            5264     436.382E-03     432.301E-03
            5145            5270     479.297E-03     471.830E-03
            5145            5271     420.656E-03     418.024E-03
            5146            5264     436.382E-03     432.301E-03
            5146            5265     364.273E-03     365.629E-03
            5146            5271     420.656E-03     418.024E-03
            5146            5272     356.250E-03     357.228E-03
            5147            5265     364.273E-03     365.629E-03
            5147            5266     307.378E-03     307.588E-03
            5147            5272     356.250E-03     357.228E-03
            5147            5273     305.854E-03     306.350E-03
            5148             651     286.874E-03     286.482E-03
            5148             652     286.340E-03     284.573E-03
            5148            5266     307.378E-03     307.588E-03
            5148            5273     305.854E-03     306.350E-03
            5149             672     609.515E-03     612.741E-03
            5149             673     564.269E-03     558.650E-03
            5149            5267     589.492E-03     602.972E-03
            5149            5274     544.983E-03     552.374E-03
            5150            5267     589.492E-03     602.972E-03
            5150            5268     554.787E-03     568.406E-03
            5150            5274     544.983E-03     552.374E-03
            5150            5275     512.688E-03     527.254E-03
            5151            5268     554.787E-03     568.406E-03
            5151            5269     522.382E-03     519.573E-03
            5151            5275     512.688E-03     527.254E-03
            5151            5276     486.500E-03     490.746E-03
            5152            5269     522.382E-03     519.573E-03
            5152            5270     479.297E-03     471.830E-03
            5152            5276     486.500E-03     490.746E-03
            5152            5277     450.038E-03     451.186E-03
            5153            5270     479.297E-03     471.830E-03
            5153            5271     420.656E-03     418.024E-03
            5153            5277     450.038E-03     451.186E-03
            5153            5278     398.588E-03     400.956E-03
            5154            5271     420.656E-03     418.024E-03
            5154            5272     356.250E-03     357.228E-03
            5154            5278     398.588E-03     400.956E-03
            5154            5279     344.631E-03     345.862E-03
            5155            5272     356.250E-03     357.228E-03
            5155            5273     305.854E-03     306.350E-03
            5155            5279     344.631E-03     345.862E-03
            5155            5280     302.832E-03     303.055E-03
            5156             650     286.982E-03     287.199E-03
            5156             651     286.874E-03     286.482E-03
            5156            5273     305.854E-03     306.350E-03
            5156            5280     302.832E-03     303.055E-03
            5157             673     564.269E-03     558.650E-03
            5157             674     509.497E-03     516.696E-03
            5157            5274     544.983E-03     552.374E-03
            5157            5281     494.816E-03     517.762E-03
            5158            5274     544.983E-03     552.374E-03
            5158            5275     512.688E-03     527.254E-03
            5158            5281     494.816E-03     517.762E-03
            5158            5282     474.035E-03     506.168E-03
            5159            5275     512.688E-03     527.254E-03
            5159            5276     486.500E-03     490.746E-03
            5159            5282     474.035E-03     506.168E-03
            5159            5283     455.833E-03     477.812E-03
            5160            5276     486.500E-03     490.746E-03
            5160            5277     450.038E-03     451.186E-03
            5160            5283     455.833E-03     477.812E-03
            5160            5284     422.446E-03     438.489E-03
            5161            5277     450.038E-03     451.186E-03
            5161            5278     398.588E-03     400.956E-03
            5161            5284     422.446E-03     438.489E-03
            5161            5285     377.664E-03     387.009E-03
            5162            5278     398.588E-03     400.956E-03
            5162            5279     344.631E-03     345.862E-03
            5162            5285     377.664E-03     387.009E-03
            5162            5286     334.161E-03     336.260E-03
            5163            5279     344.631E-03     345.862E-03
            5163            5280     302.832E-03     303.055E-03
            5163            5286     334.161E-03     336.260E-03
            5163            5287     301.574E-03     300.014E-03
            5164             649     289.024E-03     286.736E-03
            5164             650     286.982E-03     287.199E-03
            5164            5280     302.832E-03     303.055E-03
            5164            5287     301.574E-03     300.014E-03
            5165             674     509.497E-03     516.696E-03
            5165             675     478.224E-03     453.479E-03
            5165            5281     494.816E-03     517.762E-03
            5165            5288     483.408E-03     465.920E-03
            5166            5281     494.816E-03     517.762E-03
            5166            5282     474.035E-03     506.168E-03
            5166            5288     483.408E-03     465.920E-03
            5166            5289     485.447E-03     470.070E-03
            5167            5282     474.035E-03     506.168E-03
            5167            5283     455.833E-03     477.812E-03
            5167            5289     485.447E-03     470.070E-03
            5167            5290     462.878E-03     446.370E-03
            5168            5283     455.833E-03     477.812E-03
            5168            5284     422.446E-03     438.489E-03
            5168            5290     462.878E-03     446.370E-03
            5168            5291     418.164E-03     407.047E-03
            5169            5284     422.446E-03     438.489E-03
            5169            5285     377.664E-03     387.009E-03
            5169            5291     418.164E-03     407.047E-03
            5169            5292     370.381E-03     360.705E-03
            5170            5285     377.664E-03     387.009E-03
            5170            5286     334.161E-03     336.260E-03
            5170            5292     370.381E-03     360.705E-03
            5170            5293     329.100E-03     321.079E-03
            5171            5286     334.161E-03     336.260E-03
            5171            5287     301.574E-03     300.014E-03
            5171            5293     329.100E-03     321.079E-03
            5171            5294     298.916E-03     294.256E-03
            5172             648     287.462E-03     284.598E-03
            5172             649     289.024E-03     286.736E-03
            5172            5287     301.574E-03     300.014E-03
            5172            5294     298.916E-03     294.256E-03
            5173             675     478.224E-03     453.479E-03
            5173             676     433.808E-03     405.089E-03
            5173            5288     483.408E-03     465.920E-03
            5173            5295     451.722E-03     434.819E-03
            5174            5288     483.408E-03     465.920E-03
            5174            5289     485.447E-03     470.070E-03
            5174            5295     451.722E-03     434.819E-03
            5174            5296     458.731E-03     456.189E-03
            5175            5289     485.447E-03     470.070E-03
            5175            5290     462.878E-03     446.370E-03
            5175            5296     458.731E-03     456.189E-03
            5175            5297     427.072E-03     424.825E-03
            5176            5290     462.878E-03     446.370E-03
            5176            5291     418.164E-03     407.047E-03
            5176            5297     427.072E-03     424.825E-03
            5176            5298     385.235E-03     377.906E-03
            5177            5291     418.164E-03     407.047E-03
            5177            5292     370.381E-03     360.705E-03
            5177            5298     385.235E-03     377.906E-03
            5177            5299     346.728E-03     337.854E-03
            5178            5292     370.381E-03     360.705E-03
            5178            5293     329.100E-03     321.079E-03
            5178            5299     346.728E-03     337.854E-03
            5178            5300     315.918E-03     311.251E-03
            5179            5293     329.100E-03     321.079E-03
            5179            5294     298.916E-03     294.256E-03
            5179            5300     315.918E-03     311.251E-03
            5179            5301     294.245E-03     295.199E-03
            5180             647     285.819E-03     289.450E-03
            5180             648     287.462E-03     284.598E-03
            5180            5294     298.916E-03     294.256E-03
            5180            5301     294.245E-03     295.199E-03
            5181             676     433.808E-03     405.089E-03
            5181             677     456.497E-03     512.156E-03
            5181            5295     451.722E-03     434.819E-03
            5181            5302     429.215E-03     516.384E-03
            5182            5295     451.722E-03     434.819E-03
            5182            5296     458.731E-03     456.189E-03
            5182            5302     429.215E-03     516.384E-03
            5182            5303     387.851E-03     505.549E-03
            5183            5296     458.731E-03     456.189E-03
            5183            5297     427.072E-03     424.825E-03
            5183            5303     387.851E-03     505.549E-03
            5183            5304     361.849E-03     456.773E-03
            5184            5297     427.072E-03     424.825E-03
            5184            5298     385.235E-03     377.906E-03
            5184            5304     361.849E-03     456.773E-03
            5184            5305     337.097E-03     394.924E-03
            5185            5298     385.235E-03     377.906E-03
            5185            5299     346.728E-03     337.854E-03
            5185            5305     337.097E-03     394.924E-03
            5185            5306     315.032E-03     346.388E-03
            5186            5299     346.728E-03     337.854E-03
            5186            5300     315.918E-03     311.251E-03
            5186            5306     315.032E-03     346.388E-03
            5186            5307     297.847E-03     311.506E-03
            5187            5300     315.918E-03     311.251E-03
            5187            5301     294.245E-03     295.199E-03
            5187            5307     297.847E-03     311.506E-03
            5187            5308     285.921E-03     289.137E-03
            5188             646     281.761E-03     281.159E-03
            5188             647     285.819E-03     289.450E-03
            5188            5301     294.245E-03     295.199E-03
            5188            5308     285.921E-03     289.137E-03
            5189             677     456.497E-03     512.156E-03
            5189             678     546.469E-03     534.491E-03
            5189            5302     429.215E-03     516.384E-03
            5189            5309     512.464E-03     507.471E-03
            5190            5302     429.215E-03     516.384E-03
            5190            5303     387.851E-03     505.549E-03
            5190            5309     512.464E-03     507.471E-03
            5190            5310     456.458E-03     455.564E-03
            5191            5303     387.851E-03     505.549E-03
            5191            5304     361.849E-03     456.773E-03
            5191            5310     456.458E-03     455.564E-03
            5191            5311     418.641E-03     411.422E-03
            5192            5304     361.849E-03     456.773E-03
            5192            5305     337.097E-03     394.924E-03
            5192            5311     418.641E-03     411.422E-03
            5192            5312     382.431E-03     371.464E-03
            5193            5305     337.097E-03     394.924E-03
            5193            5306     315.032E-03     346.388E-03
            5193            5312     382.431E-03     371.464E-03
            5193            5313     344.940E-03     334.425E-03
            5194            5306     315.032E-03     346.388E-03
            5194            5307     297.847E-03     311.506E-03
            5194            5313     344.940E-03     334.425E-03
            5194            5314     313.334E-03     304.147E-03
            5195            5307     297.847E-03     311.506E-03
            5195            5308     285.921E-03     289.137E-03
            5195            5314     313.334E-03     304.147E-03
            5195            5315     290.855E-03     282.270E-03
            5196             645     282.788E-03     274.262E-03
            5196             646     281.761E-03     281.159E-03
            5196            5308     285.921E-03     289.137E-03
            5196            5315     290.855E-03     282.270E-03
            5197             678     546.469E-03     534.491E-03
            5197             679     488.816E-03     461.177E-03
            5197            5309     512.464E-03     507.471E-03
            5197            5316     480.398E-03     449.776E-03
            5198            5309     512.464E-03     507.471E-03
            5198            5310     456.458E-03     455.564E-03
            5198            5316     480.398E-03     449.776E-03
            5198            5317     453.830E-03     414.389E-03
            5199            5310     456.458E-03     455.564E-03
            5199            5311     418.641E-03     411.422E-03
            5199            5317     453.830E-03     414.389E-03
            5199            5318     419.626E-03     376.570E-03
            5200            5311     418.641E-03     411.422E-03
            5200            5312     382.431E-03     371.464E-03
            5200            5318     419.626E-03     376.570E-03
            5200            5319     385.822E-03     351.116E-03
            5201            5312     382.431E-03     371.464E-03
            5201            5313     344.940E-03     334.425E-03
            5201            5319     385.822E-03     351.116E-03
            5201            5320     349.005E-03     327.884E-03
            5202            5313     344.940E-03     334.425E-03
            5202            5314     313.334E-03     304.147E-03
            5202            5320     349.005E-03     327.884E-03
            5202            5321     315.329E-03     306.368E-03
            5203            5314     313.334E-03     304.147E-03
            5203            5315     290.855E-03     282.270E-03
            5203            5321     315.329E-03     306.368E-03
            5203            5322     292.098E-03     289.900E-03
            5204             644     283.365E-03     283.156E-03
            5204             645     282.788E-03     274.262E-03
            5204            5315     290.855E-03     282.270E-03
            5204            5322     292.098E-03     289.900E-03
            5205             679     488.816E-03     461.177E-03
            5205             680     401.654E-03     422.783E-03
            5205            5316     480.398E-03     449.776E-03
            5205            5323     385.510E-03     419.259E-03
            5206            5316     480.398E-03     449.776E-03
            5206            5317     453.830E-03     414.389E-03
            5206            5323     385.510E-03     419.259E-03
            5206            5324     359.923E-03     401.475E-03
            5207            5317     453.830E-03     414.389E-03
            5207            5318     419.626E-03     376.570E-03
            5207            5324     359.923E-03     401.475E-03
            5207            5325     343.855E-03     371.145E-03
            5208            5318     419.626E-03     376.570E-03
            5208            5319     385.822E-03     351.116E-03
            5208            5325     343.855E-03     371.145E-03
            5208            5326     330.444E-03     345.007E-03
            5209            5319     385.822E-03     351.116E-03
            5209            5320     349.005E-03     327.884E-03
            5209            5326     330.444E-03     345.007E-03
            5209            5327     314.346E-03     325.000E-03
            5210            5320     349.005E-03     327.884E-03
            5210            5321     315.329E-03     306.368E-03
            5210            5327     314.346E-03     325.000E-03
            5210            5328     296.562E-03     305.157E-03
            5211            5321     315.329E-03     306.368E-03
            5211            5322     292.098E-03     289.900E-03
            5211            5328     296.562E-03     305.157E-03
            5211            5329     283.712E-03     288.743E-03
            5212             643     279.101E-03     282.021E-03
            5212             644     283.365E-03     283.156E-03
            5212            5322     292.098E-03     289.900E-03
            5212            5329     283.712E-03     288.743E-03
            5213             680     401.654E-03     422.783E-03
            5213             681     365.952E-03     357.801E-03
            5213            5323     385.510E-03     419.259E-03
            5213            5330     354.037E-03     352.113E-03
            5214            5323     385.510E-03     419.259E-03
            5214            5324     359.923E-03     401.475E-03
            5214            5330     354.037E-03     352.113E-03
            5214            5331     334.294E-03     336.830E-03
            5215            5324     359.923E-03     401.475E-03
            5215            5325     343.855E-03     371.145E-03
            5215            5331     334.294E-03     336.830E-03
            5215            5332     322.829E-03     320.383E-03
            5216            5325     343.855E-03     371.145E-03
            5216            5326     330.444E-03     345.007E-03
            5216            5332     322.829E-03     320.383E-03
            5216            5333     315.444E-03     309.582E-03
            5217            5326     330.444E-03     345.007E-03
            5217            5327     314.346E-03     325.000E-03
            5217            5333     315.444E-03     309.582E-03
            5217            5334     305.866E-03     302.175E-03
            5218            5327     314.346E-03     325.000E-03
            5218            5328     296.562E-03     305.157E-03
            5218            5334     305.866E-03     302.175E-03
            5218            5335     294.084E-03     293.654E-03
            5219            5328     296.562E-03     305.157E-03
            5219            5329     283.712E-03     288.743E-03
            5219            5335     294.084E-03     293.654E-03
            5219            5336     284.889E-03     284.639E-03
            5220             642     281.363E-03     280.398E-03
            5220             643     279.101E-03     282.021E-03
            5220            5329     283.712E-03     288.743E-03
            5220            5336     284.889E-03     284.639E-03
            5221             681     365.952E-03     357.801E-03
            5221             682     315.223E-03     318.065E-03
            5221            5330     354.037E-03     352.113E-03
            5221            5337     305.950E-03     312.841E-03
            5222            5330     354.037E-03     352.113E-03
            5222            5331     334.294E-03     336.830E-03
            5222            5337     305.950E-03     312.841E-03
            5222            5338     295.028E-03     301.159E-03
            5223            5331     334.294E-03     336.830E-03
            5223            5332     322.829E-03     320.383E-03
            5223            5338     295.028E-03     301.159E-03
            5223            5339     294.225E-03     292.779E-03
            5224            5332     322.829E-03     320.383E-03
            5224            5333     315.444E-03     309.582E-03
            5224            5339     294.225E-03     292.779E-03
            5224            5340     295.005E-03     291.676E-03
            5225            5333     315.444E-03     309.582E-03
            5225            5334     305.866E-03     302.175E-03
            5225            5340     295.005E-03     291.676E-03
            5225            5341     292.585E-03     291.511E-03
            5226            5334     305.866E-03     302.175E-03
            5226            5335     294.084E-03     293.654E-03
            5226            5341     292.585E-03     291.511E-03
            5226            5342     287.756E-03     288.189E-03
            5227            5335     294.084E-03     293.654E-03
            5227            5336     284.889E-03     284.639E-03
            5227            5342     287.756E-03     288.189E-03
            5227            5343     283.725E-03     283.809E-03
            5228             641     281.834E-03     281.423E-03
            5228             642     281.363E-03     280.398E-03
            5228            5336     284.889E-03     284.639E-03
            5228            5343     283.725E-03     283.809E-03
            5229             682     315.223E-03     318.065E-03
            5229             683     271.380E-03     269.871E-03
            5229            5337     305.950E-03     312.841E-03
            5229            5344     261.306E-03     267.756E-03
            5230            5337     305.950E-03     312.841E-03
            5230            5338     295.028E-03     301.159E-03
            5230            5344     261.306E-03     267.756E-03
            5230            5345     253.494E-03     264.208E-03
            5231            5338     295.028E-03     301.159E-03
            5231            5339     294.225E-03     292.779E-03
            5231            5345     253.494E-03     264.208E-03
            5231            5346     262.313E-03     266.380E-03
            5232            5339     294.225E-03     292.779E-03
            5232            5340     295.005E-03     291.676E-03
            5232            5346     262.313E-03     266.380E-03
            5232            5347     272.279E-03     274.450E-03
            5233            5340     295.005E-03     291.676E-03
            5233            5341     292.585E-03     291.511E-03
            5233            5347     272.279E-03     274.450E-03
            5233            5348     277.498E-03     280.325E-03
            5234            5341     292.585E-03     291.511E-03
            5234            5342     287.756E-03     288.189E-03
            5234            5348     277.498E-03     280.325E-03
            5234            5349     280.540E-03     281.636E-03
            5235            5342     287.756E-03     288.189E-03
            5235            5343     283.725E-03     283.809E-03
            5235            5349     280.540E-03     281.636E-03
            5235            5350     282.180E-03     281.561E-03
            5236             640     282.205E-03     281.204E-03
            5236             641     281.834E-03     281.423E-03
            5236            5343     283.725E-03     283.809E-03
            5236            5350     282.180E-03     281.561E-03
            5237             683     271.380E-03     269.871E-03
            5237             684     224.008E-03     224.027E-03
            5237            5344     261.306E-03     267.756E-03
            5237            5351     219.901E-03     223.035E-03
            5238            5344     261.306E-03     267.756E-03
            5238            5345     253.494E-03     264.208E-03
            5238            5351     219.901E-03     223.035E-03
            5238            5352     223.095E-03     225.593E-03
            5239            5345     253.494E-03     264.208E-03
            5239            5346     262.313E-03     266.380E-03
            5239            5352     223.095E-03     225.593E-03
            5239            5353     239.136E-03     239.032E-03
            5240            5346     262.313E-03     266.380E-03
            5240            5347     272.279E-03     274.450E-03
            5240            5353     239.136E-03     239.032E-03
            5240            5354     254.469E-03     256.398E-03
            5241            5347     272.279E-03     274.450E-03
            5241            5348     277.498E-03     280.325E-03
            5241            5354     254.469E-03     256.398E-03
            5241            5355     266.244E-03     267.643E-03
            5242            5348     277.498E-03     280.325E-03
            5242            5349     280.540E-03     281.636E-03
            5242            5355     266.244E-03     267.643E-03
            5242            5356     275.536E-03     274.624E-03
            5243            5349     280.540E-03     281.636E-03
            5243            5350     282.180E-03     281.561E-03
            5243            5356     275.536E-03     274.624E-03
            5243            5357     281.423E-03     279.639E-03
            5244             639     282.780E-03     281.030E-03
            5244             640     282.205E-03     281.204E-03
            5244            5350     282.180E-03     281.561E-03
            5244            5357     281.423E-03     279.639E-03
            5245             684     224.008E-03     224.027E-03
            5245             685     177.154E-03     173.871E-03
            5245            5351     219.901E-03     223.035E-03
            5245            5358     177.841E-03     179.638E-03
            5246            5351     219.901E-03     223.035E-03
            5246            5352     223.095E-03     225.593E-03
            5246            5358     177.841E-03     179.638E-03
            5246            5359     190.870E-03     196.998E-03
            5247            5352     223.095E-03     225.593E-03
            5247            5353     239.136E-03     239.032E-03
            5247            5359     190.870E-03     196.998E-03
            5247            5360     214.975E-03     221.445E-03
            5248            5353     239.136E-03     239.032E-03
            5248            5354     254.469E-03     256.398E-03
            5248            5360     214.975E-03     221.445E-03
            5248            5361     236.151E-03     242.141E-03
            5249            5354     254.469E-03     256.398E-03
            5249            5355     266.244E-03     267.643E-03
            5249            5361     236.151E-03     242.141E-03
            5249            5362     254.961E-03     256.827E-03
            5250            5355     266.244E-03     267.643E-03
            5250            5356     275.536E-03     274.624E-03
            5250            5362     254.961E-03     256.827E-03
            5250            5363     270.822E-03     269.395E-03
            5251            5356     275.536E-03     274.624E-03
            5251            5357     281.423E-03     279.639E-03
            5251            5363     270.822E-03     269.395E-03
            5251            5364     280.428E-03     278.427E-03
            5252             638     283.136E-03     281.296E-03
            5252             639     282.780E-03     281.030E-03
            5252            5357     281.423E-03     279.639E-03
            5252            5364     280.428E-03     278.427E-03
            5253             685     177.154E-03     173.871E-03
            5253             686     124.981E-03     121.632E-03
            5253            5358     177.841E-03     179.638E-03
            5253            5365     140.493E-03     139.867E-03
            5254            5358     177.841E-03     179.638E-03
            5254            5359     190.870E-03     196.998E-03
            5254            5365     140.493E-03     139.867E-03
            5254            5366     171.106E-03     175.919E-03
            5255            5359     190.870E-03     196.998E-03
            5255            5360     214.975E-03     221.445E-03
            5255            5366     171.106E-03     175.919E-03
            5255            5367     196.808E-03     205.420E-03
            5256            5360     214.975E-03     221.445E-03
            5256            5361     236.151E-03     242.141E-03
            5256            5367     196.808E-03     205.420E-03
            5256            5368     220.710E-03     226.933E-03
            5257            5361     236.151E-03     242.141E-03
            5257            5362     254.961E-03     256.827E-03
            5257            5368     220.710E-03     226.933E-03
            5257            5369     246.052E-03     246.464E-03
            5258            5362     254.961E-03     256.827E-03
            5258            5363     270.822E-03     269.395E-03
            5258            5369     246.052E-03     246.464E-03
            5258            5370     266.862E-03     264.337E-03
            5259            5363     270.822E-03     269.395E-03
            5259            5364     280.428E-03     278.427E-03
            5259            5370     266.862E-03     264.337E-03
            5259            5371     279.634E-03     276.759E-03
            5260             637     283.177E-03     280.571E-03
            5260             638     283.136E-03     281.296E-03
            5260            5364     280.428E-03     278.427E-03
            5260            5371     279.634E-03     276.759E-03
            5261             686     124.981E-03     121.632E-03
            5261             687     83.5397E-03     71.5078E-03
            5261            5365     140.493E-03     139.867E-03
            5261            5372     115.656E-03     108.030E-03
            5262            5365     140.493E-03     139.867E-03
            5262            5366     171.106E-03     175.919E-03
            5262            5372     115.656E-03     108.030E-03
            5262            5373     158.378E-03     160.212E-03
            5263            5366     171.106E-03     175.919E-03
            5263            5367     196.808E-03     205.420E-03
            5263            5373     158.378E-03     160.212E-03
            5263            5374     181.743E-03     187.072E-03
            5264            5367     196.808E-03     205.420E-03
            5264            5368     220.710E-03     226.933E-03
            5264            5374     181.743E-03     187.072E-03
            5264            5375     209.770E-03     211.060E-03
            5265            5368     220.710E-03     226.933E-03
            5265            5369     246.052E-03     246.464E-03
            5265            5375     209.770E-03     211.060E-03
            5265            5376     239.215E-03     237.087E-03
            5266            5369     246.052E-03     246.464E-03
            5266            5370     266.862E-03     264.337E-03
            5266            5376     239.215E-03     237.087E-03
            5266            5377     263.254E-03     260.490E-03
            5267            5370     266.862E-03     264.337E-03
            5267            5371     279.634E-03     276.759E-03
            5267            5377     263.254E-03     260.490E-03
            5267            5378     277.876E-03     275.903E-03
            5268             636     282.190E-03     280.735E-03
            5268             637     283.177E-03     280.571E-03
            5268            5371     279.634E-03     276.759E-03
            5268            5378     277.876E-03     275.903E-03
            5269             687     83.5397E-03     71.5078E-03
            5269             688     113.836E-03     129.845E-03
            5269            5372     115.656E-03     108.030E-03
            5269            5379     117.206E-03     139.358E-03
            5270            5372     115.656E-03     108.030E-03
            5270            5373     158.378E-03     160.212E-03
            5270            5379     117.206E-03     139.358E-03
            5270            5380     133.508E-03     157.879E-03
            5271            5373     158.378E-03     160.212E-03
            5271            5374     181.743E-03     187.072E-03
            5271            5380     133.508E-03     157.879E-03
            5271            5381     166.260E-03     180.581E-03
            5272            5374     181.743E-03     187.072E-03
            5272            5375     209.770E-03     211.060E-03
            5272            5381     166.260E-03     180.581E-03
            5272            5382     200.928E-03     206.697E-03
            5273            5375     209.770E-03     211.060E-03
            5273            5376     239.215E-03     237.087E-03
            5273            5382     200.928E-03     206.697E-03
            5273            5383     230.736E-03     232.256E-03
            5274            5376     239.215E-03     237.087E-03
            5274            5377     263.254E-03     260.490E-03
            5274            5383     230.736E-03     232.256E-03
            5274            5384     254.895E-03     254.179E-03
            5275            5377     263.254E-03     260.490E-03
            5275            5378     277.876E-03     275.903E-03
            5275            5384     254.895E-03     254.179E-03
            5275            5385     269.095E-03     267.687E-03
            5276             635     273.686E-03     271.989E-03
            5276             636     282.190E-03     280.735E-03
            5276            5378     277.876E-03     275.903E-03
            5276            5385     269.095E-03     267.687E-03
            5277             688     113.836E-03     129.845E-03
            5277             689     149.147E-03     150.581E-03
            5277            5379     117.206E-03     139.358E-03
            5277            5386     134.174E-03     135.549E-03
            5278            5379     117.206E-03     139.358E-03
            5278            5380     133.508E-03     157.879E-03
            5278            5386     134.174E-03     135.549E-03
            5278            5387     134.398E-03     136.126E-03
            5279            5380     133.508E-03     157.879E-03
            5279            5381     166.260E-03     180.581E-03
            5279            5387     134.398E-03     136.126E-03
            5279            5388     169.239E-03     169.914E-03
            5280            5381     166.260E-03     180.581E-03
            5280            5382     200.928E-03     206.697E-03
            5280            5388     169.239E-03     169.914E-03
            5280            5389     203.033E-03     202.493E-03
            5281            5382     200.928E-03     206.697E-03
            5281            5383     230.736E-03     232.256E-03
            5281            5389     203.033E-03     202.493E-03
            5281            5390     230.315E-03     229.141E-03
            5282            5383     230.736E-03     232.256E-03
            5282            5384     254.895E-03     254.179E-03
            5282            5390     230.315E-03     229.141E-03
            5282            5391     251.887E-03     249.360E-03
            5283            5384     254.895E-03     254.179E-03
            5283            5385     269.095E-03     267.687E-03
            5283            5391     251.887E-03     249.360E-03
            5283            5392     264.676E-03     261.477E-03
            5284             634     268.602E-03     265.205E-03
            5284             635     273.686E-03     271.989E-03
            5284            5385     269.095E-03     267.687E-03
            5284            5392     264.676E-03     261.477E-03
            5285             689     149.147E-03     150.581E-03
            5285             690     85.5855E-03     75.5638E-03
            5285            5386     134.174E-03     135.549E-03
            5285            5393     96.0673E-03     83.1251E-03
            5286            5386     134.174E-03     135.549E-03
            5286            5387     134.398E-03     136.126E-03
            5286            5393     96.0673E-03     83.1251E-03
            5286            5394     126.858E-03     117.341E-03
            5287            5387     134.398E-03     136.126E-03
            5287            5388     169.239E-03     169.914E-03
            5287            5394     126.858E-03     117.341E-03
            5287            5395     165.655E-03     161.497E-03
            5288            5388     169.239E-03     169.914E-03
            5288            5389     203.033E-03     202.493E-03
            5288            5395     165.655E-03     161.497E-03
            5288            5396     201.300E-03     196.875E-03
            5289            5389     203.033E-03     202.493E-03
            5289            5390     230.315E-03     229.141E-03
            5289            5396     201.300E-03     196.875E-03
            5289            5397     230.811E-03     227.738E-03
            5290            5390     230.315E-03     229.141E-03
            5290            5391     251.887E-03     249.360E-03
            5290            5397     230.811E-03     227.738E-03
            5290            5398     252.551E-03     250.132E-03
            5291            5391     251.887E-03     249.360E-03
            5291            5392     264.676E-03     261.477E-03
            5291            5398     252.551E-03     250.132E-03
            5291            5399     266.126E-03     263.987E-03
            5292             633     269.893E-03     268.025E-03
            5292             634     268.602E-03     265.205E-03
            5292            5392     264.676E-03     261.477E-03
            5292            5399     266.126E-03     263.987E-03
            5293             690     85.5855E-03     75.5638E-03
            5293             691     33.9480E-03     72.2565E-03
            5293            5393     96.0673E-03     83.1251E-03
            5293            5400     55.7919E-03     79.0437E-03
            5294            5393     96.0673E-03     83.1251E-03
            5294            5394     126.858E-03     117.341E-03
            5294            5400     55.7919E-03     79.0437E-03
            5294            5401     103.411E-03     111.056E-03
            5295            5394     126.858E-03     117.341E-03
            5295            5395     165.655E-03     161.497E-03
            5295            5401     103.411E-03     111.056E-03
            5295            5402     152.101E-03     156.485E-03
            5296            5395     165.655E-03     161.497E-03
            5296            5396     201.300E-03     196.875E-03
            5296            5402     152.101E-03     156.485E-03
            5296            5403     192.886E-03     193.823E-03
            5297            5396     201.300E-03     196.875E-03
            5297            5397     230.811E-03     227.738E-03
            5297            5403     192.886E-03     193.823E-03
            5297            5404     225.316E-03     225.135E-03
            5298            5397     230.811E-03     227.738E-03
            5298            5398     252.551E-03     250.132E-03
            5298            5404     225.316E-03     225.135E-03
            5298            5405     249.112E-03     248.530E-03
            5299            5398     252.551E-03     250.132E-03
            5299            5399     266.126E-03     263.987E-03
            5299            5405     249.112E-03     248.530E-03
            5299            5406     263.162E-03     262.417E-03
            5300             632     267.585E-03     266.709E-03
            5300             633     269.893E-03     268.025E-03
            5300            5399     266.126E-03     263.987E-03
            5300            5406     263.162E-03     262.417E-03
            5301              28     19.4230E-03     40.8852E-03
            5301             691     33.9480E-03     72.2565E-03
            5301             865     30.4502E-03     39.3545E-03
            5301            5400     55.7919E-03     79.0437E-03
            5302             864     52.1600E-03     49.1677E-03
            5302             865     30.4502E-03     39.3545E-03
            5302            5400     55.7919E-03     79.0437E-03
            5302            5401     103.411E-03     111.056E-03
            5303             863     75.5051E-03     73.5931E-03
            5303             864     52.1600E-03     49.1677E-03
            5303            5401     103.411E-03     111.056E-03
            5303            5402     152.101E-03     156.485E-03
            5304             862     96.1234E-03     94.8567E-03
            5304             863     75.5051E-03     73.5931E-03
            5304            5402     152.101E-03     156.485E-03
            5304            5403     192.886E-03     193.823E-03
            5305             861     112.020E-03     110.926E-03
            5305             862     96.1234E-03     94.8567E-03
            5305            5403     192.886E-03     193.823E-03
            5305            5404     225.316E-03     225.135E-03
            5306             860     124.216E-03     123.366E-03
            5306             861     112.020E-03     110.926E-03
            5306            5404     225.316E-03     225.135E-03
            5306            5405     249.112E-03     248.530E-03
            5307             859     131.013E-03     130.426E-03
            5307             860     124.216E-03     123.366E-03
            5307            5405     249.112E-03     248.530E-03
            5307            5406     263.162E-03     262.417E-03
            5308              27     133.362E-03     132.760E-03
            5308             632     267.585E-03     266.709E-03
            5308             859     131.013E-03     130.426E-03
            5308            5406     263.162E-03     262.417E-03
            5374              28     19.4230E-03     40.8852E-03
            5374             812     166.114E-06     165.323E-06
            5374             865     30.4502E-03     39.3545E-03
            5374            5451     148.636E-06     149.603E-06
            5375             864     52.1600E-03     49.1677E-03
            5375             865     30.4502E-03     39.3545E-03
            5375            5451     148.636E-06     149.603E-06
            5375            5452     128.435E-06     129.851E-06
            5376             863     75.5051E-03     73.5931E-03
            5376             864     52.1600E-03     49.1677E-03
            5376            5452     128.435E-06     129.851E-06
            5376            5453     131.919E-06     130.356E-06
            5377             862     96.1234E-03     94.8567E-03
            5377             863     75.5051E-03     73.5931E-03
            5377            5453     131.919E-06     130.356E-06
            5377            5454     142.587E-06     139.861E-06
            5378             861     112.020E-03     110.926E-03
            5378             862     96.1234E-03     94.8567E-03
            5378            5454     142.587E-06     139.861E-06
            5378            5455     151.472E-06     149.570E-06
            5379             860     124.216E-03     123.366E-03
            5379             861     112.020E-03     110.926E-03
            5379            5455     151.472E-06     149.570E-06
            5379            5456     159.349E-06     157.178E-06
            5380             859     131.013E-03     130.426E-03
            5380             860     124.216E-03     123.366E-03
            5380            5456     159.349E-06     157.178E-06
            5380            5457     164.867E-06     161.724E-06
            5381              27     133.362E-03     132.760E-03
            5381             859     131.013E-03     130.426E-03
            5381             870     166.933E-06     163.401E-06
            5381            5457     164.867E-06     161.724E-06
            5382             812     166.114E-06     165.323E-06
            5382             813     130.650E-06     121.350E-06
            5382            5451     148.636E-06     149.603E-06
            5382            5458     125.434E-06     114.520E-06
            5383            5451     148.636E-06     149.603E-06
            5383            5452     128.435E-06     129.851E-06
            5383            5458     125.434E-06     114.520E-06
            5383            5459     121.130E-06     107.619E-06
            5384            5452     128.435E-06     129.851E-06
            5384            5453     131.919E-06     130.356E-06
            5384            5459     121.130E-06     107.619E-06
            5384            5460     128.302E-06     115.323E-06
            5385            5453     131.919E-06     130.356E-06
            5385            5454     142.587E-06     139.861E-06
            5385            5460     128.302E-06     115.323E-06
            5385            5461     140.524E-06     132.041E-06
            5386            5454     142.587E-06     139.861E-06
            5386            5455     151.472E-06     149.570E-06
            5386            5461     140.524E-06     132.041E-06
            5386            5462     150.918E-06     147.049E-06
            5387            5455     151.472E-06     149.570E-06
            5387            5456     159.349E-06     157.178E-06
            5387            5462     150.918E-06     147.049E-06
            5387            5463     159.321E-06     157.404E-06
            5388            5456     159.349E-06     157.178E-06
            5388            5457     164.867E-06     161.724E-06
            5388            5463     159.321E-06     157.404E-06
            5388            5464     165.345E-06     163.982E-06
            5389             870     166.933E-06     163.401E-06
            5389             871     167.397E-06     166.269E-06
            5389            5457     164.867E-06     161.724E-06
            5389            5464     165.345E-06     163.982E-06
            5390             813     130.650E-06     121.350E-06
            5390             814     83.1379E-06     91.9272E-06
            5390            5458     125.434E-06     114.520E-06
            5390            5465     79.0915E-06     89.4928E-06
            5391            5458     125.434E-06     114.520E-06
            5391            5459     121.130E-06     107.619E-06
            5391            5465     79.0915E-06     89.4928E-06
            5391            5466     84.7149E-06     94.0958E-06
            5392            5459     121.130E-06     107.619E-06
            5392            5460     128.302E-06     115.323E-06
            5392            5466     84.7149E-06     94.0958E-06
            5392            5467     105.005E-06     110.814E-06
            5393            5460     128.302E-06     115.323E-06
            5393            5461     140.524E-06     132.041E-06
            5393            5467     105.005E-06     110.814E-06
            5393            5468     125.160E-06     129.184E-06
            5394            5461     140.524E-06     132.041E-06
            5394            5462     150.918E-06     147.049E-06
            5394            5468     125.160E-06     129.184E-06
            5394            5469     142.368E-06     144.644E-06
            5395            5462     150.918E-06     147.049E-06
            5395            5463     159.321E-06     157.404E-06
            5395            5469     142.368E-06     144.644E-06
            5395            5470     155.206E-06     156.191E-06
            5396            5463     159.321E-06     157.404E-06
            5396            5464     165.345E-06     163.982E-06
            5396            5470     155.206E-06     156.191E-06
            5396            5471     163.134E-06     163.461E-06
            5397             871     167.397E-06     166.269E-06
            5397             872     165.899E-06     165.954E-06
            5397            5464     165.345E-06     163.982E-06
            5397            5471     163.134E-06     163.461E-06
            5398             814     83.1379E-06     91.9272E-06
            5398             815     57.0554E-06     53.0162E-06
            5398            5465     79.0915E-06     89.4928E-06
            5398            5472     56.5778E-06     51.9026E-06
            5399            5465     79.0915E-06     89.4928E-06
            5399            5466     84.7149E-06     94.0958E-06
            5399            5472     56.5778E-06     51.9026E-06
            5399            5473     70.2724E-06     66.7133E-06
            5400            5466     84.7149E-06     94.0958E-06
            5400            5467     105.005E-06     110.814E-06
            5400            5473     70.2724E-06     66.7133E-06
            5400            5474     96.8098E-06     96.8510E-06
            5401            5467     105.005E-06     110.814E-06
            5401            5468     125.160E-06     129.184E-06
            5401            5474     96.8098E-06     96.8510E-06
            5401            5475     120.050E-06     121.025E-06
            5402            5468     125.160E-06     129.184E-06
            5402            5469     142.368E-06     144.644E-06
            5402            5475     120.050E-06     121.025E-06
            5402            5476     139.974E-06     139.457E-06
            5403            5469     142.368E-06     144.644E-06
            5403            5470     155.206E-06     156.191E-06
            5403            5476     139.974E-06     139.457E-06
            5403            5477     154.745E-06     153.852E-06
            5404            5470     155.206E-06     156.191E-06
            5404            5471     163.134E-06     163.461E-06
            5404            5477     154.745E-06     153.852E-06
            5404            5478     163.382E-06     162.744E-06
            5405             872     165.899E-06     165.954E-06
            5405             873     166.295E-06     165.712E-06
            5405            5471     163.134E-06     163.461E-06
            5405            5478     163.382E-06     162.744E-06
            5406             815     57.0554E-06     53.0162E-06
            5406             816     33.8635E-06     32.1497E-06
            5406            5472     56.5778E-06     51.9026E-06
            5406            5479     38.0807E-06     35.3095E-06
            5407            5472     56.5778E-06     51.9026E-06
            5407            5473     70.2724E-06     66.7133E-06
            5407            5479     38.0807E-06     35.3095E-06
            5407            5480     58.4996E-06     58.1985E-06
            5408            5473     70.2724E-06     66.7133E-06
            5408            5474     96.8098E-06     96.8510E-06
            5408            5480     58.4996E-06     58.1985E-06
            5408            5481     88.9743E-06     91.5890E-06
            5409            5474     96.8098E-06     96.8510E-06
            5409            5475     120.050E-06     121.025E-06
            5409            5481     88.9743E-06     91.5890E-06
            5409            5482     116.073E-06     116.971E-06
            5410            5475     120.050E-06     121.025E-06
            5410            5476     139.974E-06     139.457E-06
            5410            5482     116.073E-06     116.971E-06
            5410            5483     138.345E-06     137.678E-06
            5411            5476     139.974E-06     139.457E-06
            5411            5477     154.745E-06     153.852E-06
            5411            5483     138.345E-06     137.678E-06
            5411            5484     154.200E-06     153.088E-06
            5412            5477     154.745E-06     153.852E-06
            5412            5478     163.382E-06     162.744E-06
            5412            5484     154.200E-06     153.088E-06
            5412            5485     163.606E-06     162.723E-06
            5413             873     166.295E-06     165.712E-06
            5413             874     166.605E-06     165.933E-06
            5413            5478     163.382E-06     162.744E-06
            5413            5485     163.606E-06     162.723E-06
            5414             816     33.8635E-06     32.1497E-06
            5414             817     32.4899E-06     43.7895E-06
            5414            5479     38.0807E-06     35.3095E-06
            5414            5486     35.9804E-06     43.1142E-06
            5415            5479     38.0807E-06     35.3095E-06
            5415            5480     58.4996E-06     58.1985E-06
            5415            5486     35.9804E-06     43.1142E-06
            5415            5487     53.5161E-06     57.6368E-06
            5416            5480     58.4996E-06     58.1985E-06
            5416            5481     88.9743E-06     91.5890E-06
            5416            5487     53.5161E-06     57.6368E-06
            5416            5488     84.1609E-06     87.2237E-06
            5417            5481     88.9743E-06     91.5890E-06
            5417            5482     116.073E-06     116.971E-06
            5417            5488     84.1609E-06     87.2237E-06
            5417            5489     113.827E-06     113.774E-06
            5418            5482     116.073E-06     116.971E-06
            5418            5483     138.345E-06     137.678E-06
            5418            5489     113.827E-06     113.774E-06
            5418            5490     136.765E-06     135.679E-06
            5419            5483     138.345E-06     137.678E-06
            5419            5484     154.200E-06     153.088E-06
            5419            5490     136.765E-06     135.679E-06
            5419            5491     153.160E-06     151.899E-06
            5420            5484     154.200E-06     153.088E-06
            5420            5485     163.606E-06     162.723E-06
            5420            5491     153.160E-06     151.899E-06
            5420            5492     162.869E-06     161.749E-06
            5421             874     166.605E-06     165.933E-06
            5421             875     166.054E-06     165.123E-06
            5421            5485     163.606E-06     162.723E-06
            5421            5492     162.869E-06     161.749E-06
            5422              31     38.4177E-06     62.2529E-06
            5422             817     32.4899E-06     43.7895E-06
            5422             882     38.8924E-06     53.7012E-06
            5422            5486     35.9804E-06     43.1142E-06
            5423             881     53.2345E-06     57.1370E-06
            5423             882     38.8924E-06     53.7012E-06
            5423            5486     35.9804E-06     43.1142E-06
            5423            5487     53.5161E-06     57.6368E-06
            5424             880     83.7334E-06     84.2277E-06
            5424             881     53.2345E-06     57.1370E-06
            5424            5487     53.5161E-06     57.6368E-06
            5424            5488     84.1609E-06     87.2237E-06
            5425             879     113.198E-06     111.948E-06
            5425             880     83.7334E-06     84.2277E-06
            5425            5488     84.1609E-06     87.2237E-06
            5425            5489     113.827E-06     113.774E-06
            5426             878     135.980E-06     134.497E-06
            5426             879     113.198E-06     111.948E-06
            5426            5489     113.827E-06     113.774E-06
            5426            5490     136.765E-06     135.679E-06
            5427             877     152.312E-06     151.158E-06
            5427             878     135.980E-06     134.497E-06
            5427            5490     136.765E-06     135.679E-06
            5427            5491     153.160E-06     151.899E-06
            5428             876     161.996E-06     161.245E-06
            5428             877     152.312E-06     151.158E-06
            5428            5491     153.160E-06     151.899E-06
            5428            5492     162.869E-06     161.749E-06
            5429              35     165.297E-06     164.604E-06
            5429             875     166.054E-06     165.123E-06
            5429             876     161.996E-06     161.245E-06
            5429            5492     162.869E-06     161.749E-06
            6151              27     133.362E-03     132.760E-03
            6151             631     130.246E-03     129.736E-03
            6151             870     166.933E-06     163.401E-06
            6151            6115     164.867E-06     161.724E-06
            6152             630     122.706E-03     122.012E-03
            6152             631     130.246E-03     129.736E-03
            6152            6115     164.867E-06     161.724E-06
            6152            6116     159.349E-06     157.178E-06
            6153             629     109.819E-03     108.974E-03
            6153             630     122.706E-03     122.012E-03
            6153            6116     159.349E-06     157.178E-06
            6153            6117     151.472E-06     149.570E-06
            6154             628     93.3170E-03     92.3737E-03
            6154             629     109.819E-03     108.974E-03
            6154            6117     151.472E-06     149.570E-06
            6154            6118     142.587E-06     139.861E-06
            6155             627     72.1864E-03     70.6902E-03
            6155             628     93.3170E-03     92.3737E-03
            6155            6118     142.587E-06     139.861E-06
            6155            6119     131.919E-06     130.356E-06
            6156             626     48.3499E-03     46.1964E-03
            6156             627     72.1864E-03     70.6902E-03
            6156            6119     131.919E-06     130.356E-06
            6156            6120     128.435E-06     129.851E-06
            6157             625     30.0736E-03     39.3085E-03
            6157             626     48.3499E-03     46.1964E-03
            6157            6120     128.435E-06     129.851E-06
            6157            6121     148.636E-06     149.603E-06
            6158              26     22.7331E-03     43.6681E-03
            6158             625     30.0736E-03     39.3085E-03
            6158             858     166.114E-06     165.323E-06
            6158            6121     148.636E-06     149.603E-06
            6159             870     166.933E-06     163.401E-06
            6159             871     167.397E-06     166.269E-06
            6159            6115     164.867E-06     161.724E-06
            6159            6122     165.345E-06     163.982E-06
            6160            6115     164.867E-06     161.724E-06
            6160            6116     159.349E-06     157.178E-06
            6160            6122     165.345E-06     163.982E-06
            6160            6123     159.321E-06     157.404E-06
            6161            6116     159.349E-06     157.178E-06
            6161            6117     151.472E-06     149.570E-06
            6161            6123     159.321E-06     157.404E-06
            6161            6124     150.918E-06     147.049E-06
            6162            6117     151.472E-06     149.570E-06
            6162            6118     142.587E-06     139.861E-06
            6162            6124     150.918E-06     147.049E-06
            6162            6125     140.524E-06     132.041E-06
            6163            6118     142.587E-06     139.861E-06
            6163            6119     131.919E-06     130.356E-06
            6163            6125     140.524E-06     132.041E-06
            6163            6126     128.302E-06     115.323E-06
            6164            6119     131.919E-06     130.356E-06
            6164            6120     128.435E-06     129.851E-06
            6164            6126     128.302E-06     115.323E-06
            6164            6127     121.130E-06     107.619E-06
            6165            6120     128.435E-06     129.851E-06
            6165            6121     148.636E-06     149.603E-06
            6165            6127     121.130E-06     107.619E-06
            6165            6128     125.434E-06     114.520E-06
            6166             857     130.650E-06     121.350E-06
            6166             858     166.114E-06     165.323E-06
            6166            6121     148.636E-06     149.603E-06
            6166            6128     125.434E-06     114.520E-06
            6167             871     167.397E-06     166.269E-06
            6167             872     165.899E-06     165.954E-06
            6167            6122     165.345E-06     163.982E-06
            6167            6129     163.134E-06     163.461E-06
            6168            6122     165.345E-06     163.982E-06
            6168            6123     159.321E-06     157.404E-06
            6168            6129     163.134E-06     163.461E-06
            6168            6130     155.206E-06     156.191E-06
            6169            6123     159.321E-06     157.404E-06
            6169            6124     150.918E-06     147.049E-06
            6169            6130     155.206E-06     156.191E-06
            6169            6131     142.368E-06     144.644E-06
            6170            6124     150.918E-06     147.049E-06
            6170            6125     140.524E-06     132.041E-06
            6170            6131     142.368E-06     144.644E-06
            6170            6132     125.160E-06     129.184E-06
            6171            6125     140.524E-06     132.041E-06
            6171            6126     128.302E-06     115.323E-06
            6171            6132     125.160E-06     129.184E-06
            6171            6133     105.005E-06     110.814E-06
            6172            6126     128.302E-06     115.323E-06
            6172            6127     121.130E-06     107.619E-06
            6172            6133     105.005E-06     110.814E-06
            6172            6134     84.7149E-06     94.0958E-06
            6173            6127     121.130E-06     107.619E-06
            6173            6128     125.434E-06     114.520E-06
            6173            6134     84.7149E-06     94.0958E-06
            6173            6135     79.0915E-06     89.4928E-06
            6174             856     83.1379E-06     91.9272E-06
            6174             857     130.650E-06     121.350E-06
            6174            6128     125.434E-06     114.520E-06
            6174            6135     79.0915E-06     89.4928E-06
            6175             872     165.899E-06     165.954E-06
            6175             873     166.295E-06     165.712E-06
            6175            6129     163.134E-06     163.461E-06
            6175            6136     163.382E-06     162.744E-06
            6176            6129     163.134E-06     163.461E-06
            6176            6130     155.206E-06     156.191E-06
            6176            6136     163.382E-06     162.744E-06
            6176            6137     154.745E-06     153.852E-06
            6177            6130     155.206E-06     156.191E-06
            6177            6131     142.368E-06     144.644E-06
            6177            6137     154.745E-06     153.852E-06
            6177            6138     139.974E-06     139.457E-06
            6178            6131     142.368E-06     144.644E-06
            6178            6132     125.160E-06     129.184E-06
            6178            6138     139.974E-06     139.457E-06
            6178            6139     120.050E-06     121.025E-06
            6179            6132     125.160E-06     129.184E-06
            6179            6133     105.005E-06     110.814E-06
            6179            6139     120.050E-06     121.025E-06
            6179            6140     96.8098E-06     96.8510E-06
            6180            6133     105.005E-06     110.814E-06
            6180            6134     84.7149E-06     94.0958E-06
            6180            6140     96.8098E-06     96.8510E-06
            6180            6141     70.2724E-06     66.7133E-06
            6181            6134     84.7149E-06     94.0958E-06
            6181            6135     79.0915E-06     89.4928E-06
            6181            6141     70.2724E-06     66.7133E-06
            6181            6142     56.5778E-06     51.9026E-06
            6182             855     57.0554E-06     53.0162E-06
            6182             856     83.1379E-06     91.9272E-06
            6182            6135     79.0915E-06     89.4928E-06
            6182            6142     56.5778E-06     51.9026E-06
            6183             873     166.295E-06     165.712E-06
            6183             874     166.605E-06     165.933E-06
            6183            6136     163.382E-06     162.744E-06
            6183            6143     163.606E-06     162.723E-06
            6184            6136     163.382E-06     162.744E-06
            6184            6137     154.745E-06     153.852E-06
            6184            6143     163.606E-06     162.723E-06
            6184            6144     154.200E-06     153.088E-06
            6185            6137     154.745E-06     153.852E-06
            6185            6138     139.974E-06     139.457E-06
            6185            6144     154.200E-06     153.088E-06
            6185            6145     138.345E-06     137.678E-06
            6186            6138     139.974E-06     139.457E-06
            6186            6139     120.050E-06     121.025E-06
            6186            6145     138.345E-06     137.678E-06
            6186            6146     116.073E-06     116.971E-06
            6187            6139     120.050E-06     121.025E-06
            6187            6140     96.8098E-06     96.8510E-06
            6187            6146     116.073E-06     116.971E-06
            6187            6147     88.9743E-06     91.5890E-06
            6188            6140     96.8098E-06     96.8510E-06
            6188            6141     70.2724E-06     66.7133E-06
            6188            6147     88.9743E-06     91.5890E-06
            6188            6148     58.4996E-06     58.1985E-06
            6189            6141     70.2724E-06     66.7133E-06
            6189            6142     56.5778E-06     51.9026E-06
            6189            6148     58.4996E-06     58.1985E-06
            6189            6149     38.0807E-06     35.3095E-06
            6190             854     33.8635E-06     32.1497E-06
            6190             855     57.0554E-06     53.0162E-06
            6190            6142     56.5778E-06     51.9026E-06
            6190            6149     38.0807E-06     35.3095E-06
            6191             874     166.605E-06     165.933E-06
            6191             875     166.054E-06     165.123E-06
            6191            6143     163.606E-06     162.723E-06
            6191            6150     162.869E-06     161.749E-06
            6192            6143     163.606E-06     162.723E-06
            6192            6144     154.200E-06     153.088E-06
            6192            6150     162.869E-06     161.749E-06
            6192            6151     153.160E-06     151.899E-06
            6193            6144     154.200E-06     153.088E-06
            6193            6145     138.345E-06     137.678E-06
            6193            6151     153.160E-06     151.899E-06
            6193            6152     136.765E-06     135.679E-06
            6194            6145     138.345E-06     137.678E-06
            6194            6146     116.073E-06     116.971E-06
            6194            6152     136.765E-06     135.679E-06
            6194            6153     113.827E-06     113.774E-06
            6195            6146     116.073E-06     116.971E-06
            6195            6147     88.9743E-06     91.5890E-06
            6195            6153     113.827E-06     113.774E-06
            6195            6154     84.1609E-06     87.2237E-06
            6196            6147     88.9743E-06     91.5890E-06
            6196            6148     58.4996E-06     58.1985E-06
            6196            6154     84.1609E-06     87.2237E-06
            6196            6155     53.5161E-06     57.6368E-06
            6197            6148     58.4996E-06     58.1985E-06
            6197            6149     38.0807E-06     35.3095E-06
            6197            6155     53.5161E-06     57.6368E-06
            6197            6156     35.9804E-06     43.1142E-06
            6198             853     32.4899E-06     43.7895E-06
            6198             854     33.8635E-06     32.1497E-06
            6198            6149     38.0807E-06     35.3095E-06
            6198            6156     35.9804E-06     43.1142E-06
            6199              35     165.297E-06     164.604E-06
            6199             875     166.054E-06     165.123E-06
            6199             904     161.996E-06     161.245E-06
            6199            6150     162.869E-06     161.749E-06
            6200             903     152.312E-06     151.158E-06
            6200             904     161.996E-06     161.245E-06
            6200            6150     162.869E-06     161.749E-06
            6200            6151     153.160E-06     151.899E-06
            6201             902     135.980E-06     134.497E-06
            6201             903     152.312E-06     151.158E-06
            6201            6151     153.160E-06     151.899E-06
            6201            6152     136.765E-06     135.679E-06
            6202             901     113.198E-06     111.948E-06
            6202             902     135.980E-06     134.497E-06
            6202            6152     136.765E-06     135.679E-06
            6202            6153     113.827E-06     113.774E-06
            6203             900     83.7334E-06     84.2277E-06
            6203             901     113.198E-06     111.948E-06
            6203            6153     113.827E-06     113.774E-06
            6203            6154     84.1609E-06     87.2237E-06
            6204             899     53.2345E-06     57.1370E-06
            6204             900     83.7334E-06     84.2277E-06
            6204            6154     84.1609E-06     87.2237E-06
            6204            6155     53.5161E-06     57.6368E-06
            6205             898     38.8924E-06     53.7012E-06
            6205             899     53.2345E-06     57.1370E-06
            6205            6155     53.5161E-06     57.6368E-06
            6205            6156     35.9804E-06     43.1142E-06
            6206              34     38.4177E-06     62.2529E-06
            6206             853     32.4899E-06     43.7895E-06
            6206             898     38.8924E-06     53.7012E-06
            6206            6156     35.9804E-06     43.1142E-06


  Minimum                            32.1676E-06     32.1497E-06
      At Element                            2753            6198
            Node                             188             854

  Maximum                                1.15066         1.12422
      At Element                            3016            5041
            Node                             560              20

           Total                     2.36373E+03     2.39347E+03


Field Output reported at element nodes for region: DO228-1.Region_2
   Computation algorithm: EXTRAPOLATE_COMPUTE_AVERAGE
   Averaged at nodes
   Averaging regions: ODB_REGIONS

   Element Label      Node Label         S.Mises         S.Mises
                                          @Loc 1          @Loc 2
-----------------------------------------------------------------
            1417               2     59.2779E-03     59.1291E-03
            1417             217     194.142E-06     189.633E-06
            1417             352     67.5226E-03     67.4887E-03
            1417            2159     187.711E-06     185.788E-06
            1418             352     67.5226E-03     67.4887E-03
            1418             353     77.5757E-03     77.3904E-03
            1418            2159     187.711E-06     185.788E-06
            1418            2160     175.532E-06     176.463E-06
            1419             353     77.5757E-03     77.3904E-03
            1419             354     81.7650E-03     81.5284E-03
            1419            2160     175.532E-06     176.463E-06
            1419            2161     170.111E-06     171.400E-06
            1420             354     81.7650E-03     81.5284E-03
            1420             355     83.9551E-03     83.9610E-03
            1420            2161     170.111E-06     171.400E-06
            1420            2162     170.130E-06     171.503E-06
            1421              13     83.7654E-03     83.7987E-03
            1421             355     83.9551E-03     83.9610E-03
            1421             356     169.822E-06     171.192E-06
            1421            2162     170.130E-06     171.503E-06
            1422             217     194.142E-06     189.633E-06
            1422             218     153.048E-06     152.055E-06
            1422            2159     187.711E-06     185.788E-06
            1422            2163     162.401E-06     161.996E-06
            1423            2159     187.711E-06     185.788E-06
            1423            2160     175.532E-06     176.463E-06
            1423            2163     162.401E-06     161.996E-06
            1423            2164     174.577E-06     175.739E-06
            1424            2160     175.532E-06     176.463E-06
            1424            2161     170.111E-06     171.400E-06
            1424            2164     174.577E-06     175.739E-06
            1424            2165     177.884E-06     179.854E-06
            1425            2161     170.111E-06     171.400E-06
            1425            2162     170.130E-06     171.503E-06
            1425            2165     177.884E-06     179.854E-06
            1425            2166     179.261E-06     181.002E-06
            1426             356     169.822E-06     171.192E-06
            1426             357     180.155E-06     181.837E-06
            1426            2162     170.130E-06     171.503E-06
            1426            2166     179.261E-06     181.002E-06
            1427             218     153.048E-06     152.055E-06
            1427             219     127.948E-06     127.850E-06
            1427            2163     162.401E-06     161.996E-06
            1427            2167     142.070E-06     142.003E-06
            1428            2163     162.401E-06     161.996E-06
            1428            2164     174.577E-06     175.739E-06
            1428            2167     142.070E-06     142.003E-06
            1428            2168     166.236E-06     166.550E-06
            1429            2164     174.577E-06     175.739E-06
            1429            2165     177.884E-06     179.854E-06
            1429            2168     166.236E-06     166.550E-06
            1429            2169     180.181E-06     181.027E-06
            1430            2165     177.884E-06     179.854E-06
            1430            2166     179.261E-06     181.002E-06
            1430            2169     180.181E-06     181.027E-06
            1430            2170     185.005E-06     185.932E-06
            1431             357     180.155E-06     181.837E-06
            1431             358     185.927E-06     186.755E-06
            1431            2166     179.261E-06     181.002E-06
            1431            2170     185.005E-06     185.932E-06
            1432             219     127.948E-06     127.850E-06
            1432             220     112.387E-06     113.464E-06
            1432            2167     142.070E-06     142.003E-06
            1432            2171     131.041E-06     132.061E-06
            1433            2167     142.070E-06     142.003E-06
            1433            2168     166.236E-06     166.550E-06
            1433            2171     131.041E-06     132.061E-06
            1433            2172     161.718E-06     161.974E-06
            1434            2168     166.236E-06     166.550E-06
            1434            2169     180.181E-06     181.027E-06
            1434            2172     161.718E-06     161.974E-06
            1434            2173     178.936E-06     178.490E-06
            1435            2169     180.181E-06     181.027E-06
            1435            2170     185.005E-06     185.932E-06
            1435            2173     178.936E-06     178.490E-06
            1435            2174     185.292E-06     184.878E-06
            1436             358     185.927E-06     186.755E-06
            1436             359     186.453E-06     186.066E-06
            1436            2170     185.005E-06     185.932E-06
            1436            2174     185.292E-06     184.878E-06
            1437             220     112.387E-06     113.464E-06
            1437             221     104.888E-06     107.988E-06
            1437            2171     131.041E-06     132.061E-06
            1437            2175     128.042E-06     129.638E-06
            1438            2171     131.041E-06     132.061E-06
            1438            2172     161.718E-06     161.974E-06
            1438            2175     128.042E-06     129.638E-06
            1438            2176     161.753E-06     161.308E-06
            1439            2172     161.718E-06     161.974E-06
            1439            2173     178.936E-06     178.490E-06
            1439            2176     161.753E-06     161.308E-06
            1439            2177     175.680E-06     174.520E-06
            1440            2173     178.936E-06     178.490E-06
            1440            2174     185.292E-06     184.878E-06
            1440            2177     175.680E-06     174.520E-06
            1440            2178     180.911E-06     179.609E-06
            1441             359     186.453E-06     186.066E-06
            1441             360     182.770E-06     181.505E-06
            1441            2174     185.292E-06     184.878E-06
            1441            2178     180.911E-06     179.609E-06
            1442             221     104.888E-06     107.988E-06
            1442             222     113.866E-06     116.474E-06
            1442            2175     128.042E-06     129.638E-06
            1442            2179     133.249E-06     134.310E-06
            1443            2175     128.042E-06     129.638E-06
            1443            2176     161.753E-06     161.308E-06
            1443            2179     133.249E-06     134.310E-06
            1443            2180     158.777E-06     157.932E-06
            1444            2176     161.753E-06     161.308E-06
            1444            2177     175.680E-06     174.520E-06
            1444            2180     158.777E-06     157.932E-06
            1444            2181     169.636E-06     168.451E-06
            1445            2177     175.680E-06     174.520E-06
            1445            2178     180.911E-06     179.609E-06
            1445            2181     169.636E-06     168.451E-06
            1445            2182     175.977E-06     174.828E-06
            1446             360     182.770E-06     181.505E-06
            1446             361     177.604E-06     176.472E-06
            1446            2178     180.911E-06     179.609E-06
            1446            2182     175.977E-06     174.828E-06
            1447               9     121.184E-06     122.794E-06
            1447             222     113.866E-06     116.474E-06
            1447             365     136.174E-06     136.752E-06
            1447            2179     133.249E-06     134.310E-06
            1448             364     155.588E-06     154.877E-06
            1448             365     136.174E-06     136.752E-06
            1448            2179     133.249E-06     134.310E-06
            1448            2180     158.777E-06     157.932E-06
            1449             363     166.077E-06     165.150E-06
            1449             364     155.588E-06     154.877E-06
            1449            2180     158.777E-06     157.932E-06
            1449            2181     169.636E-06     168.451E-06
            1450             362     173.774E-06     172.973E-06
            1450             363     166.077E-06     165.150E-06
            1450            2181     169.636E-06     168.451E-06
            1450            2182     175.977E-06     174.828E-06
            1451              14     175.409E-06     174.689E-06
            1451             361     177.604E-06     176.472E-06
            1451             362     173.774E-06     172.973E-06
            1451            2182     175.977E-06     174.828E-06
            1452               5     59.4140E-03     59.2607E-03
            1452             243     112.537E-03     113.593E-03
            1452             366     67.6093E-03     67.5768E-03
            1452            2183     133.696E-03     133.771E-03
            1453             366     67.6093E-03     67.5768E-03
            1453             367     77.5998E-03     77.4200E-03
            1453            2183     133.696E-03     133.771E-03
            1453            2184     159.560E-03     158.891E-03
            1454             367     77.5998E-03     77.4200E-03
            1454             368     81.7709E-03     81.5366E-03
            1454            2184     159.560E-03     158.891E-03
            1454            2185     165.732E-03     165.495E-03
            1455             368     81.7709E-03     81.5366E-03
            1455             369     83.9565E-03     83.9627E-03
            1455            2185     165.732E-03     165.495E-03
            1455            2186     166.989E-03     167.001E-03
            1456              13     83.7654E-03     83.7987E-03
            1456             369     83.9565E-03     83.9627E-03
            1456             370     166.782E-03     166.849E-03
            1456            2186     166.989E-03     167.001E-03
            1457             243     112.537E-03     113.593E-03
            1457             244     114.527E-03     115.826E-03
            1457            2183     133.696E-03     133.771E-03
            1457            2187     137.750E-03     138.053E-03
            1458            2183     133.696E-03     133.771E-03
            1458            2184     159.560E-03     158.891E-03
            1458            2187     137.750E-03     138.053E-03
            1458            2188     165.070E-03     164.929E-03
            1459            2184     159.560E-03     158.891E-03
            1459            2185     165.732E-03     165.495E-03
            1459            2188     165.070E-03     164.929E-03
            1459            2189     167.417E-03     167.659E-03
            1460            2185     165.732E-03     165.495E-03
            1460            2186     166.989E-03     167.001E-03
            1460            2189     167.417E-03     167.659E-03
            1460            2190     165.424E-03     165.481E-03
            1461             370     166.782E-03     166.849E-03
            1461             371     165.186E-03     165.227E-03
            1461            2186     166.989E-03     167.001E-03
            1461            2190     165.424E-03     165.481E-03
            1462             244     114.527E-03     115.826E-03
            1462             245     141.205E-03     139.797E-03
            1462            2187     137.750E-03     138.053E-03
            1462            2191     151.230E-03     151.080E-03
            1463            2187     137.750E-03     138.053E-03
            1463            2188     165.070E-03     164.929E-03
            1463            2191     151.230E-03     151.080E-03
            1463            2192     161.993E-03     162.779E-03
            1464            2188     165.070E-03     164.929E-03
            1464            2189     167.417E-03     167.659E-03
            1464            2192     161.993E-03     162.779E-03
            1464            2193     163.194E-03     163.516E-03
            1465            2189     167.417E-03     167.659E-03
            1465            2190     165.424E-03     165.481E-03
            1465            2193     163.194E-03     163.516E-03
            1465            2194     162.916E-03     163.010E-03
            1466             371     165.186E-03     165.227E-03
            1466             372     162.182E-03     162.190E-03
            1466            2190     165.424E-03     165.481E-03
            1466            2194     162.916E-03     163.010E-03
            1467             245     141.205E-03     139.797E-03
            1467             246     129.517E-03     128.268E-03
            1467            2191     151.230E-03     151.080E-03
            1467            2195     141.678E-03     140.022E-03
            1468            2191     151.230E-03     151.080E-03
            1468            2192     161.993E-03     162.779E-03
            1468            2195     141.678E-03     140.022E-03
            1468            2196     156.469E-03     154.398E-03
            1469            2192     161.993E-03     162.779E-03
            1469            2193     163.194E-03     163.516E-03
            1469            2196     156.469E-03     154.398E-03
            1469            2197     162.856E-03     161.029E-03
            1470            2193     163.194E-03     163.516E-03
            1470            2194     162.916E-03     163.010E-03
            1470            2197     162.856E-03     161.029E-03
            1470            2198     166.878E-03     165.467E-03
            1471             372     162.182E-03     162.190E-03
            1471             373     167.154E-03     165.904E-03
            1471            2194     162.916E-03     163.010E-03
            1471            2198     166.878E-03     165.467E-03
            1472             246     129.517E-03     128.268E-03
            1472             247     105.972E-03     111.050E-03
            1472            2195     141.678E-03     140.022E-03
            1472            2199     129.286E-03     130.103E-03
            1473            2195     141.678E-03     140.022E-03
            1473            2196     156.469E-03     154.398E-03
            1473            2199     129.286E-03     130.103E-03
            1473            2200     158.937E-03     154.979E-03
            1474            2196     156.469E-03     154.398E-03
            1474            2197     162.856E-03     161.029E-03
            1474            2200     158.937E-03     154.979E-03
            1474            2201     168.863E-03     164.473E-03
            1475            2197     162.856E-03     161.029E-03
            1475            2198     166.878E-03     165.467E-03
            1475            2201     168.863E-03     164.473E-03
            1475            2202     173.658E-03     169.489E-03
            1476             373     167.154E-03     165.904E-03
            1476             374     174.872E-03     170.838E-03
            1476            2198     166.878E-03     165.467E-03
            1476            2202     173.658E-03     169.489E-03
            1477             247     105.972E-03     111.050E-03
            1477             248     121.943E-03     128.145E-03
            1477            2199     129.286E-03     130.103E-03
            1477            2203     138.999E-03     142.927E-03
            1478            2199     129.286E-03     130.103E-03
            1478            2200     158.937E-03     154.979E-03
            1478            2203     138.999E-03     142.927E-03
            1478            2204     164.188E-03     163.347E-03
            1479            2200     158.937E-03     154.979E-03
            1479            2201     168.863E-03     164.473E-03
            1479            2204     164.188E-03     163.347E-03
            1479            2205     174.359E-03     170.262E-03
            1480            2201     168.863E-03     164.473E-03
            1480            2202     173.658E-03     169.489E-03
            1480            2205     174.359E-03     170.262E-03
            1480            2206     177.285E-03     172.058E-03
            1481             374     174.872E-03     170.838E-03
            1481             375     178.183E-03     172.586E-03
            1481            2202     173.658E-03     169.489E-03
            1481            2206     177.285E-03     172.058E-03
            1482             248     121.943E-03     128.145E-03
            1482             249     141.564E-03     143.413E-03
            1482            2203     138.999E-03     142.927E-03
            1482            2207     150.804E-03     153.275E-03
            1483            2203     138.999E-03     142.927E-03
            1483            2204     164.188E-03     163.347E-03
            1483            2207     150.804E-03     153.275E-03
            1483            2208     167.736E-03     169.015E-03
            1484            2204     164.188E-03     163.347E-03
            1484            2205     174.359E-03     170.262E-03
            1484            2208     167.736E-03     169.015E-03
            1484            2209     178.412E-03     176.382E-03
            1485            2205     174.359E-03     170.262E-03
            1485            2206     177.285E-03     172.058E-03
            1485            2209     178.412E-03     176.382E-03
            1485            2210     182.189E-03     178.067E-03
            1486             375     178.183E-03     172.586E-03
            1486             376     182.999E-03     178.280E-03
            1486            2206     177.285E-03     172.058E-03
            1486            2210     182.189E-03     178.067E-03
            1487             249     141.564E-03     143.413E-03
            1487             250     161.907E-03     161.686E-03
            1487            2207     150.804E-03     153.275E-03
            1487            2211     165.497E-03     166.173E-03
            1488            2207     150.804E-03     153.275E-03
            1488            2208     167.736E-03     169.015E-03
            1488            2211     165.497E-03     166.173E-03
            1488            2212     173.767E-03     174.902E-03
            1489            2208     167.736E-03     169.015E-03
            1489            2209     178.412E-03     176.382E-03
            1489            2212     173.767E-03     174.902E-03
            1489            2213     181.709E-03     181.387E-03
            1490            2209     178.412E-03     176.382E-03
            1490            2210     182.189E-03     178.067E-03
            1490            2213     181.709E-03     181.387E-03
            1490            2214     185.872E-03     183.868E-03
            1491             376     182.999E-03     178.280E-03
            1491             377     186.793E-03     184.126E-03
            1491            2210     182.189E-03     178.067E-03
            1491            2214     185.872E-03     183.868E-03
            1492             250     161.907E-03     161.686E-03
            1492             251     182.571E-03     180.696E-03
            1492            2211     165.497E-03     166.173E-03
            1492            2215     181.769E-03     181.066E-03
            1493            2211     165.497E-03     166.173E-03
            1493            2212     173.767E-03     174.902E-03
            1493            2215     181.769E-03     181.066E-03
            1493            2216     182.685E-03     183.385E-03
            1494            2212     173.767E-03     174.902E-03
            1494            2213     181.709E-03     181.387E-03
            1494            2216     182.685E-03     183.385E-03
            1494            2217     185.605E-03     186.267E-03
            1495            2213     181.709E-03     181.387E-03
            1495            2214     185.872E-03     183.868E-03
            1495            2217     185.605E-03     186.267E-03
            1495            2218     187.857E-03     188.051E-03
            1496             377     186.793E-03     184.126E-03
            1496             378     188.930E-03     188.928E-03
            1496            2214     185.872E-03     183.868E-03
            1496            2218     187.857E-03     188.051E-03
            1497             251     182.571E-03     180.696E-03
            1497             252     205.277E-03     202.320E-03
            1497            2215     181.769E-03     181.066E-03
            1497            2219     200.194E-03     198.445E-03
            1498            2215     181.769E-03     181.066E-03
            1498            2216     182.685E-03     183.385E-03
            1498            2219     200.194E-03     198.445E-03
            1498            2220     192.708E-03     192.931E-03
            1499            2216     182.685E-03     183.385E-03
            1499            2217     185.605E-03     186.267E-03
            1499            2220     192.708E-03     192.931E-03
            1499            2221     189.925E-03     191.583E-03
            1500            2217     185.605E-03     186.267E-03
            1500            2218     187.857E-03     188.051E-03
            1500            2221     189.925E-03     191.583E-03
            1500            2222     188.741E-03     191.276E-03
            1501             378     188.930E-03     188.928E-03
            1501             379     187.965E-03     190.705E-03
            1501            2218     187.857E-03     188.051E-03
            1501            2222     188.741E-03     191.276E-03
            1502             252     205.277E-03     202.320E-03
            1502             253     227.638E-03     224.507E-03
            1502            2219     200.194E-03     198.445E-03
            1502            2223     219.126E-03     216.918E-03
            1503            2219     200.194E-03     198.445E-03
            1503            2220     192.708E-03     192.931E-03
            1503            2223     219.126E-03     216.918E-03
            1503            2224     204.975E-03     205.579E-03
            1504            2220     192.708E-03     192.931E-03
            1504            2221     189.925E-03     191.583E-03
            1504            2224     204.975E-03     205.579E-03
            1504            2225     193.914E-03     197.430E-03
            1505            2221     189.925E-03     191.583E-03
            1505            2222     188.741E-03     191.276E-03
            1505            2225     193.914E-03     197.430E-03
            1505            2226     185.991E-03     190.718E-03
            1506             379     187.965E-03     190.705E-03
            1506             380     183.522E-03     188.436E-03
            1506            2222     188.741E-03     191.276E-03
            1506            2226     185.991E-03     190.718E-03
            1507             253     227.638E-03     224.507E-03
            1507             254     258.316E-03     255.274E-03
            1507            2223     219.126E-03     216.918E-03
            1507            2227     245.428E-03     244.271E-03
            1508            2223     219.126E-03     216.918E-03
            1508            2224     204.975E-03     205.579E-03
            1508            2227     245.428E-03     244.271E-03
            1508            2228     217.333E-03     219.751E-03
            1509            2224     204.975E-03     205.579E-03
            1509            2225     193.914E-03     197.430E-03
            1509            2228     217.333E-03     219.751E-03
            1509            2229     192.052E-03     196.556E-03
            1510            2225     193.914E-03     197.430E-03
            1510            2226     185.991E-03     190.718E-03
            1510            2229     192.052E-03     196.556E-03
            1510            2230     177.964E-03     183.325E-03
            1511             380     183.522E-03     188.436E-03
            1511             381     173.985E-03     179.806E-03
            1511            2226     185.991E-03     190.718E-03
            1511            2230     177.964E-03     183.325E-03
            1512             254     258.316E-03     255.274E-03
            1512             255     303.028E-03     293.706E-03
            1512            2227     245.428E-03     244.271E-03
            1512            2231     272.190E-03     266.706E-03
            1513            2227     245.428E-03     244.271E-03
            1513            2228     217.333E-03     219.751E-03
            1513            2231     272.190E-03     266.706E-03
            1513            2232     217.176E-03     216.345E-03
            1514            2228     217.333E-03     219.751E-03
            1514            2229     192.052E-03     196.556E-03
            1514            2232     217.176E-03     216.345E-03
            1514            2233     181.797E-03     183.050E-03
            1515            2229     192.052E-03     196.556E-03
            1515            2230     177.964E-03     183.325E-03
            1515            2233     181.797E-03     183.050E-03
            1515            2234     164.251E-03     167.512E-03
            1516             381     173.985E-03     179.806E-03
            1516             382     157.944E-03     161.943E-03
            1516            2230     177.964E-03     183.325E-03
            1516            2234     164.251E-03     167.512E-03
            1517             255     303.028E-03     293.706E-03
            1517             256     262.813E-03     243.847E-03
            1517            2231     272.190E-03     266.706E-03
            1517            2235     244.090E-03     226.492E-03
            1518            2231     272.190E-03     266.706E-03
            1518            2232     217.176E-03     216.345E-03
            1518            2235     244.090E-03     226.492E-03
            1518            2236     210.658E-03     197.707E-03
            1519            2232     217.176E-03     216.345E-03
            1519            2233     181.797E-03     183.050E-03
            1519            2236     210.658E-03     197.707E-03
            1519            2237     187.665E-03     180.451E-03
            1520            2233     181.797E-03     183.050E-03
            1520            2234     164.251E-03     167.512E-03
            1520            2237     187.665E-03     180.451E-03
            1520            2238     174.279E-03     171.024E-03
            1521             382     157.944E-03     161.943E-03
            1521             383     169.210E-03     167.448E-03
            1521            2234     164.251E-03     167.512E-03
            1521            2238     174.279E-03     171.024E-03
            1522             256     262.813E-03     243.847E-03
            1522             257     220.664E-03     215.126E-03
            1522            2235     244.090E-03     226.492E-03
            1522            2239     222.229E-03     213.389E-03
            1523            2235     244.090E-03     226.492E-03
            1523            2236     210.658E-03     197.707E-03
            1523            2239     222.229E-03     213.389E-03
            1523            2240     216.657E-03     204.108E-03
            1524            2236     210.658E-03     197.707E-03
            1524            2237     187.665E-03     180.451E-03
            1524            2240     216.657E-03     204.108E-03
            1524            2241     202.215E-03     190.481E-03
            1525            2237     187.665E-03     180.451E-03
            1525            2238     174.279E-03     171.024E-03
            1525            2241     202.215E-03     190.481E-03
            1525            2242     190.515E-03     180.693E-03
            1526             383     169.210E-03     167.448E-03
            1526             384     186.149E-03     177.014E-03
            1526            2238     174.279E-03     171.024E-03
            1526            2242     190.515E-03     180.693E-03
            1527             257     220.664E-03     215.126E-03
            1527             258     259.517E-03     264.588E-03
            1527            2239     222.229E-03     213.389E-03
            1527            2243     249.736E-03     254.999E-03
            1528            2239     222.229E-03     213.389E-03
            1528            2240     216.657E-03     204.108E-03
            1528            2243     249.736E-03     254.999E-03
            1528            2244     229.305E-03     229.464E-03
            1529            2240     216.657E-03     204.108E-03
            1529            2241     202.215E-03     190.481E-03
            1529            2244     229.305E-03     229.464E-03
            1529            2245     207.485E-03     199.932E-03
            1530            2241     202.215E-03     190.481E-03
            1530            2242     190.515E-03     180.693E-03
            1530            2245     207.485E-03     199.932E-03
            1530            2246     189.476E-03     178.288E-03
            1531             384     186.149E-03     177.014E-03
            1531             385     182.673E-03     170.266E-03
            1531            2242     190.515E-03     180.693E-03
            1531            2246     189.476E-03     178.288E-03
            1532             258     259.517E-03     264.588E-03
            1532             259     288.641E-03     287.643E-03
            1532            2243     249.736E-03     254.999E-03
            1532            2247     271.204E-03     273.683E-03
            1533            2243     249.736E-03     254.999E-03
            1533            2244     229.305E-03     229.464E-03
            1533            2247     271.204E-03     273.683E-03
            1533            2248     240.157E-03     243.873E-03
            1534            2244     229.305E-03     229.464E-03
            1534            2245     207.485E-03     199.932E-03
            1534            2248     240.157E-03     243.873E-03
            1534            2249     213.700E-03     211.250E-03
            1535            2245     207.485E-03     199.932E-03
            1535            2246     189.476E-03     178.288E-03
            1535            2249     213.700E-03     211.250E-03
            1535            2250     192.859E-03     184.291E-03
            1536             385     182.673E-03     170.266E-03
            1536             386     184.906E-03     174.150E-03
            1536            2246     189.476E-03     178.288E-03
            1536            2250     192.859E-03     184.291E-03
            1537             259     288.641E-03     287.643E-03
            1537             260     314.526E-03     311.600E-03
            1537            2247     271.204E-03     273.683E-03
            1537            2251     292.112E-03     291.552E-03
            1538            2247     271.204E-03     273.683E-03
            1538            2248     240.157E-03     243.873E-03
            1538            2251     292.112E-03     291.552E-03
            1538            2252     251.739E-03     253.757E-03
            1539            2248     240.157E-03     243.873E-03
            1539            2249     213.700E-03     211.250E-03
            1539            2252     251.739E-03     253.757E-03
            1539            2253     219.671E-03     219.551E-03
            1540            2249     213.700E-03     211.250E-03
            1540            2250     192.859E-03     184.291E-03
            1540            2253     219.671E-03     219.551E-03
            1540            2254     197.010E-03     192.369E-03
            1541             386     184.906E-03     174.150E-03
            1541             387     188.503E-03     181.695E-03
            1541            2250     192.859E-03     184.291E-03
            1541            2254     197.010E-03     192.369E-03
            1542             260     314.526E-03     311.600E-03
            1542             261     338.550E-03     333.788E-03
            1542            2251     292.112E-03     291.552E-03
            1542            2255     312.282E-03     309.911E-03
            1543            2251     292.112E-03     291.552E-03
            1543            2252     251.739E-03     253.757E-03
            1543            2255     312.282E-03     309.911E-03
            1543            2256     264.505E-03     265.215E-03
            1544            2252     251.739E-03     253.757E-03
            1544            2253     219.671E-03     219.551E-03
            1544            2256     264.505E-03     265.215E-03
            1544            2257     226.731E-03     227.549E-03
            1545            2253     219.671E-03     219.551E-03
            1545            2254     197.010E-03     192.369E-03
            1545            2257     226.731E-03     227.549E-03
            1545            2258     200.857E-03     199.854E-03
            1546             387     188.503E-03     181.695E-03
            1546             388     191.294E-03     189.056E-03
            1546            2254     197.010E-03     192.369E-03
            1546            2258     200.857E-03     199.854E-03
            1547             261     338.550E-03     333.788E-03
            1547             262     361.746E-03     356.302E-03
            1547            2255     312.282E-03     309.911E-03
            1547            2259     332.570E-03     329.169E-03
            1548            2255     312.282E-03     309.911E-03
            1548            2256     264.505E-03     265.215E-03
            1548            2259     332.570E-03     329.169E-03
            1548            2260     278.614E-03     278.788E-03
            1549            2256     264.505E-03     265.215E-03
            1549            2257     226.731E-03     227.549E-03
            1549            2260     278.614E-03     278.788E-03
            1549            2261     234.140E-03     236.195E-03
            1550            2257     226.731E-03     227.549E-03
            1550            2258     200.857E-03     199.854E-03
            1550            2261     234.140E-03     236.195E-03
            1550            2262     203.926E-03     206.396E-03
            1551             388     191.294E-03     189.056E-03
            1551             389     193.459E-03     195.997E-03
            1551            2258     200.857E-03     199.854E-03
            1551            2262     203.926E-03     206.396E-03
            1552             262     361.746E-03     356.302E-03
            1552             263     386.352E-03     379.955E-03
            1552            2259     332.570E-03     329.169E-03
            1552            2263     353.773E-03     349.768E-03
            1553            2259     332.570E-03     329.169E-03
            1553            2260     278.614E-03     278.788E-03
            1553            2263     353.773E-03     349.768E-03
            1553            2264     292.289E-03     292.706E-03
            1554            2260     278.614E-03     278.788E-03
            1554            2261     234.140E-03     236.195E-03
            1554            2264     292.289E-03     292.706E-03
            1554            2265     241.623E-03     245.846E-03
            1555            2261     234.140E-03     236.195E-03
            1555            2262     203.926E-03     206.396E-03
            1555            2265     241.623E-03     245.846E-03
            1555            2266     206.202E-03     212.855E-03
            1556             389     193.459E-03     195.997E-03
            1556             390     192.597E-03     199.904E-03
            1556            2262     203.926E-03     206.396E-03
            1556            2266     206.202E-03     212.855E-03
            1557             263     386.352E-03     379.955E-03
            1557             264     409.278E-03     403.018E-03
            1557            2263     353.773E-03     349.768E-03
            1557            2267     374.148E-03     370.655E-03
            1558            2263     353.773E-03     349.768E-03
            1558            2264     292.289E-03     292.706E-03
            1558            2267     374.148E-03     370.655E-03
            1558            2268     307.444E-03     310.149E-03
            1559            2264     292.289E-03     292.706E-03
            1559            2265     241.623E-03     245.846E-03
            1559            2268     307.444E-03     310.149E-03
            1559            2269     247.683E-03     255.551E-03
            1560            2265     241.623E-03     245.846E-03
            1560            2266     206.202E-03     212.855E-03
            1560            2269     247.683E-03     255.551E-03
            1560            2270     203.591E-03     213.987E-03
            1561             390     192.597E-03     199.904E-03
            1561             391     187.745E-03     198.934E-03
            1561            2266     206.202E-03     212.855E-03
            1561            2270     203.591E-03     213.987E-03
            1562             264     409.278E-03     403.018E-03
            1562             265     441.935E-03     437.022E-03
            1562            2267     374.148E-03     370.655E-03
            1562            2271     402.574E-03     401.916E-03
            1563            2267     374.148E-03     370.655E-03
            1563            2268     307.444E-03     310.149E-03
            1563            2271     402.574E-03     401.916E-03
            1563            2272     320.445E-03     325.746E-03
            1564            2268     307.444E-03     310.149E-03
            1564            2269     247.683E-03     255.551E-03
            1564            2272     320.445E-03     325.746E-03
            1564            2273     244.754E-03     252.770E-03
            1565            2269     247.683E-03     255.551E-03
            1565            2270     203.591E-03     213.987E-03
            1565            2273     244.754E-03     252.770E-03
            1565            2274     193.501E-03     204.283E-03
            1566             391     187.745E-03     198.934E-03
            1566             392     175.232E-03     187.766E-03
            1566            2270     203.591E-03     213.987E-03
            1566            2274     193.501E-03     204.283E-03
            1567             265     441.935E-03     437.022E-03
            1567             266     489.679E-03     472.257E-03
            1567            2271     402.574E-03     401.916E-03
            1567            2275     428.347E-03     416.169E-03
            1568            2271     402.574E-03     401.916E-03
            1568            2272     320.445E-03     325.746E-03
            1568            2275     428.347E-03     416.169E-03
            1568            2276     315.587E-03     309.827E-03
            1569            2272     320.445E-03     325.746E-03
            1569            2273     244.754E-03     252.770E-03
            1569            2276     315.587E-03     309.827E-03
            1569            2277     230.141E-03     228.956E-03
            1570            2273     244.754E-03     252.770E-03
            1570            2274     193.501E-03     204.283E-03
            1570            2277     230.141E-03     228.956E-03
            1570            2278     173.729E-03     178.897E-03
            1571             392     175.232E-03     187.766E-03
            1571             393     151.401E-03     159.512E-03
            1571            2274     193.501E-03     204.283E-03
            1571            2278     173.729E-03     178.897E-03
            1572             266     489.679E-03     472.257E-03
            1572             267     445.836E-03     409.395E-03
            1572            2275     428.347E-03     416.169E-03
            1572            2279     393.878E-03     359.134E-03
            1573            2275     428.347E-03     416.169E-03
            1573            2276     315.587E-03     309.827E-03
            1573            2279     393.878E-03     359.134E-03
            1573            2280     304.935E-03     277.790E-03
            1574            2276     315.587E-03     309.827E-03
            1574            2277     230.141E-03     228.956E-03
            1574            2280     304.935E-03     277.790E-03
            1574            2281     238.771E-03     222.774E-03
            1575            2277     230.141E-03     228.956E-03
            1575            2278     173.729E-03     178.897E-03
            1575            2281     238.771E-03     222.774E-03
            1575            2282     191.525E-03     184.826E-03
            1576             393     151.401E-03     159.512E-03
            1576             394     173.514E-03     170.860E-03
            1576            2278     173.729E-03     178.897E-03
            1576            2282     191.525E-03     184.826E-03
            1577             267     445.836E-03     409.395E-03
            1577             268     400.086E-03     385.429E-03
            1577            2279     393.878E-03     359.134E-03
            1577            2283     372.347E-03     354.936E-03
            1578            2279     393.878E-03     359.134E-03
            1578            2280     304.935E-03     277.790E-03
            1578            2283     372.347E-03     354.936E-03
            1578            2284     314.773E-03     293.958E-03
            1579            2280     304.935E-03     277.790E-03
            1579            2281     238.771E-03     222.774E-03
            1579            2284     314.773E-03     293.958E-03
            1579            2285     259.053E-03     239.822E-03
            1580            2281     238.771E-03     222.774E-03
            1580            2282     191.525E-03     184.826E-03
            1580            2285     259.053E-03     239.822E-03
            1580            2286     217.171E-03     201.449E-03
            1581             394     173.514E-03     170.860E-03
            1581             395     201.220E-03     186.770E-03
            1581            2282     191.525E-03     184.826E-03
            1581            2286     217.171E-03     201.449E-03
            1582             268     400.086E-03     385.429E-03
            1582             269     440.724E-03     444.234E-03
            1582            2283     372.347E-03     354.936E-03
            1582            2287     405.175E-03     411.489E-03
            1583            2283     372.347E-03     354.936E-03
            1583            2284     314.773E-03     293.958E-03
            1583            2287     405.175E-03     411.489E-03
            1583            2288     333.900E-03     335.990E-03
            1584            2284     314.773E-03     293.958E-03
            1584            2285     259.053E-03     239.822E-03
            1584            2288     333.900E-03     335.990E-03
            1584            2289     265.747E-03     256.625E-03
            1585            2285     259.053E-03     239.822E-03
            1585            2286     217.171E-03     201.449E-03
            1585            2289     265.747E-03     256.625E-03
            1585            2290     211.979E-03     195.837E-03
            1586             395     201.220E-03     186.770E-03
            1586             396     190.695E-03     171.724E-03
            1586            2286     217.171E-03     201.449E-03
            1586            2290     211.979E-03     195.837E-03
            1587             269     440.724E-03     444.234E-03
            1587             270     471.029E-03     467.073E-03
            1587            2287     405.175E-03     411.489E-03
            1587            2291     428.818E-03     430.801E-03
            1588            2287     405.175E-03     411.489E-03
            1588            2288     333.900E-03     335.990E-03
            1588            2291     428.818E-03     430.801E-03
            1588            2292     348.386E-03     354.802E-03
            1589            2288     333.900E-03     335.990E-03
            1589            2289     265.747E-03     256.625E-03
            1589            2292     348.386E-03     354.802E-03
            1589            2293     274.099E-03     273.123E-03
            1590            2289     265.747E-03     256.625E-03
            1590            2290     211.979E-03     195.837E-03
            1590            2293     274.099E-03     273.123E-03
            1590            2294     214.152E-03     202.622E-03
            1591             396     190.695E-03     171.724E-03
            1591             397     190.338E-03     174.148E-03
            1591            2290     211.979E-03     195.837E-03
            1591            2294     214.152E-03     202.622E-03
            1592             270     471.029E-03     467.073E-03
            1592             271     498.924E-03     492.960E-03
            1592            2291     428.818E-03     430.801E-03
            1592            2295     451.955E-03     449.836E-03
            1593            2291     428.818E-03     430.801E-03
            1593            2292     348.386E-03     354.802E-03
            1593            2295     451.955E-03     449.836E-03
            1593            2296     362.111E-03     365.140E-03
            1594            2292     348.386E-03     354.802E-03
            1594            2293     274.099E-03     273.123E-03
            1594            2296     362.111E-03     365.140E-03
            1594            2297     281.673E-03     283.035E-03
            1595            2293     274.099E-03     273.123E-03
            1595            2294     214.152E-03     202.622E-03
            1595            2297     281.673E-03     283.035E-03
            1595            2298     218.761E-03     212.902E-03
            1596             397     190.338E-03     174.148E-03
            1596             398     193.483E-03     183.380E-03
            1596            2294     214.152E-03     202.622E-03
            1596            2298     218.761E-03     212.902E-03
            1597             271     498.924E-03     492.960E-03
            1597             272     523.794E-03     515.881E-03
            1597            2295     451.955E-03     449.836E-03
            1597            2299     473.388E-03     469.145E-03
            1598            2295     451.955E-03     449.836E-03
            1598            2296     362.111E-03     365.140E-03
            1598            2299     473.388E-03     469.145E-03
            1598            2300     376.680E-03     377.650E-03
            1599            2296     362.111E-03     365.140E-03
            1599            2297     281.673E-03     283.035E-03
            1599            2300     376.680E-03     377.650E-03
            1599            2301     290.373E-03     292.314E-03
            1600            2297     281.673E-03     283.035E-03
            1600            2298     218.761E-03     212.902E-03
            1600            2301     290.373E-03     292.314E-03
            1600            2302     223.575E-03     222.688E-03
            1601             398     193.483E-03     183.380E-03
            1601             399     196.856E-03     193.719E-03
            1601            2298     218.761E-03     212.902E-03
            1601            2302     223.575E-03     222.688E-03
            1602             272     523.794E-03     515.881E-03
            1602             273     547.626E-03     539.041E-03
            1602            2299     473.388E-03     469.145E-03
            1602            2303     494.632E-03     489.318E-03
            1603            2299     473.388E-03     469.145E-03
            1603            2300     376.680E-03     377.650E-03
            1603            2303     494.632E-03     489.318E-03
            1603            2304     392.303E-03     392.701E-03
            1604            2300     376.680E-03     377.650E-03
            1604            2301     290.373E-03     292.314E-03
            1604            2304     392.303E-03     392.701E-03
            1604            2305     299.297E-03     302.814E-03
            1605            2301     290.373E-03     292.314E-03
            1605            2302     223.575E-03     222.688E-03
            1605            2305     299.297E-03     302.814E-03
            1605            2306     227.850E-03     232.000E-03
            1606             399     196.856E-03     193.719E-03
            1606             400     200.153E-03     204.260E-03
            1606            2302     223.575E-03     222.688E-03
            1606            2306     227.850E-03     232.000E-03
            1607             273     547.626E-03     539.041E-03
            1607             274     572.840E-03     563.377E-03
            1607            2303     494.632E-03     489.318E-03
            1607            2307     516.579E-03     510.890E-03
            1608            2303     494.632E-03     489.318E-03
            1608            2304     392.303E-03     392.701E-03
            1608            2307     516.579E-03     510.890E-03
            1608            2308     406.989E-03     408.253E-03
            1609            2304     392.303E-03     392.701E-03
            1609            2305     299.297E-03     302.814E-03
            1609            2308     406.989E-03     408.253E-03
            1609            2309     308.322E-03     315.208E-03
            1610            2305     299.297E-03     302.814E-03
            1610            2306     227.850E-03     232.000E-03
            1610            2309     308.322E-03     315.208E-03
            1610            2310     231.314E-03     241.662E-03
            1611             400     200.153E-03     204.260E-03
            1611             401     199.723E-03     211.092E-03
            1611            2306     227.850E-03     232.000E-03
            1611            2310     231.314E-03     241.662E-03
            1612             274     572.840E-03     563.377E-03
            1612             275     595.231E-03     586.106E-03
            1612            2307     516.579E-03     510.890E-03
            1612            2311     536.890E-03     532.627E-03
            1613            2307     516.579E-03     510.890E-03
            1613            2308     406.989E-03     408.253E-03
            1613            2311     536.890E-03     532.627E-03
            1613            2312     423.132E-03     428.387E-03
            1614            2308     406.989E-03     408.253E-03
            1614            2309     308.322E-03     315.208E-03
            1614            2312     423.132E-03     428.387E-03
            1614            2313     315.192E-03     327.123E-03
            1615            2309     308.322E-03     315.208E-03
            1615            2310     231.314E-03     241.662E-03
            1615            2313     315.192E-03     327.123E-03
            1615            2314     228.624E-03     244.178E-03
            1616             401     199.723E-03     211.092E-03
            1616             402     194.662E-03     211.813E-03
            1616            2310     231.314E-03     241.662E-03
            1616            2314     228.624E-03     244.178E-03
            1617             275     595.231E-03     586.106E-03
            1617             276     628.970E-03     622.672E-03
            1617            2311     536.890E-03     532.627E-03
            1617            2315     566.320E-03     566.532E-03
            1618            2311     536.890E-03     532.627E-03
            1618            2312     423.132E-03     428.387E-03
            1618            2315     566.320E-03     566.532E-03
            1618            2316     435.548E-03     443.479E-03
            1619            2312     423.132E-03     428.387E-03
            1619            2313     315.192E-03     327.123E-03
            1619            2316     435.548E-03     443.479E-03
            1619            2317     310.614E-03     321.062E-03
            1620            2313     315.192E-03     327.123E-03
            1620            2314     228.624E-03     244.178E-03
            1620            2317     310.614E-03     321.062E-03
            1620            2318     216.537E-03     231.891E-03
            1621             402     194.662E-03     211.813E-03
            1621             403     179.358E-03     198.301E-03
            1621            2314     228.624E-03     244.178E-03
            1621            2318     216.537E-03     231.891E-03
            1622             276     628.970E-03     622.672E-03
            1622             277     678.799E-03     653.364E-03
            1622            2315     566.320E-03     566.532E-03
            1622            2319     590.349E-03     571.114E-03
            1623            2315     566.320E-03     566.532E-03
            1623            2316     435.548E-03     443.479E-03
            1623            2319     590.349E-03     571.114E-03
            1623            2320     425.537E-03     413.706E-03
            1624            2316     435.548E-03     443.479E-03
            1624            2317     310.614E-03     321.062E-03
            1624            2320     425.537E-03     413.706E-03
            1624            2321     291.984E-03     286.544E-03
            1625            2317     310.614E-03     321.062E-03
            1625            2318     216.537E-03     231.891E-03
            1625            2321     291.984E-03     286.544E-03
            1625            2322     191.649E-03     197.287E-03
            1626             403     179.358E-03     198.301E-03
            1626             404     148.602E-03     160.118E-03
            1626            2318     216.537E-03     231.891E-03
            1626            2322     191.649E-03     197.287E-03
            1627             277     678.799E-03     653.364E-03
            1627             278     634.422E-03     581.610E-03
            1627            2319     590.349E-03     571.114E-03
            1627            2323     552.052E-03     501.081E-03
            1628            2319     590.349E-03     571.114E-03
            1628            2320     425.537E-03     413.706E-03
            1628            2323     552.052E-03     501.081E-03
            1628            2324     411.388E-03     370.285E-03
            1629            2320     425.537E-03     413.706E-03
            1629            2321     291.984E-03     286.544E-03
            1629            2324     411.388E-03     370.285E-03
            1629            2325     301.697E-03     276.188E-03
            1630            2321     291.984E-03     286.544E-03
            1630            2322     191.649E-03     197.287E-03
            1630            2325     301.697E-03     276.188E-03
            1630            2326     215.837E-03     204.864E-03
            1631             404     148.602E-03     160.118E-03
            1631             405     181.455E-03     177.439E-03
            1631            2322     191.649E-03     197.287E-03
            1631            2326     215.837E-03     204.864E-03
            1632             278     634.422E-03     581.610E-03
            1632             279     588.351E-03     565.841E-03
            1632            2323     552.052E-03     501.081E-03
            1632            2327     533.594E-03     509.019E-03
            1633            2323     552.052E-03     501.081E-03
            1633            2324     411.388E-03     370.285E-03
            1633            2327     533.594E-03     509.019E-03
            1633            2328     425.681E-03     398.166E-03
            1634            2324     411.388E-03     370.285E-03
            1634            2325     301.697E-03     276.188E-03
            1634            2328     425.681E-03     398.166E-03
            1634            2329     326.596E-03     301.104E-03
            1635            2325     301.697E-03     276.188E-03
            1635            2326     215.837E-03     204.864E-03
            1635            2329     326.596E-03     301.104E-03
            1635            2330     249.584E-03     228.725E-03
            1636             405     181.455E-03     177.439E-03
            1636             406     218.561E-03     199.439E-03
            1636            2326     215.837E-03     204.864E-03
            1636            2330     249.584E-03     228.725E-03
            1637             279     588.351E-03     565.841E-03
            1637             280     628.414E-03     631.011E-03
            1637            2327     533.594E-03     509.019E-03
            1637            2331     569.833E-03     577.597E-03
            1638            2327     533.594E-03     509.019E-03
            1638            2328     425.681E-03     398.166E-03
            1638            2331     569.833E-03     577.597E-03
            1638            2332     451.207E-03     455.946E-03
            1639            2328     425.681E-03     398.166E-03
            1639            2329     326.596E-03     301.104E-03
            1639            2332     451.207E-03     455.946E-03
            1639            2333     335.797E-03     326.969E-03
            1640            2329     326.596E-03     301.104E-03
            1640            2330     249.584E-03     228.725E-03
            1640            2333     335.797E-03     326.969E-03
            1640            2334     241.106E-03     222.002E-03
            1641             406     218.561E-03     199.439E-03
            1641             407     201.859E-03     177.867E-03
            1641            2330     249.584E-03     228.725E-03
            1641            2334     241.106E-03     222.002E-03
            1642             280     628.414E-03     631.011E-03
            1642             281     659.496E-03     652.757E-03
            1642            2331     569.833E-03     577.597E-03
            1642            2335     594.564E-03     596.356E-03
            1643            2331     569.833E-03     577.597E-03
            1643            2332     451.207E-03     455.946E-03
            1643            2335     594.564E-03     596.356E-03
            1643            2336     468.048E-03     478.064E-03
            1644            2332     451.207E-03     455.946E-03
            1644            2333     335.797E-03     326.969E-03
            1644            2336     468.048E-03     478.064E-03
            1644            2337     346.307E-03     348.829E-03
            1645            2333     335.797E-03     326.969E-03
            1645            2334     241.106E-03     222.002E-03
            1645            2337     346.307E-03     348.829E-03
            1645            2338     242.679E-03     230.838E-03
            1646             407     201.859E-03     177.867E-03
            1646             408     199.300E-03     180.295E-03
            1646            2334     241.106E-03     222.002E-03
            1646            2338     242.679E-03     230.838E-03
            1647             281     659.496E-03     652.757E-03
            1647             282     688.601E-03     680.345E-03
            1647            2335     594.564E-03     596.356E-03
            1647            2339     618.819E-03     616.110E-03
            1648            2335     594.564E-03     596.356E-03
            1648            2336     468.048E-03     478.064E-03
            1648            2339     618.819E-03     616.110E-03
            1648            2340     482.761E-03     488.353E-03
            1649            2336     468.048E-03     478.064E-03
            1649            2337     346.307E-03     348.829E-03
            1649            2340     482.761E-03     488.353E-03
            1649            2341     355.325E-03     360.880E-03
            1650            2337     346.307E-03     348.829E-03
            1650            2338     242.679E-03     230.838E-03
            1650            2341     355.325E-03     360.880E-03
            1650            2342     247.796E-03     244.149E-03
            1651             408     199.300E-03     180.295E-03
            1651             409     201.521E-03     191.473E-03
            1651            2338     242.679E-03     230.838E-03
            1651            2342     247.796E-03     244.149E-03
            1652             282     688.601E-03     680.345E-03
            1652             283     714.385E-03     703.519E-03
            1652            2339     618.819E-03     616.110E-03
            1652            2343     641.594E-03     636.660E-03
            1653            2339     618.819E-03     616.110E-03
            1653            2340     482.761E-03     488.353E-03
            1653            2343     641.594E-03     636.660E-03
            1653            2344     499.048E-03     502.967E-03
            1654            2340     482.761E-03     488.353E-03
            1654            2341     355.325E-03     360.880E-03
            1654            2344     499.048E-03     502.967E-03
            1654            2345     364.159E-03     370.834E-03
            1655            2341     355.325E-03     360.880E-03
            1655            2342     247.796E-03     244.149E-03
            1655            2345     364.159E-03     370.834E-03
            1655            2346     252.624E-03     256.655E-03
            1656             409     201.521E-03     191.473E-03
            1656             410     206.320E-03     207.882E-03
            1656            2342     247.796E-03     244.149E-03
            1656            2346     252.624E-03     256.655E-03
            1657             283     714.385E-03     703.519E-03
            1657             284     740.172E-03     728.906E-03
            1657            2343     641.594E-03     636.660E-03
            1657            2347     663.910E-03     658.142E-03
            1658            2343     641.594E-03     636.660E-03
            1658            2344     499.048E-03     502.967E-03
            1658            2347     663.910E-03     658.142E-03
            1658            2348     513.873E-03     517.994E-03
            1659            2344     499.048E-03     502.967E-03
            1659            2345     364.159E-03     370.834E-03
            1659            2348     513.873E-03     517.994E-03
            1659            2349     373.708E-03     384.308E-03
            1660            2345     364.159E-03     370.834E-03
            1660            2346     252.624E-03     256.655E-03
            1660            2349     373.708E-03     384.308E-03
            1660            2350     256.851E-03     269.548E-03
            1661             410     206.320E-03     207.882E-03
            1661             411     206.484E-03     219.192E-03
            1661            2346     252.624E-03     256.655E-03
            1661            2350     256.851E-03     269.548E-03
            1662             284     740.172E-03     728.906E-03
            1662             285     762.709E-03     751.049E-03
            1662            2347     663.910E-03     658.142E-03
            1662            2351     684.379E-03     680.097E-03
            1663            2347     663.910E-03     658.142E-03
            1663            2348     513.873E-03     517.994E-03
            1663            2351     684.379E-03     680.097E-03
            1663            2352     530.352E-03     539.179E-03
            1664            2348     513.873E-03     517.994E-03
            1664            2349     373.708E-03     384.308E-03
            1664            2352     530.352E-03     539.179E-03
            1664            2353     380.656E-03     396.815E-03
            1665            2349     373.708E-03     384.308E-03
            1665            2350     256.851E-03     269.548E-03
            1665            2353     380.656E-03     396.815E-03
            1665            2354     254.039E-03     273.571E-03
            1666             411     206.484E-03     219.192E-03
            1666             412     201.524E-03     222.823E-03
            1666            2350     256.851E-03     269.548E-03
            1666            2354     254.039E-03     273.571E-03
            1667             285     762.709E-03     751.049E-03
            1667             286     797.054E-03     789.879E-03
            1667            2351     684.379E-03     680.097E-03
            1667            2355     714.458E-03     715.916E-03
            1668            2351     684.379E-03     680.097E-03
            1668            2352     530.352E-03     539.179E-03
            1668            2355     714.458E-03     715.916E-03
            1668            2356     542.100E-03     552.832E-03
            1669            2352     530.352E-03     539.179E-03
            1669            2353     380.656E-03     396.815E-03
            1669            2356     542.100E-03     552.832E-03
            1669            2357     374.460E-03     387.014E-03
            1670            2353     380.656E-03     396.815E-03
            1670            2354     254.039E-03     273.571E-03
            1670            2357     374.460E-03     387.014E-03
            1670            2358     240.291E-03     259.136E-03
            1671             412     201.524E-03     222.823E-03
            1671             413     184.107E-03     208.051E-03
            1671            2354     254.039E-03     273.571E-03
            1671            2358     240.291E-03     259.136E-03
            1672             286     797.054E-03     789.879E-03
            1672             287     848.828E-03     816.032E-03
            1672            2355     714.458E-03     715.916E-03
            1672            2359     737.005E-03     711.259E-03
            1673            2355     714.458E-03     715.916E-03
            1673            2356     542.100E-03     552.832E-03
            1673            2359     737.005E-03     711.259E-03
            1673            2360     527.503E-03     509.963E-03
            1674            2356     542.100E-03     552.832E-03
            1674            2357     374.460E-03     387.014E-03
            1674            2360     527.503E-03     509.963E-03
            1674            2361     352.672E-03     342.777E-03
            1675            2357     374.460E-03     387.014E-03
            1675            2358     240.291E-03     259.136E-03
            1675            2361     352.672E-03     342.777E-03
            1675            2362     211.807E-03     216.952E-03
            1676             413     184.107E-03     208.051E-03
            1676             414     148.217E-03     161.893E-03
            1676            2358     240.291E-03     259.136E-03
            1676            2362     211.807E-03     216.952E-03
            1677             287     848.828E-03     816.032E-03
            1677             288     803.255E-03     741.915E-03
            1677            2359     737.005E-03     711.259E-03
            1677            2363     695.559E-03     636.699E-03
            1678            2359     737.005E-03     711.259E-03
            1678            2360     527.503E-03     509.963E-03
            1678            2363     695.559E-03     636.699E-03
            1678            2364     511.483E-03     465.073E-03
            1679            2360     527.503E-03     509.963E-03
            1679            2361     352.672E-03     342.777E-03
            1679            2364     511.483E-03     465.073E-03
            1679            2365     365.568E-03     337.965E-03
            1680            2361     352.672E-03     342.777E-03
            1680            2362     211.807E-03     216.952E-03
            1680            2365     365.568E-03     337.965E-03
            1680            2366     245.388E-03     234.927E-03
            1681             414     148.217E-03     161.893E-03
            1681             415     194.844E-03     192.674E-03
            1681            2362     211.807E-03     216.952E-03
            1681            2366     245.388E-03     234.927E-03
            1682             288     803.255E-03     741.915E-03
            1682             289     761.917E-03     738.460E-03
            1682            2363     695.559E-03     636.699E-03
            1682            2367     684.681E-03     662.633E-03
            1683            2363     695.559E-03     636.699E-03
            1683            2364     511.483E-03     465.073E-03
            1683            2367     684.681E-03     662.633E-03
            1683            2368     534.491E-03     513.434E-03
            1684            2364     511.483E-03     465.073E-03
            1684            2365     365.568E-03     337.965E-03
            1684            2368     534.491E-03     513.434E-03
            1684            2369     397.295E-03     379.163E-03
            1685            2365     365.568E-03     337.965E-03
            1685            2366     245.388E-03     234.927E-03
            1685            2369     397.295E-03     379.163E-03
            1685            2370     288.192E-03     275.479E-03
            1686             415     194.844E-03     192.674E-03
            1686             416     243.406E-03     232.771E-03
            1686            2366     245.388E-03     234.927E-03
            1686            2370     288.192E-03     275.479E-03
            1687             289     761.917E-03     738.460E-03
            1687             290     807.049E-03     810.530E-03
            1687            2367     684.681E-03     662.633E-03
            1687            2371     728.797E-03     742.442E-03
            1688            2367     684.681E-03     662.633E-03
            1688            2368     534.491E-03     513.434E-03
            1688            2371     728.797E-03     742.442E-03
            1688            2372     568.242E-03     585.427E-03
            1689            2368     534.491E-03     513.434E-03
            1689            2369     397.295E-03     379.163E-03
            1689            2372     568.242E-03     585.427E-03
            1689            2373     410.625E-03     416.546E-03
            1690            2369     397.295E-03     379.163E-03
            1690            2370     288.192E-03     275.479E-03
            1690            2373     410.625E-03     416.546E-03
            1690            2374     275.347E-03     272.027E-03
            1691             416     243.406E-03     232.771E-03
            1691             417     215.483E-03     207.567E-03
            1691            2370     288.192E-03     275.479E-03
            1691            2374     275.347E-03     272.027E-03
            1692             290     807.049E-03     810.530E-03
            1692             291     835.153E-03     829.772E-03
            1692            2371     728.797E-03     742.442E-03
            1692            2375     752.261E-03     761.640E-03
            1693            2371     728.797E-03     742.442E-03
            1693            2372     568.242E-03     585.427E-03
            1693            2375     752.261E-03     761.640E-03
            1693            2376     588.161E-03     616.321E-03
            1694            2372     568.242E-03     585.427E-03
            1694            2373     410.625E-03     416.546E-03
            1694            2376     588.161E-03     616.321E-03
            1694            2377     419.959E-03     443.727E-03
            1695            2373     410.625E-03     416.546E-03
            1695            2374     275.347E-03     272.027E-03
            1695            2377     419.959E-03     443.727E-03
            1695            2378     267.439E-03     276.427E-03
            1696             417     215.483E-03     207.567E-03
            1696             418     202.027E-03     204.655E-03
            1696            2374     275.347E-03     272.027E-03
            1696            2378     267.439E-03     276.427E-03
            1697             291     835.153E-03     829.772E-03
            1697             292     878.155E-03     875.668E-03
            1697            2375     752.261E-03     761.640E-03
            1697            2379     786.941E-03     797.863E-03
            1698            2375     752.261E-03     761.640E-03
            1698            2376     588.161E-03     616.321E-03
            1698            2379     786.941E-03     797.863E-03
            1698            2380     597.060E-03     621.529E-03
            1699            2376     588.161E-03     616.321E-03
            1699            2377     419.959E-03     443.727E-03
            1699            2380     597.060E-03     621.529E-03
            1699            2381     410.247E-03     430.552E-03
            1700            2377     419.959E-03     443.727E-03
            1700            2378     267.439E-03     276.427E-03
            1700            2381     410.247E-03     430.552E-03
            1700            2382     252.058E-03     265.418E-03
            1701             418     202.027E-03     204.655E-03
            1701             419     182.140E-03     192.853E-03
            1701            2378     267.439E-03     276.427E-03
            1701            2382     252.058E-03     265.418E-03
            1702             292     878.155E-03     875.668E-03
            1702             293     931.696E-03     899.567E-03
            1702            2379     786.941E-03     797.863E-03
            1702            2383     808.346E-03     786.875E-03
            1703            2379     786.941E-03     797.863E-03
            1703            2380     597.060E-03     621.529E-03
            1703            2383     808.346E-03     786.875E-03
            1703            2384     577.457E-03     567.514E-03
            1704            2380     597.060E-03     621.529E-03
            1704            2381     410.247E-03     430.552E-03
            1704            2384     577.457E-03     567.514E-03
            1704            2385     382.980E-03     378.216E-03
            1705            2381     410.247E-03     430.552E-03
            1705            2382     252.058E-03     265.418E-03
            1705            2385     382.980E-03     378.216E-03
            1705            2386     220.033E-03     223.452E-03
            1706             419     182.140E-03     192.853E-03
            1706             420     144.169E-03     151.452E-03
            1706            2382     252.058E-03     265.418E-03
            1706            2386     220.033E-03     223.452E-03
            1707              11     895.318E-03     836.594E-03
            1707             293     931.696E-03     899.567E-03
            1707             424     773.311E-03     718.618E-03
            1707            2383     808.346E-03     786.875E-03
            1708             423     565.266E-03     525.908E-03
            1708             424     773.311E-03     718.618E-03
            1708            2383     808.346E-03     786.875E-03
            1708            2384     577.457E-03     567.514E-03
            1709             422     398.592E-03     378.247E-03
            1709             423     565.266E-03     525.908E-03
            1709            2384     577.457E-03     567.514E-03
            1709            2385     382.980E-03     378.216E-03
            1710             421     259.598E-03     253.261E-03
            1710             422     398.592E-03     378.247E-03
            1710            2385     382.980E-03     378.216E-03
            1710            2386     220.033E-03     223.452E-03
            1711              15     201.315E-03     200.742E-03
            1711             420     144.169E-03     151.452E-03
            1711             421     259.598E-03     253.261E-03
            1711            2386     220.033E-03     223.452E-03
            1712              13     83.7654E-03     83.7987E-03
            1712             356     169.822E-06     171.192E-06
            1712             369     83.9565E-03     83.9627E-03
            1712            2387     170.130E-06     171.503E-06
            1713             368     81.7709E-03     81.5366E-03
            1713             369     83.9565E-03     83.9627E-03
            1713            2387     170.130E-06     171.503E-06
            1713            2388     170.111E-06     171.400E-06
            1714             367     77.5998E-03     77.4200E-03
            1714             368     81.7709E-03     81.5366E-03
            1714            2388     170.111E-06     171.400E-06
            1714            2389     175.532E-06     176.463E-06
            1715             366     67.6093E-03     67.5768E-03
            1715             367     77.5998E-03     77.4200E-03
            1715            2389     175.532E-06     176.463E-06
            1715            2390     187.711E-06     185.788E-06
            1716               5     59.4140E-03     59.2607E-03
            1716             183     194.142E-06     189.633E-06
            1716             366     67.6093E-03     67.5768E-03
            1716            2390     187.711E-06     185.788E-06
            1717             356     169.822E-06     171.192E-06
            1717             357     180.155E-06     181.837E-06
            1717            2387     170.130E-06     171.503E-06
            1717            2391     179.261E-06     181.002E-06
            1718            2387     170.130E-06     171.503E-06
            1718            2388     170.111E-06     171.400E-06
            1718            2391     179.261E-06     181.002E-06
            1718            2392     177.884E-06     179.854E-06
            1719            2388     170.111E-06     171.400E-06
            1719            2389     175.532E-06     176.463E-06
            1719            2392     177.884E-06     179.854E-06
            1719            2393     174.577E-06     175.739E-06
            1720            2389     175.532E-06     176.463E-06
            1720            2390     187.711E-06     185.788E-06
            1720            2393     174.577E-06     175.739E-06
            1720            2394     162.401E-06     161.996E-06
            1721             183     194.142E-06     189.633E-06
            1721             184     153.048E-06     152.055E-06
            1721            2390     187.711E-06     185.788E-06
            1721            2394     162.401E-06     161.996E-06
            1722             357     180.155E-06     181.837E-06
            1722             358     185.927E-06     186.755E-06
            1722            2391     179.261E-06     181.002E-06
            1722            2395     185.005E-06     185.932E-06
            1723            2391     179.261E-06     181.002E-06
            1723            2392     177.884E-06     179.854E-06
            1723            2395     185.005E-06     185.932E-06
            1723            2396     180.181E-06     181.027E-06
            1724            2392     177.884E-06     179.854E-06
            1724            2393     174.577E-06     175.739E-06
            1724            2396     180.181E-06     181.027E-06
            1724            2397     166.236E-06     166.550E-06
            1725            2393     174.577E-06     175.739E-06
            1725            2394     162.401E-06     161.996E-06
            1725            2397     166.236E-06     166.550E-06
            1725            2398     142.070E-06     142.003E-06
            1726             184     153.048E-06     152.055E-06
            1726             185     127.948E-06     127.850E-06
            1726            2394     162.401E-06     161.996E-06
            1726            2398     142.070E-06     142.003E-06
            1727             358     185.927E-06     186.755E-06
            1727             359     186.453E-06     186.066E-06
            1727            2395     185.005E-06     185.932E-06
            1727            2399     185.292E-06     184.878E-06
            1728            2395     185.005E-06     185.932E-06
            1728            2396     180.181E-06     181.027E-06
            1728            2399     185.292E-06     184.878E-06
            1728            2400     178.936E-06     178.490E-06
            1729            2396     180.181E-06     181.027E-06
            1729            2397     166.236E-06     166.550E-06
            1729            2400     178.936E-06     178.490E-06
            1729            2401     161.718E-06     161.974E-06
            1730            2397     166.236E-06     166.550E-06
            1730            2398     142.070E-06     142.003E-06
            1730            2401     161.718E-06     161.974E-06
            1730            2402     131.041E-06     132.061E-06
            1731             185     127.948E-06     127.850E-06
            1731             186     112.387E-06     113.464E-06
            1731            2398     142.070E-06     142.003E-06
            1731            2402     131.041E-06     132.061E-06
            1732             359     186.453E-06     186.066E-06
            1732             360     182.770E-06     181.505E-06
            1732            2399     185.292E-06     184.878E-06
            1732            2403     180.911E-06     179.609E-06
            1733            2399     185.292E-06     184.878E-06
            1733            2400     178.936E-06     178.490E-06
            1733            2403     180.911E-06     179.609E-06
            1733            2404     175.680E-06     174.520E-06
            1734            2400     178.936E-06     178.490E-06
            1734            2401     161.718E-06     161.974E-06
            1734            2404     175.680E-06     174.520E-06
            1734            2405     161.753E-06     161.308E-06
            1735            2401     161.718E-06     161.974E-06
            1735            2402     131.041E-06     132.061E-06
            1735            2405     161.753E-06     161.308E-06
            1735            2406     128.042E-06     129.638E-06
            1736             186     112.387E-06     113.464E-06
            1736             187     104.888E-06     107.988E-06
            1736            2402     131.041E-06     132.061E-06
            1736            2406     128.042E-06     129.638E-06
            1737             360     182.770E-06     181.505E-06
            1737             361     177.604E-06     176.472E-06
            1737            2403     180.911E-06     179.609E-06
            1737            2407     175.977E-06     174.828E-06
            1738            2403     180.911E-06     179.609E-06
            1738            2404     175.680E-06     174.520E-06
            1738            2407     175.977E-06     174.828E-06
            1738            2408     169.636E-06     168.451E-06
            1739            2404     175.680E-06     174.520E-06
            1739            2405     161.753E-06     161.308E-06
            1739            2408     169.636E-06     168.451E-06
            1739            2409     158.777E-06     157.932E-06
            1740            2405     161.753E-06     161.308E-06
            1740            2406     128.042E-06     129.638E-06
            1740            2409     158.777E-06     157.932E-06
            1740            2410     133.249E-06     134.310E-06
            1741             187     104.888E-06     107.988E-06
            1741             188     113.866E-06     116.474E-06
            1741            2406     128.042E-06     129.638E-06
            1741            2410     133.249E-06     134.310E-06
            1742              14     175.409E-06     174.689E-06
            1742             361     177.604E-06     176.472E-06
            1742             428     173.774E-06     172.973E-06
            1742            2407     175.977E-06     174.828E-06
            1743             427     166.077E-06     165.150E-06
            1743             428     173.774E-06     172.973E-06
            1743            2407     175.977E-06     174.828E-06
            1743            2408     169.636E-06     168.451E-06
            1744             426     155.588E-06     154.877E-06
            1744             427     166.077E-06     165.150E-06
            1744            2408     169.636E-06     168.451E-06
            1744            2409     158.777E-06     157.932E-06
            1745             425     136.174E-06     136.752E-06
            1745             426     155.588E-06     154.877E-06
            1745            2409     158.777E-06     157.932E-06
            1745            2410     133.249E-06     134.310E-06
            1746               6     121.184E-06     122.794E-06
            1746             188     113.866E-06     116.474E-06
            1746             425     136.174E-06     136.752E-06
            1746            2410     133.249E-06     134.310E-06
            1747              15     201.315E-03     200.742E-03
            1747             429     259.850E-03     251.678E-03
            1747             446     253.301E-03     249.537E-03
            1747            2411     308.926E-03     302.554E-03
            1748             429     259.850E-03     251.678E-03
            1748             430     398.879E-03     375.776E-03
            1748            2411     308.926E-03     302.554E-03
            1748            2412     439.026E-03     427.031E-03
            1749             430     398.879E-03     375.776E-03
            1749             431     565.636E-03     522.956E-03
            1749            2412     439.026E-03     427.031E-03
            1749            2413     597.825E-03     581.557E-03
            1750             431     565.636E-03     522.956E-03
            1750             432     773.846E-03     715.060E-03
            1750            2413     597.825E-03     581.557E-03
            1750            2414     773.047E-03     753.370E-03
            1751               3     895.866E-03     832.684E-03
            1751             432     773.846E-03     715.060E-03
            1751             433     863.790E-03     841.016E-03
            1751            2414     773.047E-03     753.370E-03
            1752             445     215.803E-03     215.533E-03
            1752             446     253.301E-03     249.537E-03
            1752            2411     308.926E-03     302.554E-03
            1752            2415     286.856E-03     289.441E-03
            1753            2411     308.926E-03     302.554E-03
            1753            2412     439.026E-03     427.031E-03
            1753            2415     286.856E-03     289.441E-03
            1753            2416     451.614E-03     464.688E-03
            1754            2412     439.026E-03     427.031E-03
            1754            2413     597.825E-03     581.557E-03
            1754            2416     451.614E-03     464.688E-03
            1754            2417     637.491E-03     664.018E-03
            1755            2413     597.825E-03     581.557E-03
            1755            2414     773.047E-03     753.370E-03
            1755            2417     637.491E-03     664.018E-03
            1755            2418     817.158E-03     836.513E-03
            1756             433     863.790E-03     841.016E-03
            1756             434     903.981E-03     910.003E-03
            1756            2414     773.047E-03     753.370E-03
            1756            2418     817.158E-03     836.513E-03
            1757             444     186.434E-03     191.260E-03
            1757             445     215.803E-03     215.533E-03
            1757            2415     286.856E-03     289.441E-03
            1757            2419     265.361E-03     273.906E-03
            1758            2415     286.856E-03     289.441E-03
            1758            2416     451.614E-03     464.688E-03
            1758            2419     265.361E-03     273.906E-03
            1758            2420     445.291E-03     466.585E-03
            1759            2416     451.614E-03     464.688E-03
            1759            2417     637.491E-03     664.018E-03
            1759            2420     445.291E-03     466.585E-03
            1759            2421     650.110E-03     684.165E-03
            1760            2417     637.491E-03     664.018E-03
            1760            2418     817.158E-03     836.513E-03
            1760            2421     650.110E-03     684.165E-03
            1760            2422     850.895E-03     870.193E-03
            1761             434     903.981E-03     910.003E-03
            1761             435     946.608E-03     947.925E-03
            1761            2418     817.158E-03     836.513E-03
            1761            2422     850.895E-03     870.193E-03
            1762             443     143.270E-03     146.159E-03
            1762             444     186.434E-03     191.260E-03
            1762            2419     265.361E-03     273.906E-03
            1762            2423     229.175E-03     233.559E-03
            1763            2419     265.361E-03     273.906E-03
            1763            2420     445.291E-03     466.585E-03
            1763            2423     229.175E-03     233.559E-03
            1763            2424     413.183E-03     415.125E-03
            1764            2420     445.291E-03     466.585E-03
            1764            2421     650.110E-03     684.165E-03
            1764            2424     413.183E-03     415.125E-03
            1764            2425     624.351E-03     622.449E-03
            1765            2421     650.110E-03     684.165E-03
            1765            2422     850.895E-03     870.193E-03
            1765            2425     624.351E-03     622.449E-03
            1765            2426     872.540E-03     856.475E-03
            1766             435     946.608E-03     947.925E-03
            1766             436         1.00554     977.058E-03
            1766            2422     850.895E-03     870.193E-03
            1766            2426     872.540E-03     856.475E-03
            1767             442     123.174E-03     123.143E-03
            1767             443     143.270E-03     146.159E-03
            1767            2423     229.175E-03     233.559E-03
            1767            2427     208.975E-03     208.441E-03
            1768            2423     229.175E-03     233.559E-03
            1768            2424     413.183E-03     415.125E-03
            1768            2427     208.975E-03     208.441E-03
            1768            2428     395.961E-03     389.384E-03
            1769            2424     413.183E-03     415.125E-03
            1769            2425     624.351E-03     622.449E-03
            1769            2428     395.961E-03     389.384E-03
            1769            2429     597.752E-03     581.760E-03
            1770            2425     624.351E-03     622.449E-03
            1770            2426     872.540E-03     856.475E-03
            1770            2429     597.752E-03     581.760E-03
            1770            2430     831.235E-03     804.674E-03
            1771             436         1.00554     977.058E-03
            1771             437     961.233E-03     929.424E-03
            1771            2426     872.540E-03     856.475E-03
            1771            2430     831.235E-03     804.674E-03
            1772              17     168.809E-03     171.107E-03
            1772             441     245.523E-03     244.769E-03
            1772             442     123.174E-03     123.143E-03
            1772            2427     208.975E-03     208.441E-03
            1773             440     419.382E-03     410.586E-03
            1773             441     245.523E-03     244.769E-03
            1773            2427     208.975E-03     208.441E-03
            1773            2428     395.961E-03     389.384E-03
            1774             439     619.700E-03     601.022E-03
            1774             440     419.382E-03     410.586E-03
            1774            2428     395.961E-03     389.384E-03
            1774            2429     597.752E-03     581.760E-03
            1775             438     861.008E-03     831.534E-03
            1775             439     619.700E-03     601.022E-03
            1775            2429     597.752E-03     581.760E-03
            1775            2430     831.235E-03     804.674E-03
            1776              16     997.100E-03     962.009E-03
            1776             437     961.233E-03     929.424E-03
            1776             438     861.008E-03     831.534E-03
            1776            2430     831.235E-03     804.674E-03
            3465              13     83.7654E-03     83.7987E-03
            3465             355     83.9551E-03     83.9610E-03
            3465             370     166.782E-03     166.849E-03
            3465            3890     166.994E-03     167.006E-03
            3466             354     81.7650E-03     81.5284E-03
            3466             355     83.9551E-03     83.9610E-03
            3466            3890     166.994E-03     167.006E-03
            3466            3891     165.740E-03     165.500E-03
            3467             353     77.5757E-03     77.3904E-03
            3467             354     81.7650E-03     81.5284E-03
            3467            3891     165.740E-03     165.500E-03
            3467            3892     159.548E-03     158.872E-03
            3468             352     67.5226E-03     67.4887E-03
            3468             353     77.5757E-03     77.3904E-03
            3468            3892     159.548E-03     158.872E-03
            3468            3893     133.613E-03     133.689E-03
            3469               2     59.2779E-03     59.1291E-03
            3469              51     112.404E-03     113.472E-03
            3469             352     67.5226E-03     67.4887E-03
            3469            3893     133.613E-03     133.689E-03
            3470             370     166.782E-03     166.849E-03
            3470             371     165.186E-03     165.227E-03
            3470            3890     166.994E-03     167.006E-03
            3470            3894     165.445E-03     165.502E-03
            3471            3890     166.994E-03     167.006E-03
            3471            3891     165.740E-03     165.500E-03
            3471            3894     165.445E-03     165.502E-03
            3471            3895     167.458E-03     167.702E-03
            3472            3891     165.740E-03     165.500E-03
            3472            3892     159.548E-03     158.872E-03
            3472            3895     167.458E-03     167.702E-03
            3472            3896     165.136E-03     164.999E-03
            3473            3892     159.548E-03     158.872E-03
            3473            3893     133.613E-03     133.689E-03
            3473            3896     165.136E-03     164.999E-03
            3473            3897     137.856E-03     138.163E-03
            3474              51     112.404E-03     113.472E-03
            3474              52     114.658E-03     115.959E-03
            3474            3893     133.613E-03     133.689E-03
            3474            3897     137.856E-03     138.163E-03
            3475             371     165.186E-03     165.227E-03
            3475             372     162.182E-03     162.190E-03
            3475            3894     165.445E-03     165.502E-03
            3475            3898     162.951E-03     163.046E-03
            3476            3894     165.445E-03     165.502E-03
            3476            3895     167.458E-03     167.702E-03
            3476            3898     162.951E-03     163.046E-03
            3476            3899     163.266E-03     163.591E-03
            3477            3895     167.458E-03     167.702E-03
            3477            3896     165.136E-03     164.999E-03
            3477            3899     163.266E-03     163.591E-03
            3477            3900     162.128E-03     162.921E-03
            3478            3896     165.136E-03     164.999E-03
            3478            3897     137.856E-03     138.163E-03
            3478            3900     162.128E-03     162.921E-03
            3478            3901     151.486E-03     151.334E-03
            3479              52     114.658E-03     115.959E-03
            3479              53     141.537E-03     140.114E-03
            3479            3897     137.856E-03     138.163E-03
            3479            3901     151.486E-03     151.334E-03
            3480             372     162.182E-03     162.190E-03
            3480             373     167.154E-03     165.904E-03
            3480            3898     162.951E-03     163.046E-03
            3480            3902     166.907E-03     165.489E-03
            3481            3898     162.951E-03     163.046E-03
            3481            3899     163.266E-03     163.591E-03
            3481            3902     166.907E-03     165.489E-03
            3481            3903     162.915E-03     161.078E-03
            3482            3899     163.266E-03     163.591E-03
            3482            3900     162.128E-03     162.921E-03
            3482            3903     162.915E-03     161.078E-03
            3482            3904     156.565E-03     154.475E-03
            3483            3900     162.128E-03     162.921E-03
            3483            3901     151.486E-03     151.334E-03
            3483            3904     156.565E-03     154.475E-03
            3483            3905     141.818E-03     140.130E-03
            3484              53     141.537E-03     140.114E-03
            3484              54     129.685E-03     128.399E-03
            3484            3901     151.486E-03     151.334E-03
            3484            3905     141.818E-03     140.130E-03
            3485             373     167.154E-03     165.904E-03
            3485             374     174.872E-03     170.838E-03
            3485            3902     166.907E-03     165.489E-03
            3485            3906     173.684E-03     169.507E-03
            3486            3902     166.907E-03     165.489E-03
            3486            3903     162.915E-03     161.078E-03
            3486            3906     173.684E-03     169.507E-03
            3486            3907     168.911E-03     164.506E-03
            3487            3903     162.915E-03     161.078E-03
            3487            3904     156.565E-03     154.475E-03
            3487            3907     168.911E-03     164.506E-03
            3487            3908     158.995E-03     155.017E-03
            3488            3904     156.565E-03     154.475E-03
            3488            3905     141.818E-03     140.130E-03
            3488            3908     158.995E-03     155.017E-03
            3488            3909     129.342E-03     130.136E-03
            3489              54     129.685E-03     128.399E-03
            3489              55     106.028E-03     111.082E-03
            3489            3905     141.818E-03     140.130E-03
            3489            3909     129.342E-03     130.136E-03
            3490             374     174.872E-03     170.838E-03
            3490             375     178.183E-03     172.586E-03
            3490            3906     173.684E-03     169.507E-03
            3490            3910     177.328E-03     172.101E-03
            3491            3906     173.684E-03     169.507E-03
            3491            3907     168.911E-03     164.506E-03
            3491            3910     177.328E-03     172.101E-03
            3491            3911     174.443E-03     170.347E-03
            3492            3907     168.911E-03     164.506E-03
            3492            3908     158.995E-03     155.017E-03
            3492            3911     174.443E-03     170.347E-03
            3492            3912     164.311E-03     163.478E-03
            3493            3908     158.995E-03     155.017E-03
            3493            3909     129.342E-03     130.136E-03
            3493            3912     164.311E-03     163.478E-03
            3493            3913     139.195E-03     143.127E-03
            3494              55     106.028E-03     111.082E-03
            3494              56     122.190E-03     128.387E-03
            3494            3909     129.342E-03     130.136E-03
            3494            3913     139.195E-03     143.127E-03
            3495             375     178.183E-03     172.586E-03
            3495             376     182.999E-03     178.280E-03
            3495            3910     177.328E-03     172.101E-03
            3495            3914     182.250E-03     178.133E-03
            3496            3910     177.328E-03     172.101E-03
            3496            3911     174.443E-03     170.347E-03
            3496            3914     182.250E-03     178.133E-03
            3496            3915     178.532E-03     176.513E-03
            3497            3911     174.443E-03     170.347E-03
            3497            3912     164.311E-03     163.478E-03
            3497            3915     178.532E-03     176.513E-03
            3497            3916     167.925E-03     169.217E-03
            3498            3912     164.311E-03     163.478E-03
            3498            3913     139.195E-03     143.127E-03
            3498            3916     167.925E-03     169.217E-03
            3498            3917     151.084E-03     153.556E-03
            3499              56     122.190E-03     128.387E-03
            3499              57     141.896E-03     143.735E-03
            3499            3913     139.195E-03     143.127E-03
            3499            3917     151.084E-03     153.556E-03
            3500             376     182.999E-03     178.280E-03
            3500             377     186.793E-03     184.126E-03
            3500            3914     182.250E-03     178.133E-03
            3500            3918     185.949E-03     183.952E-03
            3501            3914     182.250E-03     178.133E-03
            3501            3915     178.532E-03     176.513E-03
            3501            3918     185.949E-03     183.952E-03
            3501            3919     181.866E-03     181.555E-03
            3502            3915     178.532E-03     176.513E-03
            3502            3916     167.925E-03     169.217E-03
            3502            3919     181.866E-03     181.555E-03
            3502            3920     174.009E-03     175.151E-03
            3503            3916     167.925E-03     169.217E-03
            3503            3917     151.084E-03     153.556E-03
            3503            3920     174.009E-03     175.151E-03
            3503            3921     165.827E-03     166.502E-03
            3504              57     141.896E-03     143.735E-03
            3504              58     162.282E-03     162.055E-03
            3504            3917     151.084E-03     153.556E-03
            3504            3921     165.827E-03     166.502E-03
            3505             377     186.793E-03     184.126E-03
            3505             378     188.930E-03     188.928E-03
            3505            3918     185.949E-03     183.952E-03
            3505            3922     187.952E-03     188.151E-03
            3506            3918     185.949E-03     183.952E-03
            3506            3919     181.866E-03     181.555E-03
            3506            3922     187.952E-03     188.151E-03
            3506            3923     185.793E-03     186.462E-03
            3507            3919     181.866E-03     181.555E-03
            3507            3920     174.009E-03     175.151E-03
            3507            3923     185.793E-03     186.462E-03
            3507            3924     182.967E-03     183.670E-03
            3508            3920     174.009E-03     175.151E-03
            3508            3921     165.827E-03     166.502E-03
            3508            3924     182.967E-03     183.670E-03
            3508            3925     182.136E-03     181.430E-03
            3509              58     162.282E-03     162.055E-03
            3509              59     182.976E-03     181.094E-03
            3509            3921     165.827E-03     166.502E-03
            3509            3925     182.136E-03     181.430E-03
            3510             378     188.930E-03     188.928E-03
            3510             379     187.965E-03     190.705E-03
            3510            3922     187.952E-03     188.151E-03
            3510            3926     188.851E-03     191.390E-03
            3511            3922     187.952E-03     188.151E-03
            3511            3923     185.793E-03     186.462E-03
            3511            3926     188.851E-03     191.390E-03
            3511            3927     190.142E-03     191.805E-03
            3512            3923     185.793E-03     186.462E-03
            3512            3924     182.967E-03     183.670E-03
            3512            3927     190.142E-03     191.805E-03
            3512            3928     193.022E-03     193.247E-03
            3513            3924     182.967E-03     183.670E-03
            3513            3925     182.136E-03     181.430E-03
            3513            3928     193.022E-03     193.247E-03
            3513            3929     200.586E-03     198.833E-03
            3514              59     182.976E-03     181.094E-03
            3514              60     205.702E-03     202.738E-03
            3514            3925     182.136E-03     181.430E-03
            3514            3929     200.586E-03     198.833E-03
            3515             379     187.965E-03     190.705E-03
            3515             380     183.522E-03     188.436E-03
            3515            3926     188.851E-03     191.390E-03
            3515            3930     186.113E-03     190.842E-03
            3516            3926     188.851E-03     191.390E-03
            3516            3927     190.142E-03     191.805E-03
            3516            3930     186.113E-03     190.842E-03
            3516            3931     194.155E-03     197.675E-03
            3517            3927     190.142E-03     191.805E-03
            3517            3928     193.022E-03     193.247E-03
            3517            3931     194.155E-03     197.675E-03
            3517            3932     205.319E-03     205.924E-03
            3518            3928     193.022E-03     193.247E-03
            3518            3929     200.586E-03     198.833E-03
            3518            3932     205.319E-03     205.924E-03
            3518            3933     219.540E-03     217.328E-03
            3519              60     205.702E-03     202.738E-03
            3519              61     228.078E-03     224.940E-03
            3519            3929     200.586E-03     198.833E-03
            3519            3933     219.540E-03     217.328E-03
            3520             380     183.522E-03     188.436E-03
            3520             381     173.985E-03     179.806E-03
            3520            3930     186.113E-03     190.842E-03
            3520            3934     178.098E-03     183.457E-03
            3521            3930     186.113E-03     190.842E-03
            3521            3931     194.155E-03     197.675E-03
            3521            3934     178.098E-03     183.457E-03
            3521            3935     192.308E-03     196.811E-03
            3522            3931     194.155E-03     197.675E-03
            3522            3932     205.319E-03     205.924E-03
            3522            3935     192.308E-03     196.811E-03
            3522            3936     217.698E-03     220.117E-03
            3523            3932     205.319E-03     205.924E-03
            3523            3933     219.540E-03     217.328E-03
            3523            3936     217.698E-03     220.117E-03
            3523            3937     245.868E-03     244.710E-03
            3524              61     228.078E-03     224.940E-03
            3524              62     258.781E-03     255.733E-03
            3524            3933     219.540E-03     217.328E-03
            3524            3937     245.868E-03     244.710E-03
            3525             381     173.985E-03     179.806E-03
            3525             382     157.944E-03     161.943E-03
            3525            3934     178.098E-03     183.457E-03
            3525            3938     164.395E-03     167.646E-03
            3526            3934     178.098E-03     183.457E-03
            3526            3935     192.308E-03     196.811E-03
            3526            3938     164.395E-03     167.646E-03
            3526            3939     182.067E-03     183.304E-03
            3527            3935     192.308E-03     196.811E-03
            3527            3936     217.698E-03     220.117E-03
            3527            3939     182.067E-03     183.304E-03
            3527            3940     217.552E-03     216.706E-03
            3528            3936     217.698E-03     220.117E-03
            3528            3937     245.868E-03     244.710E-03
            3528            3940     217.552E-03     216.706E-03
            3528            3941     272.656E-03     267.156E-03
            3529              62     258.781E-03     255.733E-03
            3529              63     303.534E-03     294.195E-03
            3529            3937     245.868E-03     244.710E-03
            3529            3941     272.656E-03     267.156E-03
            3530             382     157.944E-03     161.943E-03
            3530             383     169.210E-03     167.448E-03
            3530            3938     164.395E-03     167.646E-03
            3530            3942     174.399E-03     171.125E-03
            3531            3938     164.395E-03     167.646E-03
            3531            3939     182.067E-03     183.304E-03
            3531            3942     174.399E-03     171.125E-03
            3531            3943     187.891E-03     180.647E-03
            3532            3939     182.067E-03     183.304E-03
            3532            3940     217.552E-03     216.706E-03
            3532            3943     187.891E-03     180.647E-03
            3532            3944     210.971E-03     197.981E-03
            3533            3940     217.552E-03     216.706E-03
            3533            3941     272.656E-03     267.156E-03
            3533            3944     210.971E-03     197.981E-03
            3533            3945     244.505E-03     226.864E-03
            3534              63     303.534E-03     294.195E-03
            3534              64     263.294E-03     244.285E-03
            3534            3941     272.656E-03     267.156E-03
            3534            3945     244.505E-03     226.864E-03
            3535             383     169.210E-03     167.448E-03
            3535             384     186.149E-03     177.014E-03
            3535            3942     174.399E-03     171.125E-03
            3535            3946     190.620E-03     180.787E-03
            3536            3942     174.399E-03     171.125E-03
            3536            3943     187.891E-03     180.647E-03
            3536            3946     190.620E-03     180.787E-03
            3536            3947     202.411E-03     190.658E-03
            3537            3943     187.891E-03     180.647E-03
            3537            3944     210.971E-03     197.981E-03
            3537            3947     202.411E-03     190.658E-03
            3537            3948     216.933E-03     204.362E-03
            3538            3944     210.971E-03     197.981E-03
            3538            3945     244.505E-03     226.864E-03
            3538            3948     216.933E-03     204.362E-03
            3538            3949     222.602E-03     213.735E-03
            3539              64     263.294E-03     244.285E-03
            3539              65     221.098E-03     215.528E-03
            3539            3945     244.505E-03     226.864E-03
            3539            3949     222.602E-03     213.735E-03
            3540             384     186.149E-03     177.014E-03
            3540             385     182.673E-03     170.266E-03
            3540            3946     190.620E-03     180.787E-03
            3540            3950     189.606E-03     178.424E-03
            3541            3946     190.620E-03     180.787E-03
            3541            3947     202.411E-03     190.658E-03
            3541            3950     189.606E-03     178.424E-03
            3541            3951     207.723E-03     200.179E-03
            3542            3947     202.411E-03     190.658E-03
            3542            3948     216.933E-03     204.362E-03
            3542            3951     207.723E-03     200.179E-03
            3542            3952     229.631E-03     229.799E-03
            3543            3948     216.933E-03     204.362E-03
            3543            3949     222.602E-03     213.735E-03
            3543            3952     229.631E-03     229.799E-03
            3543            3953     250.139E-03     255.402E-03
            3544              65     221.098E-03     215.528E-03
            3544              66     259.956E-03     265.018E-03
            3544            3949     222.602E-03     213.735E-03
            3544            3953     250.139E-03     255.402E-03
            3545             385     182.673E-03     170.266E-03
            3545             386     184.906E-03     174.150E-03
            3545            3950     189.606E-03     178.424E-03
            3545            3954     193.009E-03     184.454E-03
            3546            3950     189.606E-03     178.424E-03
            3546            3951     207.723E-03     200.179E-03
            3546            3954     193.009E-03     184.454E-03
            3546            3955     213.972E-03     211.540E-03
            3547            3951     207.723E-03     200.179E-03
            3547            3952     229.631E-03     229.799E-03
            3547            3955     213.972E-03     211.540E-03
            3547            3956     240.519E-03     244.246E-03
            3548            3952     229.631E-03     229.799E-03
            3548            3953     250.139E-03     255.402E-03
            3548            3956     240.519E-03     244.246E-03
            3548            3957     271.626E-03     274.104E-03
            3549              66     259.956E-03     265.018E-03
            3549              67     289.087E-03     288.080E-03
            3549            3953     250.139E-03     255.402E-03
            3549            3957     271.626E-03     274.104E-03
            3550             386     184.906E-03     174.150E-03
            3550             387     188.503E-03     181.695E-03
            3550            3954     193.009E-03     184.454E-03
            3550            3958     197.176E-03     192.549E-03
            3551            3954     193.009E-03     184.454E-03
            3551            3955     213.972E-03     211.540E-03
            3551            3958     197.176E-03     192.549E-03
            3551            3959     219.969E-03     219.864E-03
            3552            3955     213.972E-03     211.540E-03
            3552            3956     240.519E-03     244.246E-03
            3552            3959     219.969E-03     219.864E-03
            3552            3960     252.125E-03     254.149E-03
            3553            3956     240.519E-03     244.246E-03
            3553            3957     271.626E-03     274.104E-03
            3553            3960     252.125E-03     254.149E-03
            3553            3961     292.549E-03     291.986E-03
            3554              67     289.087E-03     288.080E-03
            3554              68     314.981E-03     312.048E-03
            3554            3957     271.626E-03     274.104E-03
            3554            3961     292.549E-03     291.986E-03
            3555             387     188.503E-03     181.695E-03
            3555             388     191.294E-03     189.056E-03
            3555            3958     197.176E-03     192.549E-03
            3555            3962     201.036E-03     200.042E-03
            3556            3958     197.176E-03     192.549E-03
            3556            3959     219.969E-03     219.864E-03
            3556            3962     201.036E-03     200.042E-03
            3556            3963     227.048E-03     227.876E-03
            3557            3959     219.969E-03     219.864E-03
            3557            3960     252.125E-03     254.149E-03
            3557            3963     227.048E-03     227.876E-03
            3557            3964     264.908E-03     265.621E-03
            3558            3960     252.125E-03     254.149E-03
            3558            3961     292.549E-03     291.986E-03
            3558            3964     264.908E-03     265.621E-03
            3558            3965     312.729E-03     310.355E-03
            3559              68     314.981E-03     312.048E-03
            3559              69     339.009E-03     334.241E-03
            3559            3961     292.549E-03     291.986E-03
            3559            3965     312.729E-03     310.355E-03
            3560             388     191.294E-03     189.056E-03
            3560             389     193.459E-03     195.997E-03
            3560            3962     201.036E-03     200.042E-03
            3560            3966     204.118E-03     206.593E-03
            3561            3962     201.036E-03     200.042E-03
            3561            3963     227.048E-03     227.876E-03
            3561            3966     204.118E-03     206.593E-03
            3561            3967     234.473E-03     236.533E-03
            3562            3963     227.048E-03     227.876E-03
            3562            3964     264.908E-03     265.621E-03
            3562            3967     234.473E-03     236.533E-03
            3562            3968     279.030E-03     279.206E-03
            3563            3964     264.908E-03     265.621E-03
            3563            3965     312.729E-03     310.355E-03
            3563            3968     279.030E-03     279.206E-03
            3563            3969     333.023E-03     329.620E-03
            3564              69     339.009E-03     334.241E-03
            3564              70     362.210E-03     356.760E-03
            3564            3965     312.729E-03     310.355E-03
            3564            3969     333.023E-03     329.620E-03
            3565             389     193.459E-03     195.997E-03
            3565             390     192.597E-03     199.904E-03
            3565            3966     204.118E-03     206.593E-03
            3565            3970     206.403E-03     213.059E-03
            3566            3966     204.118E-03     206.593E-03
            3566            3967     234.473E-03     236.533E-03
            3566            3970     206.403E-03     213.059E-03
            3566            3971     241.969E-03     246.196E-03
            3567            3967     234.473E-03     236.533E-03
            3567            3968     279.030E-03     279.206E-03
            3567            3971     241.969E-03     246.196E-03
            3567            3972     292.714E-03     293.132E-03
            3568            3968     279.030E-03     279.206E-03
            3568            3969     333.023E-03     329.620E-03
            3568            3972     292.714E-03     293.132E-03
            3568            3973     354.232E-03     350.223E-03
            3569              70     362.210E-03     356.760E-03
            3569              71     386.820E-03     380.416E-03
            3569            3969     333.023E-03     329.620E-03
            3569            3973     354.232E-03     350.223E-03
            3570             390     192.597E-03     199.904E-03
            3570             391     187.745E-03     198.934E-03
            3570            3970     206.403E-03     213.059E-03
            3570            3974     203.801E-03     214.193E-03
            3571            3970     206.403E-03     213.059E-03
            3571            3971     241.969E-03     246.196E-03
            3571            3974     203.801E-03     214.193E-03
            3571            3975     248.039E-03     255.908E-03
            3572            3971     241.969E-03     246.196E-03
            3572            3972     292.714E-03     293.132E-03
            3572            3975     248.039E-03     255.908E-03
            3572            3976     307.879E-03     310.586E-03
            3573            3972     292.714E-03     293.132E-03
            3573            3973     354.232E-03     350.223E-03
            3573            3976     307.879E-03     310.586E-03
            3573            3977     374.613E-03     371.117E-03
            3574              71     386.820E-03     380.416E-03
            3574              72     409.750E-03     403.484E-03
            3574            3973     354.232E-03     350.223E-03
            3574            3977     374.613E-03     371.117E-03
            3575             391     187.745E-03     198.934E-03
            3575             392     175.232E-03     187.766E-03
            3575            3974     203.801E-03     214.193E-03
            3575            3978     193.718E-03     204.489E-03
            3576            3974     203.801E-03     214.193E-03
            3576            3975     248.039E-03     255.908E-03
            3576            3978     193.718E-03     204.489E-03
            3576            3979     245.114E-03     253.121E-03
            3577            3975     248.039E-03     255.908E-03
            3577            3976     307.879E-03     310.586E-03
            3577            3979     245.114E-03     253.121E-03
            3577            3980     320.886E-03     326.186E-03
            3578            3976     307.879E-03     310.586E-03
            3578            3977     374.613E-03     371.117E-03
            3578            3980     320.886E-03     326.186E-03
            3578            3981     403.053E-03     402.393E-03
            3579              72     409.750E-03     403.484E-03
            3579              73     442.420E-03     437.503E-03
            3579            3977     374.613E-03     371.117E-03
            3579            3981     403.053E-03     402.393E-03
            3580             392     175.232E-03     187.766E-03
            3580             393     151.401E-03     159.512E-03
            3580            3978     193.718E-03     204.489E-03
            3580            3982     173.957E-03     179.103E-03
            3581            3978     193.718E-03     204.489E-03
            3581            3979     245.114E-03     253.121E-03
            3581            3982     173.957E-03     179.103E-03
            3581            3983     230.507E-03     229.297E-03
            3582            3979     245.114E-03     253.121E-03
            3582            3980     320.886E-03     326.186E-03
            3582            3983     230.507E-03     229.297E-03
            3582            3984     316.025E-03     310.246E-03
            3583            3980     320.886E-03     326.186E-03
            3583            3981     403.053E-03     402.393E-03
            3583            3984     316.025E-03     310.246E-03
            3583            3985     428.840E-03     416.647E-03
            3584              73     442.420E-03     437.503E-03
            3584              74     490.197E-03     472.758E-03
            3584            3981     403.053E-03     402.393E-03
            3584            3985     428.840E-03     416.647E-03
            3585             393     151.401E-03     159.512E-03
            3585             394     173.514E-03     170.860E-03
            3585            3982     173.957E-03     179.103E-03
            3585            3986     191.716E-03     184.991E-03
            3586            3982     173.957E-03     179.103E-03
            3586            3983     230.507E-03     229.297E-03
            3586            3986     191.716E-03     184.991E-03
            3586            3987     239.087E-03     223.054E-03
            3587            3983     230.507E-03     229.297E-03
            3587            3984     316.025E-03     310.246E-03
            3587            3987     239.087E-03     223.054E-03
            3587            3988     305.323E-03     278.143E-03
            3588            3984     316.025E-03     310.246E-03
            3588            3985     428.840E-03     416.647E-03
            3588            3988     305.323E-03     278.143E-03
            3588            3989     394.344E-03     359.564E-03
            3589              74     490.197E-03     472.758E-03
            3589              75     446.355E-03     409.878E-03
            3589            3985     428.840E-03     416.647E-03
            3589            3989     394.344E-03     359.564E-03
            3590             394     173.514E-03     170.860E-03
            3590             395     201.220E-03     186.770E-03
            3590            3986     191.716E-03     184.991E-03
            3590            3990     217.338E-03     201.607E-03
            3591            3986     191.716E-03     184.991E-03
            3591            3987     239.087E-03     223.054E-03
            3591            3990     217.338E-03     201.607E-03
            3591            3991     259.340E-03     240.093E-03
            3592            3987     239.087E-03     223.054E-03
            3592            3988     305.323E-03     278.143E-03
            3592            3991     259.340E-03     240.093E-03
            3592            3992     315.139E-03     294.308E-03
            3593            3988     305.323E-03     278.143E-03
            3593            3989     394.344E-03     359.564E-03
            3593            3992     315.139E-03     294.308E-03
            3593            3993     372.790E-03     355.361E-03
            3594              75     446.355E-03     409.878E-03
            3594              76     400.573E-03     385.893E-03
            3594            3989     394.344E-03     359.564E-03
            3594            3993     372.790E-03     355.361E-03
            3595             395     201.220E-03     186.770E-03
            3595             396     190.695E-03     171.724E-03
            3595            3990     217.338E-03     201.607E-03
            3595            3994     212.180E-03     196.051E-03
            3596            3990     217.338E-03     201.607E-03
            3596            3991     259.340E-03     240.093E-03
            3596            3994     212.180E-03     196.051E-03
            3596            3995     266.079E-03     256.969E-03
            3597            3991     259.340E-03     240.093E-03
            3597            3992     315.139E-03     294.308E-03
            3597            3995     266.079E-03     256.969E-03
            3597            3996     334.306E-03     336.404E-03
            3598            3992     315.139E-03     294.308E-03
            3598            3993     372.790E-03     355.361E-03
            3598            3996     334.306E-03     336.404E-03
            3598            3997     405.628E-03     411.941E-03
            3599              76     400.573E-03     385.893E-03
            3599              77     441.193E-03     444.696E-03
            3599            3993     372.790E-03     355.361E-03
            3599            3997     405.628E-03     411.941E-03
            3600             396     190.695E-03     171.724E-03
            3600             397     190.338E-03     174.148E-03
            3600            3994     212.180E-03     196.051E-03
            3600            3998     214.377E-03     202.868E-03
            3601            3994     212.180E-03     196.051E-03
            3601            3995     266.079E-03     256.969E-03
            3601            3998     214.377E-03     202.868E-03
            3601            3999     274.461E-03     273.505E-03
            3602            3995     266.079E-03     256.969E-03
            3602            3996     334.306E-03     336.404E-03
            3602            3999     274.461E-03     273.505E-03
            3602            4000     348.815E-03     355.239E-03
            3603            3996     334.306E-03     336.404E-03
            3603            3997     405.628E-03     411.941E-03
            3603            4000     348.815E-03     355.239E-03
            3603            4001     429.276E-03     431.257E-03
            3604              77     441.193E-03     444.696E-03
            3604              78     471.496E-03     467.532E-03
            3604            3997     405.628E-03     411.941E-03
            3604            4001     429.276E-03     431.257E-03
            3605             397     190.338E-03     174.148E-03
            3605             398     193.483E-03     183.380E-03
            3605            3998     214.377E-03     202.868E-03
            3605            4002     219.000E-03     213.161E-03
            3606            3998     214.377E-03     202.868E-03
            3606            3999     274.461E-03     273.505E-03
            3606            4002     219.000E-03     213.161E-03
            3606            4003     282.053E-03     283.432E-03
            3607            3999     274.461E-03     273.505E-03
            3607            4000     348.815E-03     355.239E-03
            3607            4003     282.053E-03     283.432E-03
            3607            4004     362.553E-03     365.588E-03
            3608            4000     348.815E-03     355.239E-03
            3608            4001     429.276E-03     431.257E-03
            3608            4004     362.553E-03     365.588E-03
            3608            4005     452.420E-03     450.298E-03
            3609              78     471.496E-03     467.532E-03
            3609              79     499.394E-03     493.424E-03
            3609            4001     429.276E-03     431.257E-03
            3609            4005     452.420E-03     450.298E-03
            3610             398     193.483E-03     183.380E-03
            3610             399     196.856E-03     193.719E-03
            3610            4002     219.000E-03     213.161E-03
            3610            4006     223.824E-03     222.950E-03
            3611            4002     219.000E-03     213.161E-03
            3611            4003     282.053E-03     283.432E-03
            3611            4006     223.824E-03     222.950E-03
            3611            4007     290.766E-03     292.717E-03
            3612            4003     282.053E-03     283.432E-03
            3612            4004     362.553E-03     365.588E-03
            3612            4007     290.766E-03     292.717E-03
            3612            4008     377.131E-03     378.104E-03
            3613            4004     362.553E-03     365.588E-03
            3613            4005     452.420E-03     450.298E-03
            3613            4008     377.131E-03     378.104E-03
            3613            4009     473.857E-03     469.611E-03
            3614              79     499.394E-03     493.424E-03
            3614              80     524.266E-03     516.347E-03
            3614            4005     452.420E-03     450.298E-03
            3614            4009     473.857E-03     469.611E-03
            3615             399     196.856E-03     193.719E-03
            3615             400     200.153E-03     204.260E-03
            3615            4006     223.824E-03     222.950E-03
            3615            4010     228.109E-03     232.265E-03
            3616            4006     223.824E-03     222.950E-03
            3616            4007     290.766E-03     292.717E-03
            3616            4010     228.109E-03     232.265E-03
            3616            4011     299.699E-03     303.222E-03
            3617            4007     290.766E-03     292.717E-03
            3617            4008     377.131E-03     378.104E-03
            3617            4011     299.699E-03     303.222E-03
            3617            4012     392.760E-03     393.160E-03
            3618            4008     377.131E-03     378.104E-03
            3618            4009     473.857E-03     469.611E-03
            3618            4012     392.760E-03     393.160E-03
            3618            4013     495.104E-03     489.787E-03
            3619              80     524.266E-03     516.347E-03
            3619              81     548.100E-03     539.509E-03
            3619            4009     473.857E-03     469.611E-03
            3619            4013     495.104E-03     489.787E-03
            3620             400     200.153E-03     204.260E-03
            3620             401     199.723E-03     211.092E-03
            3620            4010     228.109E-03     232.265E-03
            3620            4014     231.578E-03     241.927E-03
            3621            4010     228.109E-03     232.265E-03
            3621            4011     299.699E-03     303.222E-03
            3621            4014     231.578E-03     241.927E-03
            3621            4015     308.731E-03     315.619E-03
            3622            4011     299.699E-03     303.222E-03
            3622            4012     392.760E-03     393.160E-03
            3622            4015     308.731E-03     315.619E-03
            3622            4016     407.450E-03     408.716E-03
            3623            4012     392.760E-03     393.160E-03
            3623            4013     495.104E-03     489.787E-03
            3623            4016     407.450E-03     408.716E-03
            3623            4017     517.054E-03     511.361E-03
            3624              81     548.100E-03     539.509E-03
            3624              82     573.316E-03     563.847E-03
            3624            4013     495.104E-03     489.787E-03
            3624            4017     517.054E-03     511.361E-03
            3625             401     199.723E-03     211.092E-03
            3625             402     194.662E-03     211.813E-03
            3625            4014     231.578E-03     241.927E-03
            3625            4018     228.893E-03     244.439E-03
            3626            4014     231.578E-03     241.927E-03
            3626            4015     308.731E-03     315.619E-03
            3626            4018     228.893E-03     244.439E-03
            3626            4019     315.604E-03     327.534E-03
            3627            4015     308.731E-03     315.619E-03
            3627            4016     407.450E-03     408.716E-03
            3627            4019     315.604E-03     327.534E-03
            3627            4020     423.597E-03     428.854E-03
            3628            4016     407.450E-03     408.716E-03
            3628            4017     517.054E-03     511.361E-03
            3628            4020     423.597E-03     428.854E-03
            3628            4021     537.368E-03     533.102E-03
            3629              82     573.316E-03     563.847E-03
            3629              83     595.708E-03     586.577E-03
            3629            4017     517.054E-03     511.361E-03
            3629            4021     537.368E-03     533.102E-03
            3630             402     194.662E-03     211.813E-03
            3630             403     179.358E-03     198.301E-03
            3630            4018     228.893E-03     244.439E-03
            3630            4022     216.813E-03     232.148E-03
            3631            4018     228.893E-03     244.439E-03
            3631            4019     315.604E-03     327.534E-03
            3631            4022     216.813E-03     232.148E-03
            3631            4023     311.025E-03     321.461E-03
            3632            4019     315.604E-03     327.534E-03
            3632            4020     423.597E-03     428.854E-03
            3632            4023     311.025E-03     321.461E-03
            3632            4024     436.014E-03     443.944E-03
            3633            4020     423.597E-03     428.854E-03
            3633            4021     537.368E-03     533.102E-03
            3633            4024     436.014E-03     443.944E-03
            3633            4025     566.808E-03     567.020E-03
            3634              83     595.708E-03     586.577E-03
            3634              84     629.460E-03     623.157E-03
            3634            4021     537.368E-03     533.102E-03
            3634            4025     566.808E-03     567.020E-03
            3635             403     179.358E-03     198.301E-03
            3635             404     148.602E-03     160.118E-03
            3635            4022     216.813E-03     232.148E-03
            3635            4026     191.937E-03     197.546E-03
            3636            4022     216.813E-03     232.148E-03
            3636            4023     311.025E-03     321.461E-03
            3636            4026     191.937E-03     197.546E-03
            3636            4027     292.394E-03     286.928E-03
            3637            4023     311.025E-03     321.461E-03
            3637            4024     436.014E-03     443.944E-03
            3637            4027     292.394E-03     286.928E-03
            3637            4028     425.996E-03     414.146E-03
            3638            4024     436.014E-03     443.944E-03
            3638            4025     566.808E-03     567.020E-03
            3638            4028     425.996E-03     414.146E-03
            3638            4029     590.849E-03     571.598E-03
            3639              84     629.460E-03     623.157E-03
            3639              85     679.320E-03     653.868E-03
            3639            4025     566.808E-03     567.020E-03
            3639            4029     590.849E-03     571.598E-03
            3640             404     148.602E-03     160.118E-03
            3640             405     181.455E-03     177.439E-03
            3640            4026     191.937E-03     197.546E-03
            3640            4030     216.080E-03     205.078E-03
            3641            4026     191.937E-03     197.546E-03
            3641            4027     292.394E-03     286.928E-03
            3641            4030     216.080E-03     205.078E-03
            3641            4031     302.056E-03     276.514E-03
            3642            4027     292.394E-03     286.928E-03
            3642            4028     425.996E-03     414.146E-03
            3642            4031     302.056E-03     276.514E-03
            3642            4032     411.803E-03     370.668E-03
            3643            4028     425.996E-03     414.146E-03
            3643            4029     590.849E-03     571.598E-03
            3643            4032     411.803E-03     370.668E-03
            3643            4033     552.534E-03     501.529E-03
            3644              85     679.320E-03     653.868E-03
            3644              86     634.950E-03     582.103E-03
            3644            4029     590.849E-03     571.598E-03
            3644            4033     552.534E-03     501.529E-03
            3645             405     181.455E-03     177.439E-03
            3645             406     218.561E-03     199.439E-03
            3645            4030     216.080E-03     205.078E-03
            3645            4034     249.795E-03     228.929E-03
            3646            4030     216.080E-03     205.078E-03
            3646            4031     302.056E-03     276.514E-03
            3646            4034     249.795E-03     228.929E-03
            3646            4035     326.932E-03     301.426E-03
            3647            4031     302.056E-03     276.514E-03
            3647            4032     411.803E-03     370.668E-03
            3647            4035     326.932E-03     301.426E-03
            3647            4036     426.084E-03     398.555E-03
            3648            4032     411.803E-03     370.668E-03
            3648            4033     552.534E-03     501.529E-03
            3648            4036     426.084E-03     398.555E-03
            3648            4037     534.060E-03     509.468E-03
            3649              86     634.950E-03     582.103E-03
            3649              87     588.850E-03     566.320E-03
            3649            4033     552.534E-03     501.529E-03
            3649            4037     534.060E-03     509.468E-03
            3650             406     218.561E-03     199.439E-03
            3650             407     201.859E-03     177.867E-03
            3650            4034     249.795E-03     228.929E-03
            3650            4038     241.358E-03     222.273E-03
            3651            4034     249.795E-03     228.929E-03
            3651            4035     326.932E-03     301.426E-03
            3651            4038     241.358E-03     222.273E-03
            3651            4039     336.178E-03     327.362E-03
            3652            4035     326.932E-03     301.426E-03
            3652            4036     426.084E-03     398.555E-03
            3652            4039     336.178E-03     327.362E-03
            3652            4040     451.645E-03     456.392E-03
            3653            4036     426.084E-03     398.555E-03
            3653            4037     534.060E-03     509.468E-03
            3653            4040     451.645E-03     456.392E-03
            3653            4041     570.302E-03     578.065E-03
            3654              87     588.850E-03     566.320E-03
            3654              88     628.891E-03     631.481E-03
            3654            4037     534.060E-03     509.468E-03
            3654            4041     570.302E-03     578.065E-03
            3655             407     201.859E-03     177.867E-03
            3655             408     199.300E-03     180.295E-03
            3655            4038     241.358E-03     222.273E-03
            3655            4042     242.958E-03     231.143E-03
            3656            4038     241.358E-03     222.273E-03
            3656            4039     336.178E-03     327.362E-03
            3656            4042     242.958E-03     231.143E-03
            3656            4043     346.716E-03     349.257E-03
            3657            4039     336.178E-03     327.362E-03
            3657            4040     451.645E-03     456.392E-03
            3657            4043     346.716E-03     349.257E-03
            3657            4044     468.503E-03     478.527E-03
            3658            4040     451.645E-03     456.392E-03
            3658            4041     570.302E-03     578.065E-03
            3658            4044     468.503E-03     478.527E-03
            3658            4045     595.033E-03     596.823E-03
            3659              88     628.891E-03     631.481E-03
            3659              89     659.967E-03     653.221E-03
            3659            4041     570.302E-03     578.065E-03
            3659            4045     595.033E-03     596.823E-03
            3660             408     199.300E-03     180.295E-03
            3660             409     201.521E-03     191.473E-03
            3660            4042     242.958E-03     231.143E-03
            3660            4046     248.088E-03     244.463E-03
            3661            4042     242.958E-03     231.143E-03
            3661            4043     346.716E-03     349.257E-03
            3661            4046     248.088E-03     244.463E-03
            3661            4047     355.750E-03     361.321E-03
            3662            4043     346.716E-03     349.257E-03
            3662            4044     468.503E-03     478.527E-03
            3662            4047     355.750E-03     361.321E-03
            3662            4048     483.225E-03     488.823E-03
            3663            4044     468.503E-03     478.527E-03
            3663            4045     595.033E-03     596.823E-03
            3663            4048     483.225E-03     488.823E-03
            3663            4049     619.292E-03     616.581E-03
            3664              89     659.967E-03     653.221E-03
            3664              90     689.075E-03     680.812E-03
            3664            4045     595.033E-03     596.823E-03
            3664            4049     619.292E-03     616.581E-03
            3665             409     201.521E-03     191.473E-03
            3665             410     206.320E-03     207.882E-03
            3665            4046     248.088E-03     244.463E-03
            3665            4050     252.925E-03     256.970E-03
            3666            4046     248.088E-03     244.463E-03
            3666            4047     355.750E-03     361.321E-03
            3666            4050     252.925E-03     256.970E-03
            3666            4051     364.593E-03     371.278E-03
            3667            4047     355.750E-03     361.321E-03
            3667            4048     483.225E-03     488.823E-03
            3667            4051     364.593E-03     371.278E-03
            3667            4052     499.519E-03     503.442E-03
            3668            4048     483.225E-03     488.823E-03
            3668            4049     619.292E-03     616.581E-03
            3668            4052     499.519E-03     503.442E-03
            3668            4053     642.071E-03     637.134E-03
            3669              90     689.075E-03     680.812E-03
            3669              91     714.859E-03     703.987E-03
            3669            4049     619.292E-03     616.581E-03
            3669            4053     642.071E-03     637.134E-03
            3670             410     206.320E-03     207.882E-03
            3670             411     206.484E-03     219.192E-03
            3670            4050     252.925E-03     256.970E-03
            3670            4054     257.156E-03     269.857E-03
            3671            4050     252.925E-03     256.970E-03
            3671            4051     364.593E-03     371.278E-03
            3671            4054     257.156E-03     269.857E-03
            3671            4055     374.147E-03     384.753E-03
            3672            4051     364.593E-03     371.278E-03
            3672            4052     499.519E-03     503.442E-03
            3672            4055     374.147E-03     384.753E-03
            3672            4056     514.348E-03     518.472E-03
            3673            4052     499.519E-03     503.442E-03
            3673            4053     642.071E-03     637.134E-03
            3673            4056     514.348E-03     518.472E-03
            3673            4057     664.389E-03     658.617E-03
            3674              91     714.859E-03     703.987E-03
            3674              92     740.648E-03     729.377E-03
            3674            4053     642.071E-03     637.134E-03
            3674            4057     664.389E-03     658.617E-03
            3675             411     206.484E-03     219.192E-03
            3675             412     201.524E-03     222.823E-03
            3675            4054     257.156E-03     269.857E-03
            3675            4058     254.347E-03     273.871E-03
            3676            4054     257.156E-03     269.857E-03
            3676            4055     374.147E-03     384.753E-03
            3676            4058     254.347E-03     273.871E-03
            3676            4059     381.096E-03     397.255E-03
            3677            4055     374.147E-03     384.753E-03
            3677            4056     514.348E-03     518.472E-03
            3677            4059     381.096E-03     397.255E-03
            3677            4060     530.828E-03     539.659E-03
            3678            4056     514.348E-03     518.472E-03
            3678            4057     664.389E-03     658.617E-03
            3678            4060     530.828E-03     539.659E-03
            3678            4061     684.859E-03     680.575E-03
            3679              92     740.648E-03     729.377E-03
            3679              93     763.187E-03     751.521E-03
            3679            4057     664.389E-03     658.617E-03
            3679            4061     684.859E-03     680.575E-03
            3680             412     201.524E-03     222.823E-03
            3680             413     184.107E-03     208.051E-03
            3680            4058     254.347E-03     273.871E-03
            3680            4062     240.605E-03     259.429E-03
            3681            4058     254.347E-03     273.871E-03
            3681            4059     381.096E-03     397.255E-03
            3681            4062     240.605E-03     259.429E-03
            3681            4063     374.896E-03     387.439E-03
            3682            4059     381.096E-03     397.255E-03
            3682            4060     530.828E-03     539.659E-03
            3682            4063     374.896E-03     387.439E-03
            3682            4064     542.577E-03     553.308E-03
            3683            4060     530.828E-03     539.659E-03
            3683            4061     684.859E-03     680.575E-03
            3683            4064     542.577E-03     553.308E-03
            3683            4065     714.949E-03     716.406E-03
            3684              93     763.187E-03     751.521E-03
            3684              94     797.543E-03     790.364E-03
            3684            4061     684.859E-03     680.575E-03
            3684            4065     714.949E-03     716.406E-03
            3685             413     184.107E-03     208.051E-03
            3685             414     148.217E-03     161.893E-03
            3685            4062     240.605E-03     259.429E-03
            3685            4066     212.138E-03     217.248E-03
            3686            4062     240.605E-03     259.429E-03
            3686            4063     374.896E-03     387.439E-03
            3686            4066     212.138E-03     217.248E-03
            3686            4067     353.104E-03     343.184E-03
            3687            4063     374.896E-03     387.439E-03
            3687            4064     542.577E-03     553.308E-03
            3687            4067     353.104E-03     343.184E-03
            3687            4068     527.969E-03     510.412E-03
            3688            4064     542.577E-03     553.308E-03
            3688            4065     714.949E-03     716.406E-03
            3688            4068     527.969E-03     510.412E-03
            3688            4069     737.507E-03     711.745E-03
            3689              94     797.543E-03     790.364E-03
            3689              95     849.349E-03     816.535E-03
            3689            4065     714.949E-03     716.406E-03
            3689            4069     737.507E-03     711.745E-03
            3690             414     148.217E-03     161.893E-03
            3690             415     194.844E-03     192.674E-03
            3690            4066     212.138E-03     217.248E-03
            3690            4070     245.666E-03     235.179E-03
            3691            4066     212.138E-03     217.248E-03
            3691            4067     353.104E-03     343.184E-03
            3691            4070     245.666E-03     235.179E-03
            3691            4071     365.951E-03     338.323E-03
            3692            4067     353.104E-03     343.184E-03
            3692            4068     527.969E-03     510.412E-03
            3692            4071     365.951E-03     338.323E-03
            3692            4072     511.910E-03     465.475E-03
            3693            4068     527.969E-03     510.412E-03
            3693            4069     737.507E-03     711.745E-03
            3693            4072     511.910E-03     465.475E-03
            3693            4073     696.041E-03     637.153E-03
            3694              95     849.349E-03     816.535E-03
            3694              96     803.777E-03     742.406E-03
            3694            4069     737.507E-03     711.745E-03
            3694            4073     696.041E-03     637.153E-03
            3695             415     194.844E-03     192.674E-03
            3695             416     243.406E-03     232.771E-03
            3695            4070     245.666E-03     235.179E-03
            3695            4074     288.435E-03     275.721E-03
            3696            4070     245.666E-03     235.179E-03
            3696            4071     365.951E-03     338.323E-03
            3696            4074     288.435E-03     275.721E-03
            3696            4075     397.660E-03     379.524E-03
            3697            4071     365.951E-03     338.323E-03
            3697            4072     511.910E-03     465.475E-03
            3697            4075     397.660E-03     379.524E-03
            3697            4076     534.910E-03     513.848E-03
            3698            4072     511.910E-03     465.475E-03
            3698            4073     696.041E-03     637.153E-03
            3698            4076     534.910E-03     513.848E-03
            3698            4077     685.147E-03     663.088E-03
            3699              96     803.777E-03     742.406E-03
            3699              97     762.408E-03     738.935E-03
            3699            4073     696.041E-03     637.153E-03
            3699            4077     685.147E-03     663.088E-03
            3700             416     243.406E-03     232.771E-03
            3700             417     215.483E-03     207.567E-03
            3700            4074     288.435E-03     275.721E-03
            3700            4078     275.639E-03     272.332E-03
            3701            4074     288.435E-03     275.721E-03
            3701            4075     397.660E-03     379.524E-03
            3701            4078     275.639E-03     272.332E-03
            3701            4079     411.039E-03     416.971E-03
            3702            4075     397.660E-03     379.524E-03
            3702            4076     534.910E-03     513.848E-03
            3702            4079     411.039E-03     416.971E-03
            3702            4080     568.696E-03     585.891E-03
            3703            4076     534.910E-03     513.848E-03
            3703            4077     685.147E-03     663.088E-03
            3703            4080     568.696E-03     585.891E-03
            3703            4081     729.266E-03     742.914E-03
            3704              97     762.408E-03     738.935E-03
            3704              98     807.518E-03     810.995E-03
            3704            4077     685.147E-03     663.088E-03
            3704            4081     729.266E-03     742.914E-03
            3705             417     215.483E-03     207.567E-03
            3705             418     202.027E-03     204.655E-03
            3705            4078     275.639E-03     272.332E-03
            3705            4082     267.759E-03     276.757E-03
            3706            4078     275.639E-03     272.332E-03
            3706            4079     411.039E-03     416.971E-03
            3706            4082     267.759E-03     276.757E-03
            3706            4083     420.397E-03     444.177E-03
            3707            4079     411.039E-03     416.971E-03
            3707            4080     568.696E-03     585.891E-03
            3707            4083     420.397E-03     444.177E-03
            3707            4084     588.631E-03     616.802E-03
            3708            4080     568.696E-03     585.891E-03
            3708            4081     729.266E-03     742.914E-03
            3708            4084     588.631E-03     616.802E-03
            3708            4085     752.729E-03     762.110E-03
            3709              98     807.518E-03     810.995E-03
            3709              99     835.614E-03     830.230E-03
            3709            4081     729.266E-03     742.914E-03
            3709            4085     752.729E-03     762.110E-03
            3710             418     202.027E-03     204.655E-03
            3710             419     182.140E-03     192.853E-03
            3710            4082     267.759E-03     276.757E-03
            3710            4086     252.396E-03     265.752E-03
            3711            4082     267.759E-03     276.757E-03
            3711            4083     420.397E-03     444.177E-03
            3711            4086     252.396E-03     265.752E-03
            3711            4087     410.693E-03     430.998E-03
            3712            4083     420.397E-03     444.177E-03
            3712            4084     588.631E-03     616.802E-03
            3712            4087     410.693E-03     430.998E-03
            3712            4088     597.536E-03     622.010E-03
            3713            4084     588.631E-03     616.802E-03
            3713            4085     752.729E-03     762.110E-03
            3713            4088     597.536E-03     622.010E-03
            3713            4089     787.422E-03     798.347E-03
            3714              99     835.614E-03     830.230E-03
            3714             100     878.631E-03     876.141E-03
            3714            4085     752.729E-03     762.110E-03
            3714            4089     787.422E-03     798.347E-03
            3715             419     182.140E-03     192.853E-03
            3715             420     144.169E-03     151.452E-03
            3715            4086     252.396E-03     265.752E-03
            3715            4090     220.395E-03     223.796E-03
            3716            4086     252.396E-03     265.752E-03
            3716            4087     410.693E-03     430.998E-03
            3716            4090     220.395E-03     223.796E-03
            3716            4091     383.424E-03     378.647E-03
            3717            4087     410.693E-03     430.998E-03
            3717            4088     597.536E-03     622.010E-03
            3717            4091     383.424E-03     378.647E-03
            3717            4092     577.924E-03     567.973E-03
            3718            4088     597.536E-03     622.010E-03
            3718            4089     787.422E-03     798.347E-03
            3718            4092     577.924E-03     567.973E-03
            3718            4093     808.839E-03     787.358E-03
            3719             100     878.631E-03     876.141E-03
            3719             101     932.203E-03     900.059E-03
            3719            4089     787.422E-03     798.347E-03
            3719            4093     808.839E-03     787.358E-03
            3720              15     201.315E-03     200.742E-03
            3720             420     144.169E-03     151.452E-03
            3720             429     259.850E-03     251.678E-03
            3720            4090     220.395E-03     223.796E-03
            3721             429     259.850E-03     251.678E-03
            3721             430     398.879E-03     375.776E-03
            3721            4090     220.395E-03     223.796E-03
            3721            4091     383.424E-03     378.647E-03
            3722             430     398.879E-03     375.776E-03
            3722             431     565.636E-03     522.956E-03
            3722            4091     383.424E-03     378.647E-03
            3722            4092     577.924E-03     567.973E-03
            3723             431     565.636E-03     522.956E-03
            3723             432     773.846E-03     715.060E-03
            3723            4092     577.924E-03     567.973E-03
            3723            4093     808.839E-03     787.358E-03
            3724               3     895.866E-03     832.684E-03
            3724             101     932.203E-03     900.059E-03
            3724             432     773.846E-03     715.060E-03
            3724            4093     808.839E-03     787.358E-03
            3725              20         1.00356     967.240E-03
            3725             560         1.06757         1.03030
            3725             577     867.289E-03     836.732E-03
            3725            4094     928.252E-03     904.922E-03
            3726             577     867.289E-03     836.732E-03
            3726             578     625.751E-03     606.127E-03
            3726            4094     928.252E-03     904.922E-03
            3726            4095     670.339E-03     662.431E-03
            3727             578     625.751E-03     606.127E-03
            3727             579     425.204E-03     415.505E-03
            3727            4095     670.339E-03     662.431E-03
            3727            4096     463.892E-03     462.193E-03
            3728             579     425.204E-03     415.505E-03
            3728             580     250.389E-03     248.922E-03
            3728            4096     463.892E-03     462.193E-03
            3728            4097     308.850E-03     315.010E-03
            3729              17     168.809E-03     171.107E-03
            3729             580     250.389E-03     248.922E-03
            3729             581     240.697E-03     250.330E-03
            3729            4097     308.850E-03     315.010E-03
            3730             560         1.06757         1.03030
            3730             561     981.495E-03     977.517E-03
            3730            4094     928.252E-03     904.922E-03
            3730            4098     886.180E-03     897.014E-03
            3731            4094     928.252E-03     904.922E-03
            3731            4095     670.339E-03     662.431E-03
            3731            4098     886.180E-03     897.014E-03
            3731            4099     687.803E-03     714.726E-03
            3732            4095     670.339E-03     662.431E-03
            3732            4096     463.892E-03     462.193E-03
            3732            4099     687.803E-03     714.726E-03
            3732            4100     497.265E-03     520.302E-03
            3733            4096     463.892E-03     462.193E-03
            3733            4097     308.850E-03     315.010E-03
            3733            4100     497.265E-03     520.302E-03
            3733            4101     349.612E-03     364.376E-03
            3734             581     240.697E-03     250.330E-03
            3734             582     288.640E-03     300.431E-03
            3734            4097     308.850E-03     315.010E-03
            3734            4101     349.612E-03     364.376E-03
            3735             561     981.495E-03     977.517E-03
            3735             562     914.809E-03     909.401E-03
            3735            4098     886.180E-03     897.014E-03
            3735            4102     832.188E-03     842.187E-03
            3736            4098     886.180E-03     897.014E-03
            3736            4099     687.803E-03     714.726E-03
            3736            4102     832.188E-03     842.187E-03
            3736            4103     670.432E-03     699.223E-03
            3737            4099     687.803E-03     714.726E-03
            3737            4100     497.265E-03     520.302E-03
            3737            4103     670.432E-03     699.223E-03
            3737            4104     508.145E-03     531.359E-03
            3738            4100     497.265E-03     520.302E-03
            3738            4101     349.612E-03     364.376E-03
            3738            4104     508.145E-03     531.359E-03
            3738            4105     369.145E-03     377.339E-03
            3739             582     288.640E-03     300.431E-03
            3739             583     312.596E-03     314.759E-03
            3739            4101     349.612E-03     364.376E-03
            3739            4105     369.145E-03     377.339E-03
            3740             562     914.809E-03     909.401E-03
            3740             563     864.900E-03     870.592E-03
            3740            4102     832.188E-03     842.187E-03
            3740            4106     791.770E-03     806.868E-03
            3741            4102     832.188E-03     842.187E-03
            3741            4103     670.432E-03     699.223E-03
            3741            4106     791.770E-03     806.868E-03
            3741            4107     642.148E-03     657.892E-03
            3742            4103     670.432E-03     699.223E-03
            3742            4104     508.145E-03     531.359E-03
            3742            4107     642.148E-03     657.892E-03
            3742            4108     497.094E-03     499.627E-03
            3743            4104     508.145E-03     531.359E-03
            3743            4105     369.145E-03     377.339E-03
            3743            4108     497.094E-03     499.627E-03
            3743            4109     378.433E-03     372.947E-03
            3744             583     312.596E-03     314.759E-03
            3744             584     327.798E-03     318.619E-03
            3744            4105     369.145E-03     377.339E-03
            3744            4109     378.433E-03     372.947E-03
            3745             563     864.900E-03     870.592E-03
            3745             564     788.841E-03     767.088E-03
            3745            4106     791.770E-03     806.868E-03
            3745            4110     726.841E-03     704.260E-03
            3746            4106     791.770E-03     806.868E-03
            3746            4107     642.148E-03     657.892E-03
            3746            4110     726.841E-03     704.260E-03
            3746            4111     601.787E-03     578.100E-03
            3747            4107     642.148E-03     657.892E-03
            3747            4108     497.094E-03     499.627E-03
            3747            4111     601.787E-03     578.100E-03
            3747            4112     483.303E-03     463.096E-03
            3748            4108     497.094E-03     499.627E-03
            3748            4109     378.433E-03     372.947E-03
            3748            4112     483.303E-03     463.096E-03
            3748            4113     392.839E-03     379.028E-03
            3749             584     327.798E-03     318.619E-03
            3749             585     357.420E-03     346.083E-03
            3749            4109     378.433E-03     372.947E-03
            3749            4113     392.839E-03     379.028E-03
            3750              23     826.470E-03     774.558E-03
            3750             564     788.841E-03     767.088E-03
            3750             589     728.011E-03     680.710E-03
            3750            4110     726.841E-03     704.260E-03
            3751             588     561.452E-03     529.694E-03
            3751             589     728.011E-03     680.710E-03
            3751            4110     726.841E-03     704.260E-03
            3751            4111     601.787E-03     578.100E-03
            3752             587     433.162E-03     417.701E-03
            3752             588     561.452E-03     529.694E-03
            3752            4111     601.787E-03     578.100E-03
            3752            4112     483.303E-03     463.096E-03
            3753             586     333.302E-03     325.868E-03
            3753             587     433.162E-03     417.701E-03
            3753            4112     483.303E-03     463.096E-03
            3753            4113     392.839E-03     379.028E-03
            3754              25     293.205E-03     288.499E-03
            3754             585     357.420E-03     346.083E-03
            3754             586     333.302E-03     325.868E-03
            3754            4113     392.839E-03     379.028E-03
            4035              11     895.318E-03     836.594E-03
            4035             424     773.311E-03     718.618E-03
            4035             527     865.938E-03     846.318E-03
            4035            4345     774.651E-03     758.824E-03
            4036             423     565.266E-03     525.908E-03
            4036             424     773.311E-03     718.618E-03
            4036            4345     774.651E-03     758.824E-03
            4036            4346     598.723E-03     587.063E-03
            4037             422     398.592E-03     378.247E-03
            4037             423     565.266E-03     525.908E-03
            4037            4346     598.723E-03     587.063E-03
            4037            4347     439.713E-03     432.035E-03
            4038             421     259.598E-03     253.261E-03
            4038             422     398.592E-03     378.247E-03
            4038            4347     439.713E-03     432.035E-03
            4038            4348     309.399E-03     305.956E-03
            4039              15     201.315E-03     200.742E-03
            4039             421     259.598E-03     253.261E-03
            4039             446     253.301E-03     249.537E-03
            4039            4348     309.399E-03     305.956E-03
            4040             526     908.215E-03     912.780E-03
            4040             527     865.938E-03     846.318E-03
            4040            4345     774.651E-03     758.824E-03
            4040            4349     820.930E-03     839.799E-03
            4041            4345     774.651E-03     758.824E-03
            4041            4346     598.723E-03     587.063E-03
            4041            4349     820.930E-03     839.799E-03
            4041            4350     640.370E-03     668.046E-03
            4042            4346     598.723E-03     587.063E-03
            4042            4347     439.713E-03     432.035E-03
            4042            4350     640.370E-03     668.046E-03
            4042            4351     453.989E-03     468.681E-03
            4043            4347     439.713E-03     432.035E-03
            4043            4348     309.399E-03     305.956E-03
            4043            4351     453.989E-03     468.681E-03
            4043            4352     288.679E-03     292.317E-03
            4044             445     215.803E-03     215.533E-03
            4044             446     253.301E-03     249.537E-03
            4044            4348     309.399E-03     305.956E-03
            4044            4352     288.679E-03     292.317E-03
            4045             525     949.717E-03     951.762E-03
            4045             526     908.215E-03     912.780E-03
            4045            4349     820.930E-03     839.799E-03
            4045            4353     854.525E-03     873.658E-03
            4046            4349     820.930E-03     839.799E-03
            4046            4350     640.370E-03     668.046E-03
            4046            4353     854.525E-03     873.658E-03
            4046            4354     654.373E-03     687.012E-03
            4047            4350     640.370E-03     668.046E-03
            4047            4351     453.989E-03     468.681E-03
            4047            4354     654.373E-03     687.012E-03
            4047            4355     449.458E-03     469.087E-03
            4048            4351     453.989E-03     468.681E-03
            4048            4352     288.679E-03     292.317E-03
            4048            4355     449.458E-03     469.087E-03
            4048            4356     268.596E-03     275.856E-03
            4049             444     186.434E-03     191.260E-03
            4049             445     215.803E-03     215.533E-03
            4049            4352     288.679E-03     292.317E-03
            4049            4356     268.596E-03     275.856E-03
            4050             524         1.01072     979.029E-03
            4050             525     949.717E-03     951.762E-03
            4050            4353     854.525E-03     873.658E-03
            4050            4357     877.934E-03     858.226E-03
            4051            4353     854.525E-03     873.658E-03
            4051            4354     654.373E-03     687.012E-03
            4051            4357     877.934E-03     858.226E-03
            4051            4358     630.134E-03     623.663E-03
            4052            4354     654.373E-03     687.012E-03
            4052            4355     449.458E-03     469.087E-03
            4052            4358     630.134E-03     623.663E-03
            4052            4359     419.016E-03     416.010E-03
            4053            4355     449.458E-03     469.087E-03
            4053            4356     268.596E-03     275.856E-03
            4053            4359     419.016E-03     416.010E-03
            4053            4360     234.151E-03     234.280E-03
            4054             443     143.270E-03     146.159E-03
            4054             444     186.434E-03     191.260E-03
            4054            4356     268.596E-03     275.856E-03
            4054            4360     234.151E-03     234.280E-03
            4055             523     968.885E-03     932.871E-03
            4055             524         1.01072     979.029E-03
            4055            4357     877.934E-03     858.226E-03
            4055            4361     838.658E-03     808.260E-03
            4056            4357     877.934E-03     858.226E-03
            4056            4358     630.134E-03     623.663E-03
            4056            4361     838.658E-03     808.260E-03
            4056            4362     604.875E-03     585.483E-03
            4057            4358     630.134E-03     623.663E-03
            4057            4359     419.016E-03     416.010E-03
            4057            4362     604.875E-03     585.483E-03
            4057            4363     402.958E-03     393.050E-03
            4058            4359     419.016E-03     416.010E-03
            4058            4360     234.151E-03     234.280E-03
            4058            4363     402.958E-03     393.050E-03
            4058            4364     215.325E-03     211.678E-03
            4059             442     123.174E-03     123.143E-03
            4059             443     143.270E-03     146.159E-03
            4059            4360     234.151E-03     234.280E-03
            4059            4364     215.325E-03     211.678E-03
            4060              20         1.00356     967.240E-03
            4060             523     968.885E-03     932.871E-03
            4060             577     867.289E-03     836.732E-03
            4060            4361     838.658E-03     808.260E-03
            4061             577     867.289E-03     836.732E-03
            4061             578     625.751E-03     606.127E-03
            4061            4361     838.658E-03     808.260E-03
            4061            4362     604.875E-03     585.483E-03
            4062             578     625.751E-03     606.127E-03
            4062             579     425.204E-03     415.505E-03
            4062            4362     604.875E-03     585.483E-03
            4062            4363     402.958E-03     393.050E-03
            4063             579     425.204E-03     415.505E-03
            4063             580     250.389E-03     248.922E-03
            4063            4363     402.958E-03     393.050E-03
            4063            4364     215.325E-03     211.678E-03
            4064              17     168.809E-03     171.107E-03
            4064             442     123.174E-03     123.143E-03
            4064             580     250.389E-03     248.922E-03
            4064            4364     215.325E-03     211.678E-03
            4065              25     293.205E-03     288.499E-03
            4065             660     331.980E-03     324.612E-03
            4065             723     238.535E-03     238.021E-03
            4065            4365     288.087E-03     288.955E-03
            4066             660     331.980E-03     324.612E-03
            4066             661     431.102E-03     415.631E-03
            4066            4365     288.087E-03     288.955E-03
            4066            4366     407.136E-03     411.496E-03
            4067             661     431.102E-03     415.631E-03
            4067             662     559.098E-03     527.116E-03
            4067            4366     407.136E-03     411.496E-03
            4067            4367     566.469E-03     575.890E-03
            4068             662     559.098E-03     527.116E-03
            4068             663     725.451E-03     677.582E-03
            4068            4367     566.469E-03     575.890E-03
            4068            4368     762.092E-03     758.287E-03
            4069              21     823.731E-03     771.108E-03
            4069             663     725.451E-03     677.582E-03
            4069             664     867.427E-03     847.610E-03
            4069            4368     762.092E-03     758.287E-03
            4070             722     289.859E-03     289.824E-03
            4070             723     238.535E-03     238.021E-03
            4070            4365     288.087E-03     288.955E-03
            4070            4369     331.851E-03     332.265E-03
            4071            4365     288.087E-03     288.955E-03
            4071            4366     407.136E-03     411.496E-03
            4071            4369     331.851E-03     332.265E-03
            4071            4370     438.909E-03     444.667E-03
            4072            4366     407.136E-03     411.496E-03
            4072            4367     566.469E-03     575.890E-03
            4072            4370     438.909E-03     444.667E-03
            4072            4371     580.736E-03     602.476E-03
            4073            4367     566.469E-03     575.890E-03
            4073            4368     762.092E-03     758.287E-03
            4073            4371     580.736E-03     602.476E-03
            4073            4372     718.419E-03     739.620E-03
            4074             664     867.427E-03     847.610E-03
            4074             665     779.018E-03     788.619E-03
            4074            4368     762.092E-03     758.287E-03
            4074            4372     718.419E-03     739.620E-03
            4075             721     337.785E-03     338.560E-03
            4075             722     289.859E-03     289.824E-03
            4075            4369     331.851E-03     332.265E-03
            4075            4373     368.116E-03     367.489E-03
            4076            4369     331.851E-03     332.265E-03
            4076            4370     438.909E-03     444.667E-03
            4076            4373     368.116E-03     367.489E-03
            4076            4374     447.273E-03     443.620E-03
            4077            4370     438.909E-03     444.667E-03
            4077            4371     580.736E-03     602.476E-03
            4077            4374     447.273E-03     443.620E-03
            4077            4375     545.620E-03     538.814E-03
            4078            4371     580.736E-03     602.476E-03
            4078            4372     718.419E-03     739.620E-03
            4078            4375     545.620E-03     538.814E-03
            4078            4376     638.435E-03     629.150E-03
            4079             665     779.018E-03     788.619E-03
            4079             666     681.522E-03     671.217E-03
            4079            4372     718.419E-03     739.620E-03
            4079            4376     638.435E-03     629.150E-03
            4080             720     296.600E-03     300.520E-03
            4080             721     337.785E-03     338.560E-03
            4080            4373     368.116E-03     367.489E-03
            4080            4377     328.087E-03     328.069E-03
            4081            4373     368.116E-03     367.489E-03
            4081            4374     447.273E-03     443.620E-03
            4081            4377     328.087E-03     328.069E-03
            4081            4378     405.927E-03     394.217E-03
            4082            4374     447.273E-03     443.620E-03
            4082            4375     545.620E-03     538.814E-03
            4082            4378     405.927E-03     394.217E-03
            4082            4379     512.971E-03     484.693E-03
            4083            4375     545.620E-03     538.814E-03
            4083            4376     638.435E-03     629.150E-03
            4083            4379     512.971E-03     484.693E-03
            4083            4380     657.538E-03     616.684E-03
            4084             666     681.522E-03     671.217E-03
            4084             667     741.282E-03     696.659E-03
            4084            4376     638.435E-03     629.150E-03
            4084            4380     657.538E-03     616.684E-03
            4085             719     252.875E-03     266.474E-03
            4085             720     296.600E-03     300.520E-03
            4085            4377     328.087E-03     328.069E-03
            4085            4381     289.378E-03     298.221E-03
            4086            4377     328.087E-03     328.069E-03
            4086            4378     405.927E-03     394.217E-03
            4086            4381     289.378E-03     298.221E-03
            4086            4382     381.716E-03     380.015E-03
            4087            4378     405.927E-03     394.217E-03
            4087            4379     512.971E-03     484.693E-03
            4087            4382     381.716E-03     380.015E-03
            4087            4383     522.387E-03     512.896E-03
            4088            4379     512.971E-03     484.693E-03
            4088            4380     657.538E-03     616.684E-03
            4088            4383     522.387E-03     512.896E-03
            4088            4384     709.012E-03     688.556E-03
            4089             667     741.282E-03     696.659E-03
            4089             668     810.708E-03     781.346E-03
            4089            4380     657.538E-03     616.684E-03
            4089            4384     709.012E-03     688.556E-03
            4090             718     292.190E-03     313.001E-03
            4090             719     252.875E-03     266.474E-03
            4090            4381     289.378E-03     298.221E-03
            4090            4385     321.931E-03     340.118E-03
            4091            4381     289.378E-03     298.221E-03
            4091            4382     381.716E-03     380.015E-03
            4091            4385     321.931E-03     340.118E-03
            4091            4386     405.691E-03     419.666E-03
            4092            4382     381.716E-03     380.015E-03
            4092            4383     522.387E-03     512.896E-03
            4092            4386     405.691E-03     419.666E-03
            4092            4387     530.106E-03     539.533E-03
            4093            4383     522.387E-03     512.896E-03
            4093            4384     709.012E-03     688.556E-03
            4093            4387     530.106E-03     539.533E-03
            4093            4388     665.660E-03     664.734E-03
            4094             668     810.708E-03     781.346E-03
            4094             669     730.735E-03     722.468E-03
            4094            4384     709.012E-03     688.556E-03
            4094            4388     665.660E-03     664.734E-03
            4095             717     312.927E-03     330.889E-03
            4095             718     292.190E-03     313.001E-03
            4095            4385     321.931E-03     340.118E-03
            4095            4389     338.760E-03     355.993E-03
            4096            4385     321.931E-03     340.118E-03
            4096            4386     405.691E-03     419.666E-03
            4096            4389     338.760E-03     355.993E-03
            4096            4390     410.676E-03     424.647E-03
            4097            4386     405.691E-03     419.666E-03
            4097            4387     530.106E-03     539.533E-03
            4097            4390     410.676E-03     424.647E-03
            4097            4391     508.386E-03     514.111E-03
            4098            4387     530.106E-03     539.533E-03
            4098            4388     665.660E-03     664.734E-03
            4098            4391     508.386E-03     514.111E-03
            4098            4392     617.979E-03     612.722E-03
            4099             669     730.735E-03     722.468E-03
            4099             670     675.868E-03     665.397E-03
            4099            4388     665.660E-03     664.734E-03
            4099            4392     617.979E-03     612.722E-03
            4100             716     320.902E-03     331.251E-03
            4100             717     312.927E-03     330.889E-03
            4100            4389     338.760E-03     355.993E-03
            4100            4393     343.165E-03     353.411E-03
            4101            4389     338.760E-03     355.993E-03
            4101            4390     410.676E-03     424.647E-03
            4101            4393     343.165E-03     353.411E-03
            4101            4394     400.916E-03     409.004E-03
            4102            4390     410.676E-03     424.647E-03
            4102            4391     508.386E-03     514.111E-03
            4102            4394     400.916E-03     409.004E-03
            4102            4395     483.240E-03     485.828E-03
            4103            4391     508.386E-03     514.111E-03
            4103            4392     617.979E-03     612.722E-03
            4103            4395     483.240E-03     485.828E-03
            4103            4396     583.439E-03     578.049E-03
            4104             670     675.868E-03     665.397E-03
            4104             671     636.736E-03     626.854E-03
            4104            4392     617.979E-03     612.722E-03
            4104            4396     583.439E-03     578.049E-03
            4105             715     321.726E-03     322.278E-03
            4105             716     320.902E-03     331.251E-03
            4105            4393     343.165E-03     353.411E-03
            4105            4397     339.283E-03     341.410E-03
            4106            4393     343.165E-03     353.411E-03
            4106            4394     400.916E-03     409.004E-03
            4106            4397     339.283E-03     341.410E-03
            4106            4398     388.961E-03     393.292E-03
            4107            4394     400.916E-03     409.004E-03
            4107            4395     483.240E-03     485.828E-03
            4107            4398     388.961E-03     393.292E-03
            4107            4399     460.766E-03     463.903E-03
            4108            4395     483.240E-03     485.828E-03
            4108            4396     583.439E-03     578.049E-03
            4108            4399     460.766E-03     463.903E-03
            4108            4400     547.723E-03     544.183E-03
            4109             671     636.736E-03     626.854E-03
            4109             672     594.928E-03     586.581E-03
            4109            4396     583.439E-03     578.049E-03
            4109            4400     547.723E-03     544.183E-03
            4110             714     316.779E-03     307.430E-03
            4110             715     321.726E-03     322.278E-03
            4110            4397     339.283E-03     341.410E-03
            4110            4401     333.781E-03     328.294E-03
            4111            4397     339.283E-03     341.410E-03
            4111            4398     388.961E-03     393.292E-03
            4111            4401     333.781E-03     328.294E-03
            4111            4402     377.572E-03     379.528E-03
            4112            4398     388.961E-03     393.292E-03
            4112            4399     460.766E-03     463.903E-03
            4112            4402     377.572E-03     379.528E-03
            4112            4403     437.972E-03     442.699E-03
            4113            4399     460.766E-03     463.903E-03
            4113            4400     547.723E-03     544.183E-03
            4113            4403     437.972E-03     442.699E-03
            4113            4404     512.795E-03     512.305E-03
            4114             672     594.928E-03     586.581E-03
            4114             673     553.956E-03     549.077E-03
            4114            4400     547.723E-03     544.183E-03
            4114            4404     512.795E-03     512.305E-03
            4115             713     311.308E-03     294.301E-03
            4115             714     316.779E-03     307.430E-03
            4115            4401     333.781E-03     328.294E-03
            4115            4405     326.665E-03     313.381E-03
            4116            4401     333.781E-03     328.294E-03
            4116            4402     377.572E-03     379.528E-03
            4116            4405     326.665E-03     313.381E-03
            4116            4406     366.817E-03     364.018E-03
            4117            4402     377.572E-03     379.528E-03
            4117            4403     437.972E-03     442.699E-03
            4117            4406     366.817E-03     364.018E-03
            4117            4407     418.130E-03     425.487E-03
            4118            4403     437.972E-03     442.699E-03
            4118            4404     512.795E-03     512.305E-03
            4118            4407     418.130E-03     425.487E-03
            4118            4408     477.484E-03     481.778E-03
            4119             673     553.956E-03     549.077E-03
            4119             674     510.281E-03     508.116E-03
            4119            4404     512.795E-03     512.305E-03
            4119            4408     477.484E-03     481.778E-03
            4120             712     307.892E-03     287.317E-03
            4120             713     311.308E-03     294.301E-03
            4120            4405     326.665E-03     313.381E-03
            4120            4409     321.050E-03     302.598E-03
            4121            4405     326.665E-03     313.381E-03
            4121            4406     366.817E-03     364.018E-03
            4121            4409     321.050E-03     302.598E-03
            4121            4410     356.031E-03     343.757E-03
            4122            4406     366.817E-03     364.018E-03
            4122            4407     418.130E-03     425.487E-03
            4122            4410     356.031E-03     343.757E-03
            4122            4411     399.075E-03     399.896E-03
            4123            4407     418.130E-03     425.487E-03
            4123            4408     477.484E-03     481.778E-03
            4123            4411     399.075E-03     399.896E-03
            4123            4412     440.436E-03     449.612E-03
            4124             674     510.281E-03     508.116E-03
            4124             675     460.563E-03     469.007E-03
            4124            4408     477.484E-03     481.778E-03
            4124            4412     440.436E-03     449.612E-03
            4125             711     314.678E-03     299.356E-03
            4125             712     307.892E-03     287.317E-03
            4125            4409     321.050E-03     302.598E-03
            4125            4413     323.606E-03     306.819E-03
            4126            4409     321.050E-03     302.598E-03
            4126            4410     356.031E-03     343.757E-03
            4126            4413     323.606E-03     306.819E-03
            4126            4414     346.922E-03     326.637E-03
            4127            4410     356.031E-03     343.757E-03
            4127            4411     399.075E-03     399.896E-03
            4127            4414     346.922E-03     326.637E-03
            4127            4415     376.432E-03     354.505E-03
            4128            4411     399.075E-03     399.896E-03
            4128            4412     440.436E-03     449.612E-03
            4128            4415     376.432E-03     354.505E-03
            4128            4416     393.355E-03     377.269E-03
            4129             675     460.563E-03     469.007E-03
            4129             676     395.159E-03     384.457E-03
            4129            4412     440.436E-03     449.612E-03
            4129            4416     393.355E-03     377.269E-03
            4130             710     284.086E-03     281.118E-03
            4130             711     314.678E-03     299.356E-03
            4130            4413     323.606E-03     306.819E-03
            4130            4417     294.097E-03     288.378E-03
            4131            4413     323.606E-03     306.819E-03
            4131            4414     346.922E-03     326.637E-03
            4131            4417     294.097E-03     288.378E-03
            4131            4418     321.319E-03     308.330E-03
            4132            4414     346.922E-03     326.637E-03
            4132            4415     376.432E-03     354.505E-03
            4132            4418     321.319E-03     308.330E-03
            4132            4419     366.176E-03     342.871E-03
            4133            4415     376.432E-03     354.505E-03
            4133            4416     393.355E-03     377.269E-03
            4133            4419     366.176E-03     342.871E-03
            4133            4420     430.394E-03     399.047E-03
            4134             676     395.159E-03     384.457E-03
            4134             677     467.036E-03     433.441E-03
            4134            4416     393.355E-03     377.269E-03
            4134            4420     430.394E-03     399.047E-03
            4135             709     262.516E-03     269.579E-03
            4135             710     284.086E-03     281.118E-03
            4135            4417     294.097E-03     288.378E-03
            4135            4421     275.580E-03     281.201E-03
            4136            4417     294.097E-03     288.378E-03
            4136            4418     321.319E-03     308.330E-03
            4136            4421     275.580E-03     281.201E-03
            4136            4422     310.777E-03     312.603E-03
            4137            4418     321.319E-03     308.330E-03
            4137            4419     366.176E-03     342.871E-03
            4137            4422     310.777E-03     312.603E-03
            4137            4423     378.157E-03     376.306E-03
            4138            4419     366.176E-03     342.871E-03
            4138            4420     430.394E-03     399.047E-03
            4138            4423     378.157E-03     376.306E-03
            4138            4424     480.179E-03     470.422E-03
            4139             677     467.036E-03     433.441E-03
            4139             678     537.110E-03     520.777E-03
            4139            4420     430.394E-03     399.047E-03
            4139            4424     480.179E-03     470.422E-03
            4140             708     290.620E-03     301.077E-03
            4140             709     262.516E-03     269.579E-03
            4140            4421     275.580E-03     281.201E-03
            4140            4425     299.554E-03     309.087E-03
            4141            4421     275.580E-03     281.201E-03
            4141            4422     310.777E-03     312.603E-03
            4141            4425     299.554E-03     309.087E-03
            4141            4426     328.797E-03     336.608E-03
            4142            4422     310.777E-03     312.603E-03
            4142            4423     378.157E-03     376.306E-03
            4142            4426     328.797E-03     336.608E-03
            4142            4427     379.555E-03     383.818E-03
            4143            4423     378.157E-03     376.306E-03
            4143            4424     480.179E-03     470.422E-03
            4143            4427     379.555E-03     383.818E-03
            4143            4428     435.973E-03     434.121E-03
            4144             678     537.110E-03     520.777E-03
            4144             679     462.100E-03     456.889E-03
            4144            4424     480.179E-03     470.422E-03
            4144            4428     435.973E-03     434.121E-03
            4145             707     307.103E-03     316.325E-03
            4145             708     290.620E-03     301.077E-03
            4145            4425     299.554E-03     309.087E-03
            4145            4429     313.330E-03     322.046E-03
            4146            4425     299.554E-03     309.087E-03
            4146            4426     328.797E-03     336.608E-03
            4146            4429     313.330E-03     322.046E-03
            4146            4430     332.127E-03     338.400E-03
            4147            4426     328.797E-03     336.608E-03
            4147            4427     379.555E-03     383.818E-03
            4147            4430     332.127E-03     338.400E-03
            4147            4431     358.803E-03     359.751E-03
            4148            4427     379.555E-03     383.818E-03
            4148            4428     435.973E-03     434.121E-03
            4148            4431     358.803E-03     359.751E-03
            4148            4432     391.801E-03     387.839E-03
            4149             679     462.100E-03     456.889E-03
            4149             680     410.832E-03     405.369E-03
            4149            4428     435.973E-03     434.121E-03
            4149            4432     391.801E-03     387.839E-03
            4150             706     314.878E-03     320.806E-03
            4150             707     307.103E-03     316.325E-03
            4150            4429     313.330E-03     322.046E-03
            4150            4433     318.023E-03     323.353E-03
            4151            4429     313.330E-03     322.046E-03
            4151            4430     332.127E-03     338.400E-03
            4151            4433     318.023E-03     323.353E-03
            4151            4434     324.927E-03     327.956E-03
            4152            4430     332.127E-03     338.400E-03
            4152            4431     358.803E-03     359.751E-03
            4152            4434     324.927E-03     327.956E-03
            4152            4435     337.586E-03     337.414E-03
            4153            4431     358.803E-03     359.751E-03
            4153            4432     391.801E-03     387.839E-03
            4153            4435     337.586E-03     337.414E-03
            4153            4436     360.012E-03     356.345E-03
            4154             680     410.832E-03     405.369E-03
            4154             681     373.664E-03     368.018E-03
            4154            4432     391.801E-03     387.839E-03
            4154            4436     360.012E-03     356.345E-03
            4155             705     317.152E-03     319.088E-03
            4155             706     314.878E-03     320.806E-03
            4155            4433     318.023E-03     323.353E-03
            4155            4437     316.717E-03     318.521E-03
            4156            4433     318.023E-03     323.353E-03
            4156            4434     324.927E-03     327.956E-03
            4156            4437     316.717E-03     318.521E-03
            4156            4438     316.840E-03     318.341E-03
            4157            4434     324.927E-03     327.956E-03
            4157            4435     337.586E-03     337.414E-03
            4157            4438     316.840E-03     318.341E-03
            4157            4439     319.524E-03     319.782E-03
            4158            4435     337.586E-03     337.414E-03
            4158            4436     360.012E-03     356.345E-03
            4158            4439     319.524E-03     319.782E-03
            4158            4440     328.814E-03     326.339E-03
            4159             681     373.664E-03     368.018E-03
            4159             682     336.086E-03     331.985E-03
            4159            4436     360.012E-03     356.345E-03
            4159            4440     328.814E-03     326.339E-03
            4160             704     315.390E-03     313.356E-03
            4160             705     317.152E-03     319.088E-03
            4160            4437     316.717E-03     318.521E-03
            4160            4441     313.997E-03     312.804E-03
            4161            4437     316.717E-03     318.521E-03
            4161            4438     316.840E-03     318.341E-03
            4161            4441     313.997E-03     312.804E-03
            4161            4442     309.172E-03     309.475E-03
            4162            4438     316.840E-03     318.341E-03
            4162            4439     319.524E-03     319.782E-03
            4162            4442     309.172E-03     309.475E-03
            4162            4443     302.555E-03     303.542E-03
            4163            4439     319.524E-03     319.782E-03
            4163            4440     328.814E-03     326.339E-03
            4163            4443     302.555E-03     303.542E-03
            4163            4444     300.427E-03     299.466E-03
            4164             682     336.086E-03     331.985E-03
            4164             683     301.571E-03     298.671E-03
            4164            4440     328.814E-03     326.339E-03
            4164            4444     300.427E-03     299.466E-03
            4165             703     311.583E-03     305.835E-03
            4165             704     315.390E-03     313.356E-03
            4165            4441     313.997E-03     312.804E-03
            4165            4445     309.790E-03     305.294E-03
            4166            4441     313.997E-03     312.804E-03
            4166            4442     309.172E-03     309.475E-03
            4166            4445     309.790E-03     305.294E-03
            4166            4446     302.438E-03     301.257E-03
            4167            4442     309.172E-03     309.475E-03
            4167            4443     302.555E-03     303.542E-03
            4167            4446     302.438E-03     301.257E-03
            4167            4447     288.875E-03     290.726E-03
            4168            4443     302.555E-03     303.542E-03
            4168            4444     300.427E-03     299.466E-03
            4168            4447     288.875E-03     290.726E-03
            4168            4448     274.308E-03     275.695E-03
            4169             683     301.571E-03     298.671E-03
            4169             684     267.831E-03     267.794E-03
            4169            4444     300.427E-03     299.466E-03
            4169            4448     274.308E-03     275.695E-03
            4170             702     304.912E-03     296.023E-03
            4170             703     311.583E-03     305.835E-03
            4170            4445     309.790E-03     305.294E-03
            4170            4449     303.673E-03     295.895E-03
            4171            4445     309.790E-03     305.294E-03
            4171            4446     302.438E-03     301.257E-03
            4171            4449     303.673E-03     295.895E-03
            4171            4450     297.287E-03     293.306E-03
            4172            4446     302.438E-03     301.257E-03
            4172            4447     288.875E-03     290.726E-03
            4172            4450     297.287E-03     293.306E-03
            4172            4451     279.017E-03     281.111E-03
            4173            4447     288.875E-03     290.726E-03
            4173            4448     274.308E-03     275.695E-03
            4173            4451     279.017E-03     281.111E-03
            4173            4452     250.169E-03     254.737E-03
            4174             684     267.831E-03     267.794E-03
            4174             685     234.510E-03     238.172E-03
            4174            4448     274.308E-03     275.695E-03
            4174            4452     250.169E-03     254.737E-03
            4175             701     296.947E-03     286.885E-03
            4175             702     304.912E-03     296.023E-03
            4175            4449     303.673E-03     295.895E-03
            4175            4453     295.569E-03     286.106E-03
            4176            4449     303.673E-03     295.895E-03
            4176            4450     297.287E-03     293.306E-03
            4176            4453     295.569E-03     286.106E-03
            4176            4454     290.566E-03     283.104E-03
            4177            4450     297.287E-03     293.306E-03
            4177            4451     279.017E-03     281.111E-03
            4177            4454     290.566E-03     283.104E-03
            4177            4455     273.464E-03     271.765E-03
            4178            4451     279.017E-03     281.111E-03
            4178            4452     250.169E-03     254.737E-03
            4178            4455     273.464E-03     271.765E-03
            4178            4456     231.172E-03     237.996E-03
            4179             685     234.510E-03     238.172E-03
            4179             686     202.415E-03     213.374E-03
            4179            4452     250.169E-03     254.737E-03
            4179            4456     231.172E-03     237.996E-03
            4180             700     291.361E-03     284.195E-03
            4180             701     296.947E-03     286.885E-03
            4180            4453     295.569E-03     286.106E-03
            4180            4457     289.353E-03     281.935E-03
            4181            4453     295.569E-03     286.106E-03
            4181            4454     290.566E-03     283.104E-03
            4181            4457     289.353E-03     281.935E-03
            4181            4458     281.430E-03     273.551E-03
            4182            4454     290.566E-03     283.104E-03
            4182            4455     273.464E-03     271.765E-03
            4182            4458     281.430E-03     273.551E-03
            4182            4459     264.956E-03     257.785E-03
            4183            4455     273.464E-03     271.765E-03
            4183            4456     231.172E-03     237.996E-03
            4183            4459     264.956E-03     257.785E-03
            4183            4460     215.299E-03     216.589E-03
            4184             686     202.415E-03     213.374E-03
            4184             687     176.251E-03     185.040E-03
            4184            4456     231.172E-03     237.996E-03
            4184            4460     215.299E-03     216.589E-03
            4185             699     278.889E-03     276.713E-03
            4185             700     291.361E-03     284.195E-03
            4185            4457     289.353E-03     281.935E-03
            4185            4461     278.820E-03     276.291E-03
            4186            4457     289.353E-03     281.935E-03
            4186            4458     281.430E-03     273.551E-03
            4186            4461     278.820E-03     276.291E-03
            4186            4462     272.111E-03     268.897E-03
            4187            4458     281.430E-03     273.551E-03
            4187            4459     264.956E-03     257.785E-03
            4187            4462     272.111E-03     268.897E-03
            4187            4463     261.743E-03     258.043E-03
            4188            4459     264.956E-03     257.785E-03
            4188            4460     215.299E-03     216.589E-03
            4188            4463     261.743E-03     258.043E-03
            4188            4464     237.530E-03     234.540E-03
            4189             687     176.251E-03     185.040E-03
            4189             688     217.101E-03     214.973E-03
            4189            4460     215.299E-03     216.589E-03
            4189            4464     237.530E-03     234.540E-03
            4190             698     271.399E-03     271.412E-03
            4190             699     278.889E-03     276.713E-03
            4190            4461     278.820E-03     276.291E-03
            4190            4465     272.796E-03     272.969E-03
            4191            4461     278.820E-03     276.291E-03
            4191            4462     272.111E-03     268.897E-03
            4191            4465     272.796E-03     272.969E-03
            4191            4466     273.464E-03     274.042E-03
            4192            4462     272.111E-03     268.897E-03
            4192            4463     261.743E-03     258.043E-03
            4192            4466     273.464E-03     274.042E-03
            4192            4467     271.795E-03     273.200E-03
            4193            4463     261.743E-03     258.043E-03
            4193            4464     237.530E-03     234.540E-03
            4193            4467     271.795E-03     273.200E-03
            4193            4468     254.227E-03     254.101E-03
            4194             688     217.101E-03     214.973E-03
            4194             689     237.657E-03     235.431E-03
            4194            4464     237.530E-03     234.540E-03
            4194            4468     254.227E-03     254.101E-03
            4195             697     276.385E-03     276.454E-03
            4195             698     271.399E-03     271.412E-03
            4195            4465     272.796E-03     272.969E-03
            4195            4469     276.877E-03     276.977E-03
            4196            4465     272.796E-03     272.969E-03
            4196            4466     273.464E-03     274.042E-03
            4196            4469     276.877E-03     276.977E-03
            4196            4470     280.355E-03     280.745E-03
            4197            4466     273.464E-03     274.042E-03
            4197            4467     271.795E-03     273.200E-03
            4197            4470     280.355E-03     280.745E-03
            4197            4471     276.701E-03     276.492E-03
            4198            4467     271.795E-03     273.200E-03
            4198            4468     254.227E-03     254.101E-03
            4198            4471     276.701E-03     276.492E-03
            4198            4472     231.180E-03     231.819E-03
            4199             689     237.657E-03     235.431E-03
            4199             690     192.340E-03     194.684E-03
            4199            4468     254.227E-03     254.101E-03
            4199            4472     231.180E-03     231.819E-03
            4200             696     279.065E-03     279.177E-03
            4200             697     276.385E-03     276.454E-03
            4200            4469     276.877E-03     276.977E-03
            4200            4473     279.457E-03     279.458E-03
            4201            4469     276.877E-03     276.977E-03
            4201            4470     280.355E-03     280.745E-03
            4201            4473     279.457E-03     279.458E-03
            4201            4474     277.438E-03     277.000E-03
            4202            4470     280.355E-03     280.745E-03
            4202            4471     276.701E-03     276.492E-03
            4202            4474     277.438E-03     277.000E-03
            4202            4475     267.159E-03     265.968E-03
            4203            4471     276.701E-03     276.492E-03
            4203            4472     231.180E-03     231.819E-03
            4203            4475     267.159E-03     265.968E-03
            4203            4476     223.556E-03     223.721E-03
            4204             690     192.340E-03     194.684E-03
            4204             691     187.841E-03     189.778E-03
            4204            4472     231.180E-03     231.819E-03
            4204            4476     223.556E-03     223.721E-03
            4205              29     140.111E-03     140.165E-03
            4205             695     140.446E-03     140.440E-03
            4205             696     279.065E-03     279.177E-03
            4205            4473     279.457E-03     279.458E-03
            4206             694     136.809E-03     136.395E-03
            4206             695     140.446E-03     140.440E-03
            4206            4473     279.457E-03     279.458E-03
            4206            4474     277.438E-03     277.000E-03
            4207             693     129.786E-03     129.429E-03
            4207             694     136.809E-03     136.395E-03
            4207            4474     277.438E-03     277.000E-03
            4207            4475     267.159E-03     265.968E-03
            4208             692     112.768E-03     112.674E-03
            4208             693     129.786E-03     129.429E-03
            4208            4475     267.159E-03     265.968E-03
            4208            4476     223.556E-03     223.721E-03
            4209              28     98.7959E-03     98.5574E-03
            4209             691     187.841E-03     189.778E-03
            4209             692     112.768E-03     112.674E-03
            4209            4476     223.556E-03     223.721E-03
            5042              26     99.9052E-03     99.6239E-03
            5042             839     113.446E-03     113.421E-03
            5042             858     191.855E-06     187.399E-06
            5042            5187     185.912E-06     184.061E-06
            5043             839     113.446E-03     113.421E-03
            5043             840     129.954E-03     129.702E-03
            5043            5187     185.912E-06     184.061E-06
            5043            5188     174.543E-06     175.516E-06
            5044             840     129.954E-03     129.702E-03
            5044             841     136.843E-03     136.477E-03
            5044            5188     174.543E-06     175.516E-06
            5044            5189     169.663E-06     170.912E-06
            5045             841     136.843E-03     136.477E-03
            5045             842     140.440E-03     140.470E-03
            5045            5189     169.663E-06     170.912E-06
            5045            5190     169.965E-06     171.248E-06
            5046              29     140.111E-03     140.165E-03
            5046             842     140.440E-03     140.470E-03
            5046             843     169.722E-06     170.982E-06
            5046            5190     169.965E-06     171.248E-06
            5047             857     151.604E-06     150.648E-06
            5047             858     191.855E-06     187.399E-06
            5047            5187     185.912E-06     184.061E-06
            5047            5191     161.390E-06     161.037E-06
            5048            5187     185.912E-06     184.061E-06
            5048            5188     174.543E-06     175.516E-06
            5048            5191     161.390E-06     161.037E-06
            5048            5192     174.030E-06     175.216E-06
            5049            5188     174.543E-06     175.516E-06
            5049            5189     169.663E-06     170.912E-06
            5049            5192     174.030E-06     175.216E-06
            5049            5193     177.370E-06     179.281E-06
            5050            5189     169.663E-06     170.912E-06
            5050            5190     169.965E-06     171.248E-06
            5050            5193     177.370E-06     179.281E-06
            5050            5194     178.719E-06     180.351E-06
            5051             843     169.722E-06     170.982E-06
            5051             844     179.582E-06     181.145E-06
            5051            5190     169.965E-06     171.248E-06
            5051            5194     178.719E-06     180.351E-06
            5052             856     126.976E-06     126.975E-06
            5052             857     151.604E-06     150.648E-06
            5052            5191     161.390E-06     161.037E-06
            5052            5195     141.588E-06     141.571E-06
            5053            5191     161.390E-06     161.037E-06
            5053            5192     174.030E-06     175.216E-06
            5053            5195     141.588E-06     141.571E-06
            5053            5196     166.233E-06     166.546E-06
            5054            5192     174.030E-06     175.216E-06
            5054            5193     177.370E-06     179.281E-06
            5054            5196     166.233E-06     166.546E-06
            5054            5197     179.914E-06     180.740E-06
            5055            5193     177.370E-06     179.281E-06
            5055            5194     178.719E-06     180.351E-06
            5055            5197     179.914E-06     180.740E-06
            5055            5198     184.346E-06     185.235E-06
            5056             844     179.582E-06     181.145E-06
            5056             845     185.130E-06     185.914E-06
            5056            5194     178.719E-06     180.351E-06
            5056            5198     184.346E-06     185.235E-06
            5057             855     111.946E-06     113.085E-06
            5057             856     126.976E-06     126.975E-06
            5057            5195     141.588E-06     141.571E-06
            5057            5199     130.994E-06     131.997E-06
            5058            5195     141.588E-06     141.571E-06
            5058            5196     166.233E-06     166.546E-06
            5058            5199     130.994E-06     131.997E-06
            5058            5200     161.983E-06     162.172E-06
            5059            5196     166.233E-06     166.546E-06
            5059            5197     179.914E-06     180.740E-06
            5059            5200     161.983E-06     162.172E-06
            5059            5201     178.822E-06     178.381E-06
            5060            5197     179.914E-06     180.740E-06
            5060            5198     184.346E-06     185.235E-06
            5060            5201     178.822E-06     178.381E-06
            5060            5202     184.717E-06     184.355E-06
            5061             845     185.130E-06     185.914E-06
            5061             846     185.713E-06     185.382E-06
            5061            5198     184.346E-06     185.235E-06
            5061            5202     184.717E-06     184.355E-06
            5062             854     105.039E-06     108.059E-06
            5062             855     111.946E-06     113.085E-06
            5062            5199     130.994E-06     131.997E-06
            5062            5203     128.357E-06     129.875E-06
            5063            5199     130.994E-06     131.997E-06
            5063            5200     161.983E-06     162.172E-06
            5063            5203     128.357E-06     129.875E-06
            5063            5204     162.002E-06     161.522E-06
            5064            5200     161.983E-06     162.172E-06
            5064            5201     178.822E-06     178.381E-06
            5064            5204     162.002E-06     161.522E-06
            5064            5205     175.552E-06     174.434E-06
            5065            5201     178.822E-06     178.381E-06
            5065            5202     184.717E-06     184.355E-06
            5065            5205     175.552E-06     174.434E-06
            5065            5206     180.549E-06     179.348E-06
            5066             846     185.713E-06     185.382E-06
            5066             847     182.324E-06     181.180E-06
            5066            5202     184.717E-06     184.355E-06
            5066            5206     180.549E-06     179.348E-06
            5067             853     114.149E-06     116.602E-06
            5067             854     105.039E-06     108.059E-06
            5067            5203     128.357E-06     129.875E-06
            5067            5207     133.495E-06     134.476E-06
            5068            5203     128.357E-06     129.875E-06
            5068            5204     162.002E-06     161.522E-06
            5068            5207     133.495E-06     134.476E-06
            5068            5208     158.879E-06     158.056E-06
            5069            5204     162.002E-06     161.522E-06
            5069            5205     175.552E-06     174.434E-06
            5069            5208     158.879E-06     158.056E-06
            5069            5209     169.613E-06     168.489E-06
            5070            5205     175.552E-06     174.434E-06
            5070            5206     180.549E-06     179.348E-06
            5070            5209     169.613E-06     168.489E-06
            5070            5210     175.908E-06     174.846E-06
            5071             847     182.324E-06     181.180E-06
            5071             848     177.508E-06     176.475E-06
            5071            5206     180.549E-06     179.348E-06
            5071            5210     175.908E-06     174.846E-06
            5072              34     121.349E-06     122.837E-06
            5072             852     136.287E-06     136.817E-06
            5072             853     114.149E-06     116.602E-06
            5072            5207     133.495E-06     134.476E-06
            5073             851     155.633E-06     154.953E-06
            5073             852     136.287E-06     136.817E-06
            5073            5207     133.495E-06     134.476E-06
            5073            5208     158.879E-06     158.056E-06
            5074             850     166.156E-06     165.281E-06
            5074             851     155.633E-06     154.953E-06
            5074            5208     158.879E-06     158.056E-06
            5074            5209     169.613E-06     168.489E-06
            5075             849     173.869E-06     173.130E-06
            5075             850     166.156E-06     165.281E-06
            5075            5209     169.613E-06     168.489E-06
            5075            5210     175.908E-06     174.846E-06
            5076              33     175.466E-06     174.808E-06
            5076             848     177.508E-06     176.475E-06
            5076             849     173.869E-06     173.130E-06
            5076            5210     175.908E-06     174.846E-06
            5309              29     140.111E-03     140.165E-03
            5309             695     140.446E-03     140.440E-03
            5309             843     169.722E-06     170.982E-06
            5309            5407     169.965E-06     171.248E-06
            5310             694     136.809E-03     136.395E-03
            5310             695     140.446E-03     140.440E-03
            5310            5407     169.965E-06     171.248E-06
            5310            5408     169.663E-06     170.912E-06
            5311             693     129.786E-03     129.429E-03
            5311             694     136.809E-03     136.395E-03
            5311            5408     169.663E-06     170.912E-06
            5311            5409     174.543E-06     175.516E-06
            5312             692     112.768E-03     112.674E-03
            5312             693     129.786E-03     129.429E-03
            5312            5409     174.543E-06     175.516E-06
            5312            5410     185.912E-06     184.061E-06
            5313              28     98.7959E-03     98.5574E-03
            5313             692     112.768E-03     112.674E-03
            5313             812     191.855E-06     187.399E-06
            5313            5410     185.912E-06     184.061E-06
            5314             843     169.722E-06     170.982E-06
            5314             844     179.582E-06     181.145E-06
            5314            5407     169.965E-06     171.248E-06
            5314            5411     178.719E-06     180.351E-06
            5315            5407     169.965E-06     171.248E-06
            5315            5408     169.663E-06     170.912E-06
            5315            5411     178.719E-06     180.351E-06
            5315            5412     177.370E-06     179.281E-06
            5316            5408     169.663E-06     170.912E-06
            5316            5409     174.543E-06     175.516E-06
            5316            5412     177.370E-06     179.281E-06
            5316            5413     174.030E-06     175.216E-06
            5317            5409     174.543E-06     175.516E-06
            5317            5410     185.912E-06     184.061E-06
            5317            5413     174.030E-06     175.216E-06
            5317            5414     161.390E-06     161.037E-06
            5318             812     191.855E-06     187.399E-06
            5318             813     151.604E-06     150.648E-06
            5318            5410     185.912E-06     184.061E-06
            5318            5414     161.390E-06     161.037E-06
            5319             844     179.582E-06     181.145E-06
            5319             845     185.130E-06     185.914E-06
            5319            5411     178.719E-06     180.351E-06
            5319            5415     184.346E-06     185.235E-06
            5320            5411     178.719E-06     180.351E-06
            5320            5412     177.370E-06     179.281E-06
            5320            5415     184.346E-06     185.235E-06
            5320            5416     179.914E-06     180.740E-06
            5321            5412     177.370E-06     179.281E-06
            5321            5413     174.030E-06     175.216E-06
            5321            5416     179.914E-06     180.740E-06
            5321            5417     166.233E-06     166.546E-06
            5322            5413     174.030E-06     175.216E-06
            5322            5414     161.390E-06     161.037E-06
            5322            5417     166.233E-06     166.546E-06
            5322            5418     141.588E-06     141.571E-06
            5323             813     151.604E-06     150.648E-06
            5323             814     126.976E-06     126.975E-06
            5323            5414     161.390E-06     161.037E-06
            5323            5418     141.588E-06     141.571E-06
            5324             845     185.130E-06     185.914E-06
            5324             846     185.713E-06     185.382E-06
            5324            5415     184.346E-06     185.235E-06
            5324            5419     184.717E-06     184.355E-06
            5325            5415     184.346E-06     185.235E-06
            5325            5416     179.914E-06     180.740E-06
            5325            5419     184.717E-06     184.355E-06
            5325            5420     178.822E-06     178.381E-06
            5326            5416     179.914E-06     180.740E-06
            5326            5417     166.233E-06     166.546E-06
            5326            5420     178.822E-06     178.381E-06
            5326            5421     161.983E-06     162.172E-06
            5327            5417     166.233E-06     166.546E-06
            5327            5418     141.588E-06     141.571E-06
            5327            5421     161.983E-06     162.172E-06
            5327            5422     130.994E-06     131.997E-06
            5328             814     126.976E-06     126.975E-06
            5328             815     111.946E-06     113.085E-06
            5328            5418     141.588E-06     141.571E-06
            5328            5422     130.994E-06     131.997E-06
            5329             846     185.713E-06     185.382E-06
            5329             847     182.324E-06     181.180E-06
            5329            5419     184.717E-06     184.355E-06
            5329            5423     180.549E-06     179.348E-06
            5330            5419     184.717E-06     184.355E-06
            5330            5420     178.822E-06     178.381E-06
            5330            5423     180.549E-06     179.348E-06
            5330            5424     175.552E-06     174.434E-06
            5331            5420     178.822E-06     178.381E-06
            5331            5421     161.983E-06     162.172E-06
            5331            5424     175.552E-06     174.434E-06
            5331            5425     162.002E-06     161.522E-06
            5332            5421     161.983E-06     162.172E-06
            5332            5422     130.994E-06     131.997E-06
            5332            5425     162.002E-06     161.522E-06
            5332            5426     128.357E-06     129.875E-06
            5333             815     111.946E-06     113.085E-06
            5333             816     105.039E-06     108.059E-06
            5333            5422     130.994E-06     131.997E-06
            5333            5426     128.357E-06     129.875E-06
            5334             847     182.324E-06     181.180E-06
            5334             848     177.508E-06     176.475E-06
            5334            5423     180.549E-06     179.348E-06
            5334            5427     175.908E-06     174.846E-06
            5335            5423     180.549E-06     179.348E-06
            5335            5424     175.552E-06     174.434E-06
            5335            5427     175.908E-06     174.846E-06
            5335            5428     169.613E-06     168.489E-06
            5336            5424     175.552E-06     174.434E-06
            5336            5425     162.002E-06     161.522E-06
            5336            5428     169.613E-06     168.489E-06
            5336            5429     158.879E-06     158.056E-06
            5337            5425     162.002E-06     161.522E-06
            5337            5426     128.357E-06     129.875E-06
            5337            5429     158.879E-06     158.056E-06
            5337            5430     133.495E-06     134.476E-06
            5338             816     105.039E-06     108.059E-06
            5338             817     114.149E-06     116.602E-06
            5338            5426     128.357E-06     129.875E-06
            5338            5430     133.495E-06     134.476E-06
            5339              33     175.466E-06     174.808E-06
            5339             848     177.508E-06     176.475E-06
            5339             869     173.869E-06     173.130E-06
            5339            5427     175.908E-06     174.846E-06
            5340             868     166.156E-06     165.281E-06
            5340             869     173.869E-06     173.130E-06
            5340            5427     175.908E-06     174.846E-06
            5340            5428     169.613E-06     168.489E-06
            5341             867     155.633E-06     154.953E-06
            5341             868     166.156E-06     165.281E-06
            5341            5428     169.613E-06     168.489E-06
            5341            5429     158.879E-06     158.056E-06
            5342             866     136.287E-06     136.817E-06
            5342             867     155.633E-06     154.953E-06
            5342            5429     158.879E-06     158.056E-06
            5342            5430     133.495E-06     134.476E-06
            5343              31     121.349E-06     122.837E-06
            5343             817     114.149E-06     116.602E-06
            5343             866     136.287E-06     136.817E-06
            5343            5430     133.495E-06     134.476E-06
            5344              17     168.809E-03     171.107E-03
            5344             441     245.523E-03     244.769E-03
            5344             581     240.697E-03     250.330E-03
            5344            5431     305.979E-03     313.119E-03
            5345             440     419.382E-03     410.586E-03
            5345             441     245.523E-03     244.769E-03
            5345            5431     305.979E-03     313.119E-03
            5345            5432     459.826E-03     459.440E-03
            5346             439     619.700E-03     601.022E-03
            5346             440     419.382E-03     410.586E-03
            5346            5432     459.826E-03     459.440E-03
            5346            5433     665.911E-03     659.265E-03
            5347             438     861.008E-03     831.534E-03
            5347             439     619.700E-03     601.022E-03
            5347            5433     665.911E-03     659.265E-03
            5347            5434     923.688E-03     901.366E-03
            5348              16     997.100E-03     962.009E-03
            5348             438     861.008E-03     831.534E-03
            5348             528         1.06298         1.02655
            5348            5434     923.688E-03     901.366E-03
            5349             581     240.697E-03     250.330E-03
            5349             582     288.640E-03     300.431E-03
            5349            5431     305.979E-03     313.119E-03
            5349            5435     347.089E-03     362.351E-03
            5350            5431     305.979E-03     313.119E-03
            5350            5432     459.826E-03     459.440E-03
            5350            5435     347.089E-03     362.351E-03
            5350            5436     493.510E-03     517.271E-03
            5351            5432     459.826E-03     459.440E-03
            5351            5433     665.911E-03     659.265E-03
            5351            5436     493.510E-03     517.271E-03
            5351            5437     683.677E-03     711.155E-03
            5352            5433     665.911E-03     659.265E-03
            5352            5434     923.688E-03     901.366E-03
            5352            5437     683.677E-03     711.155E-03
            5352            5438     882.034E-03     893.164E-03
            5353             528         1.06298         1.02655
            5353             529     977.400E-03     973.635E-03
            5353            5434     923.688E-03     901.366E-03
            5353            5438     882.034E-03     893.164E-03
            5354             582     288.640E-03     300.431E-03
            5354             583     312.596E-03     314.759E-03
            5354            5435     347.089E-03     362.351E-03
            5354            5439     366.947E-03     375.178E-03
            5355            5435     347.089E-03     362.351E-03
            5355            5436     493.510E-03     517.271E-03
            5355            5439     366.947E-03     375.178E-03
            5355            5440     504.753E-03     528.089E-03
            5356            5436     493.510E-03     517.271E-03
            5356            5437     683.677E-03     711.155E-03
            5356            5440     504.753E-03     528.089E-03
            5356            5441     666.489E-03     695.607E-03
            5357            5437     683.677E-03     711.155E-03
            5357            5438     882.034E-03     893.164E-03
            5357            5441     666.489E-03     695.607E-03
            5357            5442     828.155E-03     838.496E-03
            5358             529     977.400E-03     973.635E-03
            5358             530     910.836E-03     905.686E-03
            5358            5438     882.034E-03     893.164E-03
            5358            5442     828.155E-03     838.496E-03
            5359             583     312.596E-03     314.759E-03
            5359             584     327.798E-03     318.619E-03
            5359            5439     366.947E-03     375.178E-03
            5359            5443     376.620E-03     370.778E-03
            5360            5439     366.947E-03     375.178E-03
            5360            5440     504.753E-03     528.089E-03
            5360            5443     376.620E-03     370.778E-03
            5360            5444     494.218E-03     496.289E-03
            5361            5440     504.753E-03     528.089E-03
            5361            5441     666.489E-03     695.607E-03
            5361            5444     494.218E-03     496.289E-03
            5361            5445     638.626E-03     654.187E-03
            5362            5441     666.489E-03     695.607E-03
            5362            5442     828.155E-03     838.496E-03
            5362            5445     638.626E-03     654.187E-03
            5362            5446     787.810E-03     803.181E-03
            5363             530     910.836E-03     905.686E-03
            5363             531     860.826E-03     866.966E-03
            5363            5442     828.155E-03     838.496E-03
            5363            5446     787.810E-03     803.181E-03
            5364             584     327.798E-03     318.619E-03
            5364             585     357.420E-03     346.083E-03
            5364            5443     376.620E-03     370.778E-03
            5364            5447     391.494E-03     377.136E-03
            5365            5443     376.620E-03     370.778E-03
            5365            5444     494.218E-03     496.289E-03
            5365            5447     391.494E-03     377.136E-03
            5365            5448     481.104E-03     459.981E-03
            5366            5444     494.218E-03     496.289E-03
            5366            5445     638.626E-03     654.187E-03
            5366            5448     481.104E-03     459.981E-03
            5366            5449     599.119E-03     574.268E-03
            5367            5445     638.626E-03     654.187E-03
            5367            5446     787.810E-03     803.181E-03
            5367            5449     599.119E-03     574.268E-03
            5367            5450     723.604E-03     700.053E-03
            5368             531     860.826E-03     866.966E-03
            5368             532     785.225E-03     762.793E-03
            5368            5446     787.810E-03     803.181E-03
            5368            5450     723.604E-03     700.053E-03
            5369              25     293.205E-03     288.499E-03
            5369             585     357.420E-03     346.083E-03
            5369             660     331.980E-03     324.612E-03
            5369            5447     391.494E-03     377.136E-03
            5370             660     331.980E-03     324.612E-03
            5370             661     431.102E-03     415.631E-03
            5370            5447     391.494E-03     377.136E-03
            5370            5448     481.104E-03     459.981E-03
            5371             661     431.102E-03     415.631E-03
            5371             662     559.098E-03     527.116E-03
            5371            5448     481.104E-03     459.981E-03
            5371            5449     599.119E-03     574.268E-03
            5372             662     559.098E-03     527.116E-03
            5372             663     725.451E-03     677.582E-03
            5372            5449     599.119E-03     574.268E-03
            5372            5450     723.604E-03     700.053E-03
            5373              21     823.731E-03     771.108E-03
            5373             532     785.225E-03     762.793E-03
            5373             663     725.451E-03     677.582E-03
            5373            5450     723.604E-03     700.053E-03
            5430              23     826.470E-03     774.558E-03
            5430             589     728.011E-03     680.710E-03
            5430             597     869.823E-03     849.499E-03
            5430            5493     764.511E-03     760.049E-03
            5431             588     561.452E-03     529.694E-03
            5431             589     728.011E-03     680.710E-03
            5431            5493     764.511E-03     760.049E-03
            5431            5494     568.828E-03     577.434E-03
            5432             587     433.162E-03     417.701E-03
            5432             588     561.452E-03     529.694E-03
            5432            5494     568.828E-03     577.434E-03
            5432            5495     409.222E-03     412.845E-03
            5433             586     333.302E-03     325.868E-03
            5433             587     433.162E-03     417.701E-03
            5433            5495     409.222E-03     412.845E-03
            5433            5496     289.488E-03     289.865E-03
            5434              25     293.205E-03     288.499E-03
            5434             586     333.302E-03     325.868E-03
            5434             723     238.535E-03     238.021E-03
            5434            5496     289.488E-03     289.865E-03
            5435             597     869.823E-03     849.499E-03
            5435             598     781.272E-03     790.575E-03
            5435            5493     764.511E-03     760.049E-03
            5435            5497     720.608E-03     741.593E-03
            5436            5493     764.511E-03     760.049E-03
            5436            5494     568.828E-03     577.434E-03
            5436            5497     720.608E-03     741.593E-03
            5436            5498     582.701E-03     604.354E-03
            5437            5494     568.828E-03     577.434E-03
            5437            5495     409.222E-03     412.845E-03
            5437            5498     582.701E-03     604.354E-03
            5437            5499     440.556E-03     446.239E-03
            5438            5495     409.222E-03     412.845E-03
            5438            5496     289.488E-03     289.865E-03
            5438            5499     440.556E-03     446.239E-03
            5438            5500     332.918E-03     333.251E-03
            5439             722     289.859E-03     289.824E-03
            5439             723     238.535E-03     238.021E-03
            5439            5496     289.488E-03     289.865E-03
            5439            5500     332.918E-03     333.251E-03
            5440             598     781.272E-03     790.575E-03
            5440             599     683.482E-03     673.443E-03
            5440            5497     720.608E-03     741.593E-03
            5440            5501     640.182E-03     631.351E-03
            5441            5497     720.608E-03     741.593E-03
            5441            5498     582.701E-03     604.354E-03
            5441            5501     640.182E-03     631.351E-03
            5441            5502     547.053E-03     540.855E-03
            5442            5498     582.701E-03     604.354E-03
            5442            5499     440.556E-03     446.239E-03
            5442            5502     547.053E-03     540.855E-03
            5442            5503     448.446E-03     445.269E-03
            5443            5499     440.556E-03     446.239E-03
            5443            5500     332.918E-03     333.251E-03
            5443            5503     448.446E-03     445.269E-03
            5443            5504     368.830E-03     368.463E-03
            5444             721     337.785E-03     338.560E-03
            5444             722     289.859E-03     289.824E-03
            5444            5500     332.918E-03     333.251E-03
            5444            5504     368.830E-03     368.463E-03
            5445             599     683.482E-03     673.443E-03
            5445             600     742.493E-03     698.130E-03
            5445            5501     640.182E-03     631.351E-03
            5445            5505     658.627E-03     618.035E-03
            5446            5501     640.182E-03     631.351E-03
            5446            5502     547.053E-03     540.855E-03
            5446            5505     658.627E-03     618.035E-03
            5446            5506     513.901E-03     485.829E-03
            5447            5502     547.053E-03     540.855E-03
            5447            5503     448.446E-03     445.269E-03
            5447            5506     513.901E-03     485.829E-03
            5447            5507     406.678E-03     395.129E-03
            5448            5503     448.446E-03     445.269E-03
            5448            5504     368.830E-03     368.463E-03
            5448            5507     406.678E-03     395.129E-03
            5448            5508     328.523E-03     328.599E-03
            5449             720     296.600E-03     300.520E-03
            5449             721     337.785E-03     338.560E-03
            5449            5504     368.830E-03     368.463E-03
            5449            5508     328.523E-03     328.599E-03
            5450             600     742.493E-03     698.130E-03
            5450             601     811.446E-03     781.778E-03
            5450            5505     658.627E-03     618.035E-03
            5450            5509     709.712E-03     688.943E-03
            5451            5505     658.627E-03     618.035E-03
            5451            5506     513.901E-03     485.829E-03
            5451            5509     709.712E-03     688.943E-03
            5451            5510     523.016E-03     513.190E-03
            5452            5506     513.901E-03     485.829E-03
            5452            5507     406.678E-03     395.129E-03
            5452            5510     523.016E-03     513.190E-03
            5452            5511     382.247E-03     380.223E-03
            5453            5507     406.678E-03     395.129E-03
            5453            5508     328.523E-03     328.599E-03
            5453            5511     382.247E-03     380.223E-03
            5453            5512     289.703E-03     298.342E-03
            5454             719     252.875E-03     266.474E-03
            5454             720     296.600E-03     300.520E-03
            5454            5508     328.523E-03     328.599E-03
            5454            5512     289.703E-03     298.342E-03
            5455             601     811.446E-03     781.778E-03
            5455             602     731.318E-03     723.033E-03
            5455            5509     709.712E-03     688.943E-03
            5455            5513     666.216E-03     665.237E-03
            5456            5509     709.712E-03     688.943E-03
            5456            5510     523.016E-03     513.190E-03
            5456            5513     666.216E-03     665.237E-03
            5456            5514     530.627E-03     539.900E-03
            5457            5510     523.016E-03     513.190E-03
            5457            5511     382.247E-03     380.223E-03
            5457            5514     530.627E-03     539.900E-03
            5457            5515     406.150E-03     419.899E-03
            5458            5511     382.247E-03     380.223E-03
            5458            5512     289.703E-03     298.342E-03
            5458            5515     406.150E-03     419.899E-03
            5458            5516     322.217E-03     340.236E-03
            5459             718     292.190E-03     313.001E-03
            5459             719     252.875E-03     266.474E-03
            5459            5512     289.703E-03     298.342E-03
            5459            5516     322.217E-03     340.236E-03
            5460             602     731.318E-03     723.033E-03
            5460             603     676.475E-03     665.868E-03
            5460            5513     666.216E-03     665.237E-03
            5460            5517     618.548E-03     613.144E-03
            5461            5513     666.216E-03     665.237E-03
            5461            5514     530.627E-03     539.900E-03
            5461            5517     618.548E-03     613.144E-03
            5461            5518     508.889E-03     514.435E-03
            5462            5514     530.627E-03     539.900E-03
            5462            5515     406.150E-03     419.899E-03
            5462            5518     508.889E-03     514.435E-03
            5462            5519     411.099E-03     424.870E-03
            5463            5515     406.150E-03     419.899E-03
            5463            5516     322.217E-03     340.236E-03
            5463            5519     411.099E-03     424.870E-03
            5463            5520     339.022E-03     356.101E-03
            5464             717     312.927E-03     330.889E-03
            5464             718     292.190E-03     313.001E-03
            5464            5516     322.217E-03     340.236E-03
            5464            5520     339.022E-03     356.101E-03
            5465             603     676.475E-03     665.868E-03
            5465             604     637.259E-03     627.303E-03
            5465            5517     618.548E-03     613.144E-03
            5465            5521     583.959E-03     578.432E-03
            5466            5517     618.548E-03     613.144E-03
            5466            5518     508.889E-03     514.435E-03
            5466            5521     583.959E-03     578.432E-03
            5466            5522     483.740E-03     486.092E-03
            5467            5518     508.889E-03     514.435E-03
            5467            5519     411.099E-03     424.870E-03
            5467            5522     483.740E-03     486.092E-03
            5467            5523     401.338E-03     409.180E-03
            5468            5519     411.099E-03     424.870E-03
            5468            5520     339.022E-03     356.101E-03
            5468            5523     401.338E-03     409.180E-03
            5468            5524     343.413E-03     353.507E-03
            5469             716     320.902E-03     331.251E-03
            5469             717     312.927E-03     330.889E-03
            5469            5520     339.022E-03     356.101E-03
            5469            5524     343.413E-03     353.507E-03
            5470             604     637.259E-03     627.303E-03
            5470             605     595.389E-03     586.958E-03
            5470            5521     583.959E-03     578.432E-03
            5470            5525     548.198E-03     544.501E-03
            5471            5521     583.959E-03     578.432E-03
            5471            5522     483.740E-03     486.092E-03
            5471            5525     548.198E-03     544.501E-03
            5471            5526     461.243E-03     464.125E-03
            5472            5522     483.740E-03     486.092E-03
            5472            5523     401.338E-03     409.180E-03
            5472            5526     461.243E-03     464.125E-03
            5472            5527     389.365E-03     393.445E-03
            5473            5523     401.338E-03     409.180E-03
            5473            5524     343.413E-03     353.507E-03
            5473            5527     389.365E-03     393.445E-03
            5473            5528     339.524E-03     341.492E-03
            5474             715     321.726E-03     322.278E-03
            5474             716     320.902E-03     331.251E-03
            5474            5524     343.413E-03     353.507E-03
            5474            5528     339.524E-03     341.492E-03
            5475             605     595.389E-03     586.958E-03
            5475             606     554.360E-03     549.354E-03
            5475            5525     548.198E-03     544.501E-03
            5475            5529     513.221E-03     512.553E-03
            5476            5525     548.198E-03     544.501E-03
            5476            5526     461.243E-03     464.125E-03
            5476            5529     513.221E-03     512.553E-03
            5476            5530     438.412E-03     442.893E-03
            5477            5526     461.243E-03     464.125E-03
            5477            5527     389.365E-03     393.445E-03
            5477            5530     438.412E-03     442.893E-03
            5477            5531     377.941E-03     379.682E-03
            5478            5527     389.365E-03     393.445E-03
            5478            5528     339.524E-03     341.492E-03
            5478            5531     377.941E-03     379.682E-03
            5478            5532     333.984E-03     328.398E-03
            5479             714     316.779E-03     307.430E-03
            5479             715     321.726E-03     322.278E-03
            5479            5528     339.524E-03     341.492E-03
            5479            5532     333.984E-03     328.398E-03
            5480             606     554.360E-03     549.354E-03
            5480             607     510.571E-03     508.353E-03
            5480            5529     513.221E-03     512.553E-03
            5480            5533     477.846E-03     481.978E-03
            5481            5529     513.221E-03     512.553E-03
            5481            5530     438.412E-03     442.893E-03
            5481            5533     477.846E-03     481.978E-03
            5481            5534     418.523E-03     425.672E-03
            5482            5530     438.412E-03     442.893E-03
            5482            5531     377.941E-03     379.682E-03
            5482            5534     418.523E-03     425.672E-03
            5482            5535     367.091E-03     364.237E-03
            5483            5531     377.941E-03     379.682E-03
            5483            5532     333.984E-03     328.398E-03
            5483            5535     367.091E-03     364.237E-03
            5483            5536     326.803E-03     313.537E-03
            5484             713     311.308E-03     294.301E-03
            5484             714     316.779E-03     307.430E-03
            5484            5532     333.984E-03     328.398E-03
            5484            5536     326.803E-03     313.537E-03
            5485             607     510.571E-03     508.353E-03
            5485             608     460.916E-03     469.078E-03
            5485            5533     477.846E-03     481.978E-03
            5485            5537     440.763E-03     449.772E-03
            5486            5533     477.846E-03     481.978E-03
            5486            5534     418.523E-03     425.672E-03
            5486            5537     440.763E-03     449.772E-03
            5486            5538     399.292E-03     400.217E-03
            5487            5534     418.523E-03     425.672E-03
            5487            5535     367.091E-03     364.237E-03
            5487            5538     399.292E-03     400.217E-03
            5487            5539     356.143E-03     344.105E-03
            5488            5535     367.091E-03     364.237E-03
            5488            5536     326.803E-03     313.537E-03
            5488            5539     356.143E-03     344.105E-03
            5488            5540     321.110E-03     302.809E-03
            5489             712     307.892E-03     287.317E-03
            5489             713     311.308E-03     294.301E-03
            5489            5536     326.803E-03     313.537E-03
            5489            5540     321.110E-03     302.809E-03
            5490             608     460.916E-03     469.078E-03
            5490             609     395.143E-03     384.938E-03
            5490            5537     440.763E-03     449.772E-03
            5490            5541     393.285E-03     377.825E-03
            5491            5537     440.763E-03     449.772E-03
            5491            5538     399.292E-03     400.217E-03
            5491            5541     393.285E-03     377.825E-03
            5491            5542     376.343E-03     355.074E-03
            5492            5538     399.292E-03     400.217E-03
            5492            5539     356.143E-03     344.105E-03
            5492            5542     376.343E-03     355.074E-03
            5492            5543     346.888E-03     327.054E-03
            5493            5539     356.143E-03     344.105E-03
            5493            5540     321.110E-03     302.809E-03
            5493            5543     346.888E-03     327.054E-03
            5493            5544     323.595E-03     307.045E-03
            5494             711     314.678E-03     299.356E-03
            5494             712     307.892E-03     287.317E-03
            5494            5540     321.110E-03     302.809E-03
            5494            5544     323.595E-03     307.045E-03
            5495             609     395.143E-03     384.938E-03
            5495             610     465.908E-03     432.789E-03
            5495            5541     393.285E-03     377.825E-03
            5495            5545     429.360E-03     398.474E-03
            5496            5541     393.285E-03     377.825E-03
            5496            5542     376.343E-03     355.074E-03
            5496            5545     429.360E-03     398.474E-03
            5496            5546     365.367E-03     342.377E-03
            5497            5542     376.343E-03     355.074E-03
            5497            5543     346.888E-03     327.054E-03
            5497            5546     365.367E-03     342.377E-03
            5497            5547     320.733E-03     307.930E-03
            5498            5543     346.888E-03     327.054E-03
            5498            5544     323.595E-03     307.045E-03
            5498            5547     320.733E-03     307.930E-03
            5498            5548     293.779E-03     288.158E-03
            5499             710     284.086E-03     281.118E-03
            5499             711     314.678E-03     299.356E-03
            5499            5544     323.595E-03     307.045E-03
            5499            5548     293.779E-03     288.158E-03
            5500             610     465.908E-03     432.789E-03
            5500             611     535.249E-03     518.685E-03
            5500            5545     429.360E-03     398.474E-03
            5500            5549     478.417E-03     468.465E-03
            5501            5545     429.360E-03     398.474E-03
            5501            5546     365.367E-03     342.377E-03
            5501            5549     478.417E-03     468.465E-03
            5501            5550     376.677E-03     374.677E-03
            5502            5546     365.367E-03     342.377E-03
            5502            5547     320.733E-03     307.930E-03
            5502            5550     376.677E-03     374.677E-03
            5502            5551     309.684E-03     311.402E-03
            5503            5547     320.733E-03     307.930E-03
            5503            5548     293.779E-03     288.158E-03
            5503            5551     309.684E-03     311.402E-03
            5503            5552     274.981E-03     280.558E-03
            5504             709     262.516E-03     269.579E-03
            5504             710     284.086E-03     281.118E-03
            5504            5548     293.779E-03     288.158E-03
            5504            5552     274.981E-03     280.558E-03
            5505             611     535.249E-03     518.685E-03
            5505             612     460.243E-03     455.053E-03
            5505            5549     478.417E-03     468.465E-03
            5505            5553     434.160E-03     432.308E-03
            5506            5549     478.417E-03     468.465E-03
            5506            5550     376.677E-03     374.677E-03
            5506            5553     434.160E-03     432.308E-03
            5506            5554     377.983E-03     382.218E-03
            5507            5550     376.677E-03     374.677E-03
            5507            5551     309.684E-03     311.402E-03
            5507            5554     377.983E-03     382.218E-03
            5507            5555     327.680E-03     335.439E-03
            5508            5551     309.684E-03     311.402E-03
            5508            5552     274.981E-03     280.558E-03
            5508            5555     327.680E-03     335.439E-03
            5508            5556     298.966E-03     308.460E-03
            5509             708     290.620E-03     301.077E-03
            5509             709     262.516E-03     269.579E-03
            5509            5552     274.981E-03     280.558E-03
            5509            5556     298.966E-03     308.460E-03
            5510             612     460.243E-03     455.053E-03
            5510             613     409.078E-03     403.511E-03
            5510            5553     434.160E-03     432.308E-03
            5510            5557     390.092E-03     386.040E-03
            5511            5553     434.160E-03     432.308E-03
            5511            5554     377.983E-03     382.218E-03
            5511            5557     390.092E-03     386.040E-03
            5511            5558     357.305E-03     358.166E-03
            5512            5554     377.983E-03     382.218E-03
            5512            5555     327.680E-03     335.439E-03
            5512            5558     357.305E-03     358.166E-03
            5512            5559     331.043E-03     337.239E-03
            5513            5555     327.680E-03     335.439E-03
            5513            5556     298.966E-03     308.460E-03
            5513            5559     331.043E-03     337.239E-03
            5513            5560     312.774E-03     321.439E-03
            5514             707     307.103E-03     316.325E-03
            5514             708     290.620E-03     301.077E-03
            5514            5556     298.966E-03     308.460E-03
            5514            5560     312.774E-03     321.439E-03
            5515             613     409.078E-03     403.511E-03
            5515             614     371.835E-03     366.186E-03
            5515            5557     390.092E-03     386.040E-03
            5515            5561     358.306E-03     354.577E-03
            5516            5557     390.092E-03     386.040E-03
            5516            5558     357.305E-03     358.166E-03
            5516            5561     358.306E-03     354.577E-03
            5516            5562     336.191E-03     335.877E-03
            5517            5558     357.305E-03     358.166E-03
            5517            5559     331.043E-03     337.239E-03
            5517            5562     336.191E-03     335.877E-03
            5517            5563     323.945E-03     326.830E-03
            5518            5559     331.043E-03     337.239E-03
            5518            5560     312.774E-03     321.439E-03
            5518            5563     323.945E-03     326.830E-03
            5518            5564     317.518E-03     322.767E-03
            5519             706     314.878E-03     320.806E-03
            5519             707     307.103E-03     316.325E-03
            5519            5560     312.774E-03     321.439E-03
            5519            5564     317.518E-03     322.767E-03
            5520             614     371.835E-03     366.186E-03
            5520             615     334.270E-03     330.108E-03
            5520            5561     358.306E-03     354.577E-03
            5520            5565     327.144E-03     324.575E-03
            5521            5561     358.306E-03     354.577E-03
            5521            5562     336.191E-03     335.877E-03
            5521            5565     327.144E-03     324.575E-03
            5521            5566     318.219E-03     318.309E-03
            5522            5562     336.191E-03     335.877E-03
            5522            5563     323.945E-03     326.830E-03
            5522            5566     318.219E-03     318.309E-03
            5522            5567     315.970E-03     317.290E-03
            5523            5563     323.945E-03     326.830E-03
            5523            5564     317.518E-03     322.767E-03
            5523            5567     315.970E-03     317.290E-03
            5523            5568     316.281E-03     317.974E-03
            5524             705     317.152E-03     319.088E-03
            5524             706     314.878E-03     320.806E-03
            5524            5564     317.518E-03     322.767E-03
            5524            5568     316.281E-03     317.974E-03
            5525             615     334.270E-03     330.108E-03
            5525             616     299.732E-03     296.814E-03
            5525            5565     327.144E-03     324.575E-03
            5525            5569     298.810E-03     297.744E-03
            5526            5565     327.144E-03     324.575E-03
            5526            5566     318.219E-03     318.309E-03
            5526            5569     298.810E-03     297.744E-03
            5526            5570     301.379E-03     302.155E-03
            5527            5566     318.219E-03     318.309E-03
            5527            5567     315.970E-03     317.290E-03
            5527            5570     301.379E-03     302.155E-03
            5527            5571     308.412E-03     308.518E-03
            5528            5567     315.970E-03     317.290E-03
            5528            5568     316.281E-03     317.974E-03
            5528            5571     308.412E-03     308.518E-03
            5528            5572     313.628E-03     312.316E-03
            5529             704     315.390E-03     313.356E-03
            5529             705     317.152E-03     319.088E-03
            5529            5568     316.281E-03     317.974E-03
            5529            5572     313.628E-03     312.316E-03
            5530             616     299.732E-03     296.814E-03
            5530             617     266.087E-03     265.958E-03
            5530            5569     298.810E-03     297.744E-03
            5530            5573     272.813E-03     274.059E-03
            5531            5569     298.810E-03     297.744E-03
            5531            5570     301.379E-03     302.155E-03
            5531            5573     272.813E-03     274.059E-03
            5531            5574     287.849E-03     289.484E-03
            5532            5570     301.379E-03     302.155E-03
            5532            5571     308.412E-03     308.518E-03
            5532            5574     287.849E-03     289.484E-03
            5532            5575     301.802E-03     300.428E-03
            5533            5571     308.412E-03     308.518E-03
            5533            5572     313.628E-03     312.316E-03
            5533            5575     301.802E-03     300.428E-03
            5533            5576     309.472E-03     304.892E-03
            5534             703     311.583E-03     305.835E-03
            5534             704     315.390E-03     313.356E-03
            5534            5572     313.628E-03     312.316E-03
            5534            5576     309.472E-03     304.892E-03
            5535             617     266.087E-03     265.958E-03
            5535             618     232.899E-03     236.516E-03
            5535            5573     272.813E-03     274.059E-03
            5535            5577     248.874E-03     253.284E-03
            5536            5573     272.813E-03     274.059E-03
            5536            5574     287.849E-03     289.484E-03
            5536            5577     248.874E-03     253.284E-03
            5536            5578     278.198E-03     280.086E-03
            5537            5574     287.849E-03     289.484E-03
            5537            5575     301.802E-03     300.428E-03
            5537            5578     278.198E-03     280.086E-03
            5537            5579     296.744E-03     292.699E-03
            5538            5575     301.802E-03     300.428E-03
            5538            5576     309.472E-03     304.892E-03
            5538            5579     296.744E-03     292.699E-03
            5538            5580     303.392E-03     295.613E-03
            5539             702     304.912E-03     296.023E-03
            5539             703     311.583E-03     305.835E-03
            5539            5576     309.472E-03     304.892E-03
            5539            5580     303.392E-03     295.613E-03
            5540             618     232.899E-03     236.516E-03
            5540             619     201.285E-03     212.009E-03
            5540            5577     248.874E-03     253.284E-03
            5540            5581     230.254E-03     236.934E-03
            5541            5577     248.874E-03     253.284E-03
            5541            5578     278.198E-03     280.086E-03
            5541            5581     230.254E-03     236.934E-03
            5541            5582     272.820E-03     271.201E-03
            5542            5578     278.198E-03     280.086E-03
            5542            5579     296.744E-03     292.699E-03
            5542            5582     272.820E-03     271.201E-03
            5542            5583     290.097E-03     282.802E-03
            5543            5579     296.744E-03     292.699E-03
            5543            5580     303.392E-03     295.613E-03
            5543            5583     290.097E-03     282.802E-03
            5543            5584     295.332E-03     285.958E-03
            5544             701     296.947E-03     286.885E-03
            5544             702     304.912E-03     296.023E-03
            5544            5580     303.392E-03     295.613E-03
            5544            5584     295.332E-03     285.958E-03
            5545             619     201.285E-03     212.009E-03
            5545             620     175.915E-03     184.867E-03
            5545            5581     230.254E-03     236.934E-03
            5545            5585     214.866E-03     216.536E-03
            5546            5581     230.254E-03     236.934E-03
            5546            5582     272.820E-03     271.201E-03
            5546            5585     214.866E-03     216.536E-03
            5546            5586     264.473E-03     257.800E-03
            5547            5582     272.820E-03     271.201E-03
            5547            5583     290.097E-03     282.802E-03
            5547            5586     264.473E-03     257.800E-03
            5547            5587     281.086E-03     273.519E-03
            5548            5583     290.097E-03     282.802E-03
            5548            5584     295.332E-03     285.958E-03
            5548            5587     281.086E-03     273.519E-03
            5548            5588     289.178E-03     281.915E-03
            5549             700     291.361E-03     284.195E-03
            5549             701     296.947E-03     286.885E-03
            5549            5584     295.332E-03     285.958E-03
            5549            5588     289.178E-03     281.915E-03
            5550             620     175.915E-03     184.867E-03
            5550             621     215.622E-03     213.735E-03
            5550            5585     214.866E-03     216.536E-03
            5550            5589     236.291E-03     233.619E-03
            5551            5585     214.866E-03     216.536E-03
            5551            5586     264.473E-03     257.800E-03
            5551            5589     236.291E-03     233.619E-03
            5551            5590     260.957E-03     257.481E-03
            5552            5586     264.473E-03     257.800E-03
            5552            5587     281.086E-03     273.519E-03
            5552            5590     260.957E-03     257.481E-03
            5552            5591     271.658E-03     268.540E-03
            5553            5587     281.086E-03     273.519E-03
            5553            5588     289.178E-03     281.915E-03
            5553            5591     271.658E-03     268.540E-03
            5553            5592     278.599E-03     276.139E-03
            5554             699     278.889E-03     276.713E-03
            5554             700     291.361E-03     284.195E-03
            5554            5588     289.178E-03     281.915E-03
            5554            5592     278.599E-03     276.139E-03
            5555             621     215.622E-03     213.735E-03
            5555             622     235.214E-03     232.746E-03
            5555            5589     236.291E-03     233.619E-03
            5555            5593     252.333E-03     251.970E-03
            5556            5589     236.291E-03     233.619E-03
            5556            5590     260.957E-03     257.481E-03
            5556            5593     252.333E-03     251.970E-03
            5556            5594     270.786E-03     272.008E-03
            5557            5590     260.957E-03     257.481E-03
            5557            5591     271.658E-03     268.540E-03
            5557            5594     270.786E-03     272.008E-03
            5557            5595     272.922E-03     273.409E-03
            5558            5591     271.658E-03     268.540E-03
            5558            5592     278.599E-03     276.139E-03
            5558            5595     272.922E-03     273.409E-03
            5558            5596     272.532E-03     272.669E-03
            5559             698     271.399E-03     271.412E-03
            5559             699     278.889E-03     276.713E-03
            5559            5592     278.599E-03     276.139E-03
            5559            5596     272.532E-03     272.669E-03
            5560             622     235.214E-03     232.746E-03
            5560             623     191.511E-03     193.497E-03
            5560            5593     252.333E-03     251.970E-03
            5560            5597     230.476E-03     230.844E-03
            5561            5593     252.333E-03     251.970E-03
            5561            5594     270.786E-03     272.008E-03
            5561            5597     230.476E-03     230.844E-03
            5561            5598     276.178E-03     275.923E-03
            5562            5594     270.786E-03     272.008E-03
            5562            5595     272.922E-03     273.409E-03
            5562            5598     276.178E-03     275.923E-03
            5562            5599     280.002E-03     280.423E-03
            5563            5595     272.922E-03     273.409E-03
            5563            5596     272.532E-03     272.669E-03
            5563            5599     280.002E-03     280.423E-03
            5563            5600     276.714E-03     276.802E-03
            5564             697     276.385E-03     276.454E-03
            5564             698     271.399E-03     271.412E-03
            5564            5596     272.532E-03     272.669E-03
            5564            5600     276.714E-03     276.802E-03
            5565             623     191.511E-03     193.497E-03
            5565             624     189.084E-03     190.654E-03
            5565            5597     230.476E-03     230.844E-03
            5565            5601     224.292E-03     224.362E-03
            5566            5597     230.476E-03     230.844E-03
            5566            5598     276.178E-03     275.923E-03
            5566            5601     224.292E-03     224.362E-03
            5566            5602     267.213E-03     266.169E-03
            5567            5598     276.178E-03     275.923E-03
            5567            5599     280.002E-03     280.423E-03
            5567            5602     267.213E-03     266.169E-03
            5567            5603     277.340E-03     276.995E-03
            5568            5599     280.002E-03     280.423E-03
            5568            5600     276.714E-03     276.802E-03
            5568            5603     277.340E-03     276.995E-03
            5568            5604     279.400E-03     279.443E-03
            5569             696     279.065E-03     279.177E-03
            5569             697     276.385E-03     276.454E-03
            5569            5600     276.714E-03     276.802E-03
            5569            5604     279.400E-03     279.443E-03
            5570              26     99.9052E-03     99.6239E-03
            5570             624     189.084E-03     190.654E-03
            5570             839     113.446E-03     113.421E-03
            5570            5601     224.292E-03     224.362E-03
            5571             839     113.446E-03     113.421E-03
            5571             840     129.954E-03     129.702E-03
            5571            5601     224.292E-03     224.362E-03
            5571            5602     267.213E-03     266.169E-03
            5572             840     129.954E-03     129.702E-03
            5572             841     136.843E-03     136.477E-03
            5572            5602     267.213E-03     266.169E-03
            5572            5603     277.340E-03     276.995E-03
            5573             841     136.843E-03     136.477E-03
            5573             842     140.440E-03     140.470E-03
            5573            5603     277.340E-03     276.995E-03
            5573            5604     279.400E-03     279.443E-03
            5574              29     140.111E-03     140.165E-03
            5574             696     279.065E-03     279.177E-03
            5574             842     140.440E-03     140.470E-03
            5574            5604     279.400E-03     279.443E-03


  Minimum                            104.888E-06     107.988E-06
      At Element                            1741            1741
            Node                             187             187

  Maximum                                1.06757         1.03030
      At Element                            3730            3730
            Node                             560             560

           Total                     1.36121E+03     1.35072E+03


Field Output reported at element nodes for region: DO228-1.Region_3
   Computation algorithm: EXTRAPOLATE_COMPUTE_AVERAGE
   Averaged at nodes
   Averaging regions: ODB_REGIONS

   Element Label      Node Label         S.Mises         S.Mises
                                          @Loc 1          @Loc 2
-----------------------------------------------------------------
               1               1     24.7369E-03     28.2816E-03
               1              36     25.8578E-03     27.4666E-03
               1             167     52.9296E-03     52.9718E-03
               1             905     53.0774E-03     52.8345E-03
               2              36     25.8578E-03     27.4666E-03
               2              37     27.3393E-03     26.5014E-03
               2             905     53.0774E-03     52.8345E-03
               2             906     53.4367E-03     52.5698E-03
               3              37     27.3393E-03     26.5014E-03
               3              38     27.7145E-03     26.4829E-03
               3             906     53.4367E-03     52.5698E-03
               3             907     53.8876E-03     52.4518E-03
               4              38     27.7145E-03     26.4829E-03
               4              39     27.9704E-03     26.5769E-03
               4             907     53.8876E-03     52.4518E-03
               4             908     54.4496E-03     52.5139E-03
               5              39     27.9704E-03     26.5769E-03
               5              40     28.3791E-03     26.5385E-03
               5             908     54.4496E-03     52.5139E-03
               5             909     55.0925E-03     52.6789E-03
               6              40     28.3791E-03     26.5385E-03
               6              41     28.7951E-03     26.6287E-03
               6             909     55.0925E-03     52.6789E-03
               6             910     55.8221E-03     52.9585E-03
               7              41     28.7951E-03     26.6287E-03
               7              42     29.2089E-03     26.7105E-03
               7             910     55.8221E-03     52.9585E-03
               7             911     56.6091E-03     53.3063E-03
               8              42     29.2089E-03     26.7105E-03
               8              43     29.7117E-03     26.8920E-03
               8             911     56.6091E-03     53.3063E-03
               8             912     57.4804E-03     53.7440E-03
               9              43     29.7117E-03     26.8920E-03
               9              44     30.1194E-03     26.9824E-03
               9             912     57.4804E-03     53.7440E-03
               9             913     58.3562E-03     54.2146E-03
              10              44     30.1194E-03     26.9824E-03
              10              45     30.7137E-03     27.2848E-03
              10             913     58.3562E-03     54.2146E-03
              10             914     59.3410E-03     54.7987E-03
              11              45     30.7137E-03     27.2848E-03
              11              46     30.9738E-03     27.2577E-03
              11             914     59.3410E-03     54.7987E-03
              11             915     60.3406E-03     55.3672E-03
              12              46     30.9738E-03     27.2577E-03
              12              47     31.7059E-03     27.4478E-03
              12             915     60.3406E-03     55.3672E-03
              12             916     61.5161E-03     56.1841E-03
              13              47     31.7059E-03     27.4478E-03
              13              48     30.3934E-03     26.1748E-03
              13             916     61.5161E-03     56.1841E-03
              13             917     62.1540E-03     56.0578E-03
              14              48     30.3934E-03     26.1748E-03
              14              49     26.9021E-03     22.1281E-03
              14             917     62.1540E-03     56.0578E-03
              14             918     56.9900E-03     50.8467E-03
              15              49     26.9021E-03     22.1281E-03
              15              50     16.5153E-03     19.0089E-03
              15             918     56.9900E-03     50.8467E-03
              15             919     32.8401E-03     37.7590E-03
              16               2     7.31092E-03     18.0435E-03
              16              50     16.5153E-03     19.0089E-03
              16              51     13.7137E-03     29.1371E-03
              16             919     32.8401E-03     37.7590E-03
              17             166     55.6977E-03     48.1625E-03
              17             167     52.9296E-03     52.9718E-03
              17             905     53.0774E-03     52.8345E-03
              17             920     53.7135E-03     49.9210E-03
              18             905     53.0774E-03     52.8345E-03
              18             906     53.4367E-03     52.5698E-03
              18             920     53.7135E-03     49.9210E-03
              18             921     51.3109E-03     51.8074E-03
              19             906     53.4367E-03     52.5698E-03
              19             907     53.8876E-03     52.4518E-03
              19             921     51.3109E-03     51.8074E-03
              19             922     51.3150E-03     51.7044E-03
              20             907     53.8876E-03     52.4518E-03
              20             908     54.4496E-03     52.5139E-03
              20             922     51.3150E-03     51.7044E-03
              20             923     51.8008E-03     51.7716E-03
              21             908     54.4496E-03     52.5139E-03
              21             909     55.0925E-03     52.6789E-03
              21             923     51.8008E-03     51.7716E-03
              21             924     52.1360E-03     52.3284E-03
              22             909     55.0925E-03     52.6789E-03
              22             910     55.8221E-03     52.9585E-03
              22             924     52.1360E-03     52.3284E-03
              22             925     52.6703E-03     52.8507E-03
              23             910     55.8221E-03     52.9585E-03
              23             911     56.6091E-03     53.3063E-03
              23             925     52.6703E-03     52.8507E-03
              23             926     53.3172E-03     53.5043E-03
              24             911     56.6091E-03     53.3063E-03
              24             912     57.4804E-03     53.7440E-03
              24             926     53.3172E-03     53.5043E-03
              24             927     53.9940E-03     54.2102E-03
              25             912     57.4804E-03     53.7440E-03
              25             913     58.3562E-03     54.2146E-03
              25             927     53.9940E-03     54.2102E-03
              25             928     54.8443E-03     55.0726E-03
              26             913     58.3562E-03     54.2146E-03
              26             914     59.3410E-03     54.7987E-03
              26             928     54.8443E-03     55.0726E-03
              26             929     55.6846E-03     55.9193E-03
              27             914     59.3410E-03     54.7987E-03
              27             915     60.3406E-03     55.3672E-03
              27             929     55.6846E-03     55.9193E-03
              27             930     56.9875E-03     57.1771E-03
              28             915     60.3406E-03     55.3672E-03
              28             916     61.5161E-03     56.1841E-03
              28             930     56.9875E-03     57.1771E-03
              28             931     58.2860E-03     58.7481E-03
              29             916     61.5161E-03     56.1841E-03
              29             917     62.1540E-03     56.0578E-03
              29             931     58.2860E-03     58.7481E-03
              29             932     61.4337E-03     60.9591E-03
              30             917     62.1540E-03     56.0578E-03
              30             918     56.9900E-03     50.8467E-03
              30             932     61.4337E-03     60.9591E-03
              30             933     60.1427E-03     60.9417E-03
              31             918     56.9900E-03     50.8467E-03
              31             919     32.8401E-03     37.7590E-03
              31             933     60.1427E-03     60.9417E-03
              31             934     46.5751E-03     47.5696E-03
              32              51     13.7137E-03     29.1371E-03
              32              52     37.1685E-03     35.8128E-03
              32             919     32.8401E-03     37.7590E-03
              32             934     46.5751E-03     47.5696E-03
              33             165     50.2353E-03     49.7700E-03
              33             166     55.6977E-03     48.1625E-03
              33             920     53.7135E-03     49.9210E-03
              33             935     50.0155E-03     50.1979E-03
              34             920     53.7135E-03     49.9210E-03
              34             921     51.3109E-03     51.8074E-03
              34             935     50.0155E-03     50.1979E-03
              34             936     49.7054E-03     50.8626E-03
              35             921     51.3109E-03     51.8074E-03
              35             922     51.3150E-03     51.7044E-03
              35             936     49.7054E-03     50.8626E-03
              35             937     49.5837E-03     51.3261E-03
              36             922     51.3150E-03     51.7044E-03
              36             923     51.8008E-03     51.7716E-03
              36             937     49.5837E-03     51.3261E-03
              36             938     49.6138E-03     51.9063E-03
              37             923     51.8008E-03     51.7716E-03
              37             924     52.1360E-03     52.3284E-03
              37             938     49.6138E-03     51.9063E-03
              37             939     49.7833E-03     52.6141E-03
              38             924     52.1360E-03     52.3284E-03
              38             925     52.6703E-03     52.8507E-03
              38             939     49.7833E-03     52.6141E-03
              38             940     50.0917E-03     53.4330E-03
              39             925     52.6703E-03     52.8507E-03
              39             926     53.3172E-03     53.5043E-03
              39             940     50.0917E-03     53.4330E-03
              39             941     50.4889E-03     54.3236E-03
              40             926     53.3172E-03     53.5043E-03
              40             927     53.9940E-03     54.2102E-03
              40             941     50.4889E-03     54.3236E-03
              40             942     51.0517E-03     55.3608E-03
              41             927     53.9940E-03     54.2102E-03
              41             928     54.8443E-03     55.0726E-03
              41             942     51.0517E-03     55.3608E-03
              41             943     51.6693E-03     56.4228E-03
              42             928     54.8443E-03     55.0726E-03
              42             929     55.6846E-03     55.9193E-03
              42             943     51.6693E-03     56.4228E-03
              42             944     52.5940E-03     57.7341E-03
              43             929     55.6846E-03     55.9193E-03
              43             930     56.9875E-03     57.1771E-03
              43             944     52.5940E-03     57.7341E-03
              43             945     53.4719E-03     59.0189E-03
              44             930     56.9875E-03     57.1771E-03
              44             931     58.2860E-03     58.7481E-03
              44             945     53.4719E-03     59.0189E-03
              44             946     55.0512E-03     60.7436E-03
              45             931     58.2860E-03     58.7481E-03
              45             932     61.4337E-03     60.9591E-03
              45             946     55.0512E-03     60.7436E-03
              45             947     55.7181E-03     61.9475E-03
              46             932     61.4337E-03     60.9591E-03
              46             933     60.1427E-03     60.9417E-03
              46             947     55.7181E-03     61.9475E-03
              46             948     55.9338E-03     63.5958E-03
              47             933     60.1427E-03     60.9417E-03
              47             934     46.5751E-03     47.5696E-03
              47             948     55.9338E-03     63.5958E-03
              47             949     64.6564E-03     71.7139E-03
              48              52     37.1685E-03     35.8128E-03
              48              53     72.4560E-03     78.0869E-03
              48             934     46.5751E-03     47.5696E-03
              48             949     64.6564E-03     71.7139E-03
              49             164     59.6440E-03     70.1423E-03
              49             165     50.2353E-03     49.7700E-03
              49             935     50.0155E-03     50.1979E-03
              49             950     62.6509E-03     68.6273E-03
              50             935     50.0155E-03     50.1979E-03
              50             936     49.7054E-03     50.8626E-03
              50             950     62.6509E-03     68.6273E-03
              50             951     66.5926E-03     67.1270E-03
              51             936     49.7054E-03     50.8626E-03
              51             937     49.5837E-03     51.3261E-03
              51             951     66.5926E-03     67.1270E-03
              51             952     68.0984E-03     68.0944E-03
              52             937     49.5837E-03     51.3261E-03
              52             938     49.6138E-03     51.9063E-03
              52             952     68.0984E-03     68.0944E-03
              52             953     69.7365E-03     69.8887E-03
              53             938     49.6138E-03     51.9063E-03
              53             939     49.7833E-03     52.6141E-03
              53             953     69.7365E-03     69.8887E-03
              53             954     71.7067E-03     71.7186E-03
              54             939     49.7833E-03     52.6141E-03
              54             940     50.0917E-03     53.4330E-03
              54             954     71.7067E-03     71.7186E-03
              54             955     73.8612E-03     73.9439E-03
              55             940     50.0917E-03     53.4330E-03
              55             941     50.4889E-03     54.3236E-03
              55             955     73.8612E-03     73.9439E-03
              55             956     76.0473E-03     76.1673E-03
              56             941     50.4889E-03     54.3236E-03
              56             942     51.0517E-03     55.3608E-03
              56             956     76.0473E-03     76.1673E-03
              56             957     78.2912E-03     78.3676E-03
              57             942     51.0517E-03     55.3608E-03
              57             943     51.6693E-03     56.4228E-03
              57             957     78.2912E-03     78.3676E-03
              57             958     80.2088E-03     80.2310E-03
              58             943     51.6693E-03     56.4228E-03
              58             944     52.5940E-03     57.7341E-03
              58             958     80.2088E-03     80.2310E-03
              58             959     81.9131E-03     81.6647E-03
              59             944     52.5940E-03     57.7341E-03
              59             945     53.4719E-03     59.0189E-03
              59             959     81.9131E-03     81.6647E-03
              59             960     82.6376E-03     82.0746E-03
              60             945     53.4719E-03     59.0189E-03
              60             946     55.0512E-03     60.7436E-03
              60             960     82.6376E-03     82.0746E-03
              60             961     82.6890E-03     81.2905E-03
              61             946     55.0512E-03     60.7436E-03
              61             947     55.7181E-03     61.9475E-03
              61             961     82.6890E-03     81.2905E-03
              61             962     79.5195E-03     77.6824E-03
              62             947     55.7181E-03     61.9475E-03
              62             948     55.9338E-03     63.5958E-03
              62             962     79.5195E-03     77.6824E-03
              62             963     74.1962E-03     71.6080E-03
              63             948     55.9338E-03     63.5958E-03
              63             949     64.6564E-03     71.7139E-03
              63             963     74.1962E-03     71.6080E-03
              63             964     70.3631E-03     71.1140E-03
              64              53     72.4560E-03     78.0869E-03
              64              54     68.2609E-03     73.4955E-03
              64             949     64.6564E-03     71.7139E-03
              64             964     70.3631E-03     71.1140E-03
              65             163     76.1642E-03     84.4358E-03
              65             164     59.6440E-03     70.1423E-03
              65             950     62.6509E-03     68.6273E-03
              65             965     77.3448E-03     83.6009E-03
              66             950     62.6509E-03     68.6273E-03
              66             951     66.5926E-03     67.1270E-03
              66             965     77.3448E-03     83.6009E-03
              66             966     80.5166E-03     82.4315E-03
              67             951     66.5926E-03     67.1270E-03
              67             952     68.0984E-03     68.0944E-03
              67             966     80.5166E-03     82.4315E-03
              67             967     84.4916E-03     83.2194E-03
              68             952     68.0984E-03     68.0944E-03
              68             953     69.7365E-03     69.8887E-03
              68             967     84.4916E-03     83.2194E-03
              68             968     88.4765E-03     85.8680E-03
              69             953     69.7365E-03     69.8887E-03
              69             954     71.7067E-03     71.7186E-03
              69             968     88.4765E-03     85.8680E-03
              69             969     92.8130E-03     89.2849E-03
              70             954     71.7067E-03     71.7186E-03
              70             955     73.8612E-03     73.9439E-03
              70             969     92.8130E-03     89.2849E-03
              70             970     97.4915E-03     93.2664E-03
              71             955     73.8612E-03     73.9439E-03
              71             956     76.0473E-03     76.1673E-03
              71             970     97.4915E-03     93.2664E-03
              71             971     102.315E-03     97.4599E-03
              72             956     76.0473E-03     76.1673E-03
              72             957     78.2912E-03     78.3676E-03
              72             971     102.315E-03     97.4599E-03
              72             972     107.053E-03     101.586E-03
              73             957     78.2912E-03     78.3676E-03
              73             958     80.2088E-03     80.2310E-03
              73             972     107.053E-03     101.586E-03
              73             973     111.401E-03     105.228E-03
              74             958     80.2088E-03     80.2310E-03
              74             959     81.9131E-03     81.6647E-03
              74             973     111.401E-03     105.228E-03
              74             974     114.865E-03     107.939E-03
              75             959     81.9131E-03     81.6647E-03
              75             960     82.6376E-03     82.0746E-03
              75             974     114.865E-03     107.939E-03
              75             975     116.865E-03     109.021E-03
              76             960     82.6376E-03     82.0746E-03
              76             961     82.6890E-03     81.2905E-03
              76             975     116.865E-03     109.021E-03
              76             976     116.359E-03     107.492E-03
              77             961     82.6890E-03     81.2905E-03
              77             962     79.5195E-03     77.6824E-03
              77             976     116.359E-03     107.492E-03
              77             977     111.931E-03     102.055E-03
              78             962     79.5195E-03     77.6824E-03
              78             963     74.1962E-03     71.6080E-03
              78             977     111.931E-03     102.055E-03
              78             978     99.9393E-03     89.5627E-03
              79             963     74.1962E-03     71.6080E-03
              79             964     70.3631E-03     71.1140E-03
              79             978     99.9393E-03     89.5627E-03
              79             979     78.5045E-03     70.6191E-03
              80              54     68.2609E-03     73.4955E-03
              80              55     65.7659E-03     60.2485E-03
              80             964     70.3631E-03     71.1140E-03
              80             979     78.5045E-03     70.6191E-03
              81             162     75.4644E-03     74.3026E-03
              81             163     76.1642E-03     84.4358E-03
              81             965     77.3448E-03     83.6009E-03
              81             980     74.8152E-03     75.9842E-03
              82             965     77.3448E-03     83.6009E-03
              82             966     80.5166E-03     82.4315E-03
              82             980     74.8152E-03     75.9842E-03
              82             981     75.5876E-03     78.1602E-03
              83             966     80.5166E-03     82.4315E-03
              83             967     84.4916E-03     83.2194E-03
              83             981     75.5876E-03     78.1602E-03
              83             982     79.3639E-03     79.7307E-03
              84             967     84.4916E-03     83.2194E-03
              84             968     88.4765E-03     85.8680E-03
              84             982     79.3639E-03     79.7307E-03
              84             983     84.1775E-03     82.7861E-03
              85             968     88.4765E-03     85.8680E-03
              85             969     92.8130E-03     89.2849E-03
              85             983     84.1775E-03     82.7861E-03
              85             984     89.4174E-03     87.1237E-03
              86             969     92.8130E-03     89.2849E-03
              86             970     97.4915E-03     93.2664E-03
              86             984     89.4174E-03     87.1237E-03
              86             985     95.1898E-03     92.2146E-03
              87             970     97.4915E-03     93.2664E-03
              87             971     102.315E-03     97.4599E-03
              87             985     95.1898E-03     92.2146E-03
              87             986     101.274E-03     97.8483E-03
              88             971     102.315E-03     97.4599E-03
              88             972     107.053E-03     101.586E-03
              88             986     101.274E-03     97.8483E-03
              88             987     107.525E-03     103.675E-03
              89             972     107.053E-03     101.586E-03
              89             973     111.401E-03     105.228E-03
              89             987     107.525E-03     103.675E-03
              89             988     113.553E-03     109.388E-03
              90             973     111.401E-03     105.228E-03
              90             974     114.865E-03     107.939E-03
              90             988     113.553E-03     109.388E-03
              90             989     118.919E-03     114.445E-03
              91             974     114.865E-03     107.939E-03
              91             975     116.865E-03     109.021E-03
              91             989     118.919E-03     114.445E-03
              91             990     122.821E-03     118.230E-03
              92             975     116.865E-03     109.021E-03
              92             976     116.359E-03     107.492E-03
              92             990     122.821E-03     118.230E-03
              92             991     123.899E-03     119.537E-03
              93             976     116.359E-03     107.492E-03
              93             977     111.931E-03     102.055E-03
              93             991     123.899E-03     119.537E-03
              93             992     120.541E-03     116.982E-03
              94             977     111.931E-03     102.055E-03
              94             978     99.9393E-03     89.5627E-03
              94             992     120.541E-03     116.982E-03
              94             993     108.281E-03     107.272E-03
              95             978     99.9393E-03     89.5627E-03
              95             979     78.5045E-03     70.6191E-03
              95             993     108.281E-03     107.272E-03
              95             994     97.2801E-03     96.8675E-03
              96              55     65.7659E-03     60.2485E-03
              96              56     95.5094E-03     93.8219E-03
              96             979     78.5045E-03     70.6191E-03
              96             994     97.2801E-03     96.8675E-03
              97             161     70.1227E-03     67.3184E-03
              97             162     75.4644E-03     74.3026E-03
              97             980     74.8152E-03     75.9842E-03
              97             995     70.7881E-03     68.8063E-03
              98             980     74.8152E-03     75.9842E-03
              98             981     75.5876E-03     78.1602E-03
              98             995     70.7881E-03     68.8063E-03
              98             996     72.3734E-03     72.2603E-03
              99             981     75.5876E-03     78.1602E-03
              99             982     79.3639E-03     79.7307E-03
              99             996     72.3734E-03     72.2603E-03
              99             997     75.4329E-03     75.9548E-03
             100             982     79.3639E-03     79.7307E-03
             100             983     84.1775E-03     82.7861E-03
             100             997     75.4329E-03     75.9548E-03
             100             998     80.4303E-03     80.0653E-03
             101             983     84.1775E-03     82.7861E-03
             101             984     89.4174E-03     87.1237E-03
             101             998     80.4303E-03     80.0653E-03
             101             999     86.4153E-03     85.3686E-03
             102             984     89.4174E-03     87.1237E-03
             102             985     95.1898E-03     92.2146E-03
             102             999     86.4153E-03     85.3686E-03
             102            1000     93.0475E-03     91.5849E-03
             103             985     95.1898E-03     92.2146E-03
             103             986     101.274E-03     97.8483E-03
             103            1000     93.0475E-03     91.5849E-03
             103            1001     100.222E-03     98.4710E-03
             104             986     101.274E-03     97.8483E-03
             104             987     107.525E-03     103.675E-03
             104            1001     100.222E-03     98.4710E-03
             104            1002     107.638E-03     105.762E-03
             105             987     107.525E-03     103.675E-03
             105             988     113.553E-03     109.388E-03
             105            1002     107.638E-03     105.762E-03
             105            1003     115.044E-03     113.117E-03
             106             988     113.553E-03     109.388E-03
             106             989     118.919E-03     114.445E-03
             106            1003     115.044E-03     113.117E-03
             106            1004     121.842E-03     120.088E-03
             107             989     118.919E-03     114.445E-03
             107             990     122.821E-03     118.230E-03
             107            1004     121.842E-03     120.088E-03
             107            1005     127.169E-03     125.847E-03
             108             990     122.821E-03     118.230E-03
             108             991     123.899E-03     119.537E-03
             108            1005     127.169E-03     125.847E-03
             108            1006     129.881E-03     129.398E-03
             109             991     123.899E-03     119.537E-03
             109             992     120.541E-03     116.982E-03
             109            1006     129.881E-03     129.398E-03
             109            1007     127.585E-03     128.859E-03
             110             992     120.541E-03     116.982E-03
             110             993     108.281E-03     107.272E-03
             110            1007     127.585E-03     128.859E-03
             110            1008     121.301E-03     123.649E-03
             111             993     108.281E-03     107.272E-03
             111             994     97.2801E-03     96.8675E-03
             111            1008     121.301E-03     123.649E-03
             111            1009     120.352E-03     120.679E-03
             112              56     95.5094E-03     93.8219E-03
             112              57     122.868E-03     121.273E-03
             112             994     97.2801E-03     96.8675E-03
             112            1009     120.352E-03     120.679E-03
             113             160     66.0193E-03     63.1802E-03
             113             161     70.1227E-03     67.3184E-03
             113             995     70.7881E-03     68.8063E-03
             113            1010     66.4904E-03     64.1260E-03
             114             995     70.7881E-03     68.8063E-03
             114             996     72.3734E-03     72.2603E-03
             114            1010     66.4904E-03     64.1260E-03
             114            1011     68.4248E-03     67.1144E-03
             115             996     72.3734E-03     72.2603E-03
             115             997     75.4329E-03     75.9548E-03
             115            1011     68.4248E-03     67.1144E-03
             115            1012     71.9757E-03     71.8003E-03
             116             997     75.4329E-03     75.9548E-03
             116             998     80.4303E-03     80.0653E-03
             116            1012     71.9757E-03     71.8003E-03
             116            1013     76.9691E-03     77.2840E-03
             117             998     80.4303E-03     80.0653E-03
             117             999     86.4153E-03     85.3686E-03
             117            1013     76.9691E-03     77.2840E-03
             117            1014     83.3724E-03     83.5343E-03
             118             999     86.4153E-03     85.3686E-03
             118            1000     93.0475E-03     91.5849E-03
             118            1014     83.3724E-03     83.5343E-03
             118            1015     90.6445E-03     90.7281E-03
             119            1000     93.0475E-03     91.5849E-03
             119            1001     100.222E-03     98.4710E-03
             119            1015     90.6445E-03     90.7281E-03
             119            1016     98.5327E-03     98.5905E-03
             120            1001     100.222E-03     98.4710E-03
             120            1002     107.638E-03     105.762E-03
             120            1016     98.5327E-03     98.5905E-03
             120            1017     106.834E-03     106.965E-03
             121            1002     107.638E-03     105.762E-03
             121            1003     115.044E-03     113.117E-03
             121            1017     106.834E-03     106.965E-03
             121            1018     115.175E-03     115.532E-03
             122            1003     115.044E-03     113.117E-03
             122            1004     121.842E-03     120.088E-03
             122            1018     115.175E-03     115.532E-03
             122            1019     123.176E-03     123.908E-03
             123            1004     121.842E-03     120.088E-03
             123            1005     127.169E-03     125.847E-03
             123            1019     123.176E-03     123.908E-03
             123            1020     129.996E-03     131.415E-03
             124            1005     127.169E-03     125.847E-03
             124            1006     129.881E-03     129.398E-03
             124            1020     129.996E-03     131.415E-03
             124            1021     134.516E-03     136.930E-03
             125            1006     129.881E-03     129.398E-03
             125            1007     127.585E-03     128.859E-03
             125            1021     134.516E-03     136.930E-03
             125            1022     136.094E-03     139.371E-03
             126            1007     127.585E-03     128.859E-03
             126            1008     121.301E-03     123.649E-03
             126            1022     136.094E-03     139.371E-03
             126            1023     136.639E-03     139.706E-03
             127            1008     121.301E-03     123.649E-03
             127            1009     120.352E-03     120.679E-03
             127            1023     136.639E-03     139.706E-03
             127            1024     141.947E-03     143.007E-03
             128              57     122.868E-03     121.273E-03
             128              58     146.739E-03     146.301E-03
             128            1009     120.352E-03     120.679E-03
             128            1024     141.947E-03     143.007E-03
             129             159     61.5131E-03     57.4300E-03
             129             160     66.0193E-03     63.1802E-03
             129            1010     66.4904E-03     64.1260E-03
             129            1025     62.2029E-03     59.0564E-03
             130            1010     66.4904E-03     64.1260E-03
             130            1011     68.4248E-03     67.1144E-03
             130            1025     62.2029E-03     59.0564E-03
             130            1026     64.2775E-03     62.8593E-03
             131            1011     68.4248E-03     67.1144E-03
             131            1012     71.9757E-03     71.8003E-03
             131            1026     64.2775E-03     62.8593E-03
             131            1027     68.0118E-03     67.9006E-03
             132            1012     71.9757E-03     71.8003E-03
             132            1013     76.9691E-03     77.2840E-03
             132            1027     68.0118E-03     67.9006E-03
             132            1028     73.3820E-03     74.2066E-03
             133            1013     76.9691E-03     77.2840E-03
             133            1014     83.3724E-03     83.5343E-03
             133            1028     73.3820E-03     74.2066E-03
             133            1029     79.9723E-03     81.3802E-03
             134            1014     83.3724E-03     83.5343E-03
             134            1015     90.6445E-03     90.7281E-03
             134            1029     79.9723E-03     81.3802E-03
             134            1030     87.6251E-03     89.2484E-03
             135            1015     90.6445E-03     90.7281E-03
             135            1016     98.5327E-03     98.5905E-03
             135            1030     87.6251E-03     89.2484E-03
             135            1031     95.9717E-03     97.8152E-03
             136            1016     98.5327E-03     98.5905E-03
             136            1017     106.834E-03     106.965E-03
             136            1031     95.9717E-03     97.8152E-03
             136            1032     104.783E-03     106.866E-03
             137            1017     106.834E-03     106.965E-03
             137            1018     115.175E-03     115.532E-03
             137            1032     104.783E-03     106.866E-03
             137            1033     113.843E-03     116.284E-03
             138            1018     115.175E-03     115.532E-03
             138            1019     123.176E-03     123.908E-03
             138            1033     113.843E-03     116.284E-03
             138            1034     122.773E-03     125.693E-03
             139            1019     123.176E-03     123.908E-03
             139            1020     129.996E-03     131.415E-03
             139            1034     122.773E-03     125.693E-03
             139            1035     131.347E-03     134.806E-03
             140            1020     129.996E-03     131.415E-03
             140            1021     134.516E-03     136.930E-03
             140            1035     131.347E-03     134.806E-03
             140            1036     138.715E-03     142.849E-03
             141            1021     134.516E-03     136.930E-03
             141            1022     136.094E-03     139.371E-03
             141            1036     138.715E-03     142.849E-03
             141            1037     145.101E-03     149.336E-03
             142            1022     136.094E-03     139.371E-03
             142            1023     136.639E-03     139.706E-03
             142            1037     145.101E-03     149.336E-03
             142            1038     152.050E-03     155.186E-03
             143            1023     136.639E-03     139.706E-03
             143            1024     141.947E-03     143.007E-03
             143            1038     152.050E-03     155.186E-03
             143            1039     162.348E-03     164.125E-03
             144              58     146.739E-03     146.301E-03
             144              59     168.870E-03     170.160E-03
             144            1024     141.947E-03     143.007E-03
             144            1039     162.348E-03     164.125E-03
             145             158     56.6957E-03     53.4154E-03
             145             159     61.5131E-03     57.4300E-03
             145            1025     62.2029E-03     59.0564E-03
             145            1040     57.3699E-03     54.6904E-03
             146            1025     62.2029E-03     59.0564E-03
             146            1026     64.2775E-03     62.8593E-03
             146            1040     57.3699E-03     54.6904E-03
             146            1041     59.6846E-03     58.4788E-03
             147            1026     64.2775E-03     62.8593E-03
             147            1027     68.0118E-03     67.9006E-03
             147            1041     59.6846E-03     58.4788E-03
             147            1042     63.6844E-03     64.2099E-03
             148            1027     68.0118E-03     67.9006E-03
             148            1028     73.3820E-03     74.2066E-03
             148            1042     63.6844E-03     64.2099E-03
             148            1043     69.1597E-03     71.0679E-03
             149            1028     73.3820E-03     74.2066E-03
             149            1029     79.9723E-03     81.3802E-03
             149            1043     69.1597E-03     71.0679E-03
             149            1044     76.0343E-03     78.7368E-03
             150            1029     79.9723E-03     81.3802E-03
             150            1030     87.6251E-03     89.2484E-03
             150            1044     76.0343E-03     78.7368E-03
             150            1045     83.8758E-03     87.0845E-03
             151            1030     87.6251E-03     89.2484E-03
             151            1031     95.9717E-03     97.8152E-03
             151            1045     83.8758E-03     87.0845E-03
             151            1046     92.4591E-03     96.0159E-03
             152            1031     95.9717E-03     97.8152E-03
             152            1032     104.783E-03     106.866E-03
             152            1046     92.4591E-03     96.0159E-03
             152            1047     101.542E-03     105.473E-03
             153            1032     104.783E-03     106.866E-03
             153            1033     113.843E-03     116.284E-03
             153            1047     101.542E-03     105.473E-03
             153            1048     111.026E-03     115.313E-03
             154            1033     113.843E-03     116.284E-03
             154            1034     122.773E-03     125.693E-03
             154            1048     111.026E-03     115.313E-03
             154            1049     120.842E-03     125.576E-03
             155            1034     122.773E-03     125.693E-03
             155            1035     131.347E-03     134.806E-03
             155            1049     120.842E-03     125.576E-03
             155            1050     130.855E-03     135.992E-03
             156            1035     131.347E-03     134.806E-03
             156            1036     138.715E-03     142.849E-03
             156            1050     130.855E-03     135.992E-03
             156            1051     141.869E-03     146.935E-03
             157            1036     138.715E-03     142.849E-03
             157            1037     145.101E-03     149.336E-03
             157            1051     141.869E-03     146.935E-03
             157            1052     153.498E-03     158.271E-03
             158            1037     145.101E-03     149.336E-03
             158            1038     152.050E-03     155.186E-03
             158            1052     153.498E-03     158.271E-03
             158            1053     166.424E-03     170.290E-03
             159            1038     152.050E-03     155.186E-03
             159            1039     162.348E-03     164.125E-03
             159            1053     166.424E-03     170.290E-03
             159            1054     183.021E-03     184.489E-03
             160              59     168.870E-03     170.160E-03
             160              60     192.403E-03     192.211E-03
             160            1039     162.348E-03     164.125E-03
             160            1054     183.021E-03     184.489E-03
             161             157     51.4846E-03     48.1241E-03
             161             158     56.6957E-03     53.4154E-03
             161            1040     57.3699E-03     54.6904E-03
             161            1055     52.2963E-03     49.8802E-03
             162            1040     57.3699E-03     54.6904E-03
             162            1041     59.6846E-03     58.4788E-03
             162            1055     52.2963E-03     49.8802E-03
             162            1056     54.5931E-03     54.4575E-03
             163            1041     59.6846E-03     58.4788E-03
             163            1042     63.6844E-03     64.2099E-03
             163            1056     54.5931E-03     54.4575E-03
             163            1057     58.5631E-03     60.6668E-03
             164            1042     63.6844E-03     64.2099E-03
             164            1043     69.1597E-03     71.0679E-03
             164            1057     58.5631E-03     60.6668E-03
             164            1058     64.3730E-03     67.8059E-03
             165            1043     69.1597E-03     71.0679E-03
             165            1044     76.0343E-03     78.7368E-03
             165            1058     64.3730E-03     67.8059E-03
             165            1059     71.4660E-03     75.7066E-03
             166            1044     76.0343E-03     78.7368E-03
             166            1045     83.8758E-03     87.0845E-03
             166            1059     71.4660E-03     75.7066E-03
             166            1060     79.4660E-03     84.3031E-03
             167            1045     83.8758E-03     87.0845E-03
             167            1046     92.4591E-03     96.0159E-03
             167            1060     79.4660E-03     84.3031E-03
             167            1061     88.1138E-03     93.3910E-03
             168            1046     92.4591E-03     96.0159E-03
             168            1047     101.542E-03     105.473E-03
             168            1061     88.1138E-03     93.3910E-03
             168            1062     97.3355E-03     102.950E-03
             169            1047     101.542E-03     105.473E-03
             169            1048     111.026E-03     115.313E-03
             169            1062     97.3355E-03     102.950E-03
             169            1063     107.020E-03     113.013E-03
             170            1048     111.026E-03     115.313E-03
             170            1049     120.842E-03     125.576E-03
             170            1063     107.020E-03     113.013E-03
             170            1064     117.390E-03     123.637E-03
             171            1049     120.842E-03     125.576E-03
             171            1050     130.855E-03     135.992E-03
             171            1064     117.390E-03     123.637E-03
             171            1065     128.791E-03     135.270E-03
             172            1050     130.855E-03     135.992E-03
             172            1051     141.869E-03     146.935E-03
             172            1065     128.791E-03     135.270E-03
             172            1066     141.905E-03     148.244E-03
             173            1051     141.869E-03     146.935E-03
             173            1052     153.498E-03     158.271E-03
             173            1066     141.905E-03     148.244E-03
             173            1067     159.412E-03     164.493E-03
             174            1052     153.498E-03     158.271E-03
             174            1053     166.424E-03     170.290E-03
             174            1067     159.412E-03     164.493E-03
             174            1068     180.397E-03     183.939E-03
             175            1053     166.424E-03     170.290E-03
             175            1054     183.021E-03     184.489E-03
             175            1068     180.397E-03     183.939E-03
             175            1069     202.634E-03     206.235E-03
             176              60     192.403E-03     192.211E-03
             176              61     214.188E-03     218.513E-03
             176            1054     183.021E-03     184.489E-03
             176            1069     202.634E-03     206.235E-03
             177             156     46.1656E-03     43.6688E-03
             177             157     51.4846E-03     48.1241E-03
             177            1055     52.2963E-03     49.8802E-03
             177            1070     46.4004E-03     45.9017E-03
             178            1055     52.2963E-03     49.8802E-03
             178            1056     54.5931E-03     54.4575E-03
             178            1070     46.4004E-03     45.9017E-03
             178            1071     48.3007E-03     51.0069E-03
             179            1056     54.5931E-03     54.4575E-03
             179            1057     58.5631E-03     60.6668E-03
             179            1071     48.3007E-03     51.0069E-03
             179            1072     52.8369E-03     57.1366E-03
             180            1057     58.5631E-03     60.6668E-03
             180            1058     64.3730E-03     67.8059E-03
             180            1072     52.8369E-03     57.1366E-03
             180            1073     59.1114E-03     64.3150E-03
             181            1058     64.3730E-03     67.8059E-03
             181            1059     71.4660E-03     75.7066E-03
             181            1073     59.1114E-03     64.3150E-03
             181            1074     66.4249E-03     72.4685E-03
             182            1059     71.4660E-03     75.7066E-03
             182            1060     79.4660E-03     84.3031E-03
             182            1074     66.4249E-03     72.4685E-03
             182            1075     74.5365E-03     81.1279E-03
             183            1060     79.4660E-03     84.3031E-03
             183            1061     88.1138E-03     93.3910E-03
             183            1075     74.5365E-03     81.1279E-03
             183            1076     83.2695E-03     90.2671E-03
             184            1061     88.1138E-03     93.3910E-03
             184            1062     97.3355E-03     102.950E-03
             184            1076     83.2695E-03     90.2671E-03
             184            1077     92.4813E-03     99.7806E-03
             185            1062     97.3355E-03     102.950E-03
             185            1063     107.020E-03     113.013E-03
             185            1077     92.4813E-03     99.7806E-03
             185            1078     102.326E-03     109.812E-03
             186            1063     107.020E-03     113.013E-03
             186            1064     117.390E-03     123.637E-03
             186            1078     102.326E-03     109.812E-03
             186            1079     112.914E-03     120.567E-03
             187            1064     117.390E-03     123.637E-03
             187            1065     128.791E-03     135.270E-03
             187            1079     112.914E-03     120.567E-03
             187            1080     125.051E-03     132.657E-03
             188            1065     128.791E-03     135.270E-03
             188            1066     141.905E-03     148.244E-03
             188            1080     125.051E-03     132.657E-03
             188            1081     139.582E-03     147.104E-03
             189            1066     141.905E-03     148.244E-03
             189            1067     159.412E-03     164.493E-03
             189            1081     139.582E-03     147.104E-03
             189            1082     158.850E-03     165.712E-03
             190            1067     159.412E-03     164.493E-03
             190            1068     180.397E-03     183.939E-03
             190            1082     158.850E-03     165.712E-03
             190            1083     188.963E-03     193.261E-03
             191            1068     180.397E-03     183.939E-03
             191            1069     202.634E-03     206.235E-03
             191            1083     188.963E-03     193.261E-03
             191            1084     224.651E-03     225.105E-03
             192              61     214.188E-03     218.513E-03
             192              62     241.677E-03     240.126E-03
             192            1069     202.634E-03     206.235E-03
             192            1084     224.651E-03     225.105E-03
             193             155     37.9704E-03     40.8235E-03
             193             156     46.1656E-03     43.6688E-03
             193            1070     46.4004E-03     45.9017E-03
             193            1085     38.6256E-03     42.7591E-03
             194            1070     46.4004E-03     45.9017E-03
             194            1071     48.3007E-03     51.0069E-03
             194            1085     38.6256E-03     42.7591E-03
             194            1086     41.6069E-03     47.1845E-03
             195            1071     48.3007E-03     51.0069E-03
             195            1072     52.8369E-03     57.1366E-03
             195            1086     41.6069E-03     47.1845E-03
             195            1087     46.9339E-03     53.2310E-03
             196            1072     52.8369E-03     57.1366E-03
             196            1073     59.1114E-03     64.3150E-03
             196            1087     46.9339E-03     53.2310E-03
             196            1088     53.5139E-03     60.8149E-03
             197            1073     59.1114E-03     64.3150E-03
             197            1074     66.4249E-03     72.4685E-03
             197            1088     53.5139E-03     60.8149E-03
             197            1089     61.0911E-03     69.1049E-03
             198            1074     66.4249E-03     72.4685E-03
             198            1075     74.5365E-03     81.1279E-03
             198            1089     61.0911E-03     69.1049E-03
             198            1090     69.3786E-03     77.9222E-03
             199            1075     74.5365E-03     81.1279E-03
             199            1076     83.2695E-03     90.2671E-03
             199            1090     69.3786E-03     77.9222E-03
             199            1091     78.1955E-03     87.0468E-03
             200            1076     83.2695E-03     90.2671E-03
             200            1077     92.4813E-03     99.7806E-03
             200            1091     78.1955E-03     87.0468E-03
             200            1092     87.5355E-03     96.5417E-03
             201            1077     92.4813E-03     99.7806E-03
             201            1078     102.326E-03     109.812E-03
             201            1092     87.5355E-03     96.5417E-03
             201            1093     97.4340E-03     106.419E-03
             202            1078     102.326E-03     109.812E-03
             202            1079     112.914E-03     120.567E-03
             202            1093     97.4340E-03     106.419E-03
             202            1094     108.309E-03     117.166E-03
             203            1079     112.914E-03     120.567E-03
             203            1080     125.051E-03     132.657E-03
             203            1094     108.309E-03     117.166E-03
             203            1095     120.555E-03     129.157E-03
             204            1080     125.051E-03     132.657E-03
             204            1081     139.582E-03     147.104E-03
             204            1095     120.555E-03     129.157E-03
             204            1096     135.744E-03     144.084E-03
             205            1081     139.582E-03     147.104E-03
             205            1082     158.850E-03     165.712E-03
             205            1096     135.744E-03     144.084E-03
             205            1097     154.995E-03     163.292E-03
             206            1082     158.850E-03     165.712E-03
             206            1083     188.963E-03     193.261E-03
             206            1097     154.995E-03     163.292E-03
             206            1098     184.726E-03     193.484E-03
             207            1083     188.963E-03     193.261E-03
             207            1084     224.651E-03     225.105E-03
             207            1098     184.726E-03     193.484E-03
             207            1099     235.414E-03     242.456E-03
             208              62     241.677E-03     240.126E-03
             208              63     266.890E-03     271.714E-03
             208            1084     224.651E-03     225.105E-03
             208            1099     235.414E-03     242.456E-03
             209             154     66.8068E-03     79.9643E-03
             209             155     37.9704E-03     40.8235E-03
             209            1085     38.6256E-03     42.7591E-03
             209            1100     71.5365E-03     80.0200E-03
             210            1085     38.6256E-03     42.7591E-03
             210            1086     41.6069E-03     47.1845E-03
             210            1100     71.5365E-03     80.0200E-03
             210            1101     79.2961E-03     82.2233E-03
             211            1086     41.6069E-03     47.1845E-03
             211            1087     46.9339E-03     53.2310E-03
             211            1101     79.2961E-03     82.2233E-03
             211            1102     86.3080E-03     88.6339E-03
             212            1087     46.9339E-03     53.2310E-03
             212            1088     53.5139E-03     60.8149E-03
             212            1102     86.3080E-03     88.6339E-03
             212            1103     94.9187E-03     97.4566E-03
             213            1088     53.5139E-03     60.8149E-03
             213            1089     61.0911E-03     69.1049E-03
             213            1103     94.9187E-03     97.4566E-03
             213            1104     104.669E-03     107.275E-03
             214            1089     61.0911E-03     69.1049E-03
             214            1090     69.3786E-03     77.9222E-03
             214            1104     104.669E-03     107.275E-03
             214            1105     115.269E-03     117.915E-03
             215            1090     69.3786E-03     77.9222E-03
             215            1091     78.1955E-03     87.0468E-03
             215            1105     115.269E-03     117.915E-03
             215            1106     126.441E-03     128.854E-03
             216            1091     78.1955E-03     87.0468E-03
             216            1092     87.5355E-03     96.5417E-03
             216            1106     126.441E-03     128.854E-03
             216            1107     137.928E-03     139.957E-03
             217            1092     87.5355E-03     96.5417E-03
             217            1093     97.4340E-03     106.419E-03
             217            1107     137.928E-03     139.957E-03
             217            1108     149.603E-03     150.924E-03
             218            1093     97.4340E-03     106.419E-03
             218            1094     108.309E-03     117.166E-03
             218            1108     149.603E-03     150.924E-03
             218            1109     161.363E-03     161.797E-03
             219            1094     108.309E-03     117.166E-03
             219            1095     120.555E-03     129.157E-03
             219            1109     161.363E-03     161.797E-03
             219            1110     173.307E-03     172.453E-03
             220            1095     120.555E-03     129.157E-03
             220            1096     135.744E-03     144.084E-03
             220            1110     173.307E-03     172.453E-03
             220            1111     185.488E-03     183.305E-03
             221            1096     135.744E-03     144.084E-03
             221            1097     154.995E-03     163.292E-03
             221            1111     185.488E-03     183.305E-03
             221            1112     198.692E-03     195.017E-03
             222            1097     154.995E-03     163.292E-03
             222            1098     184.726E-03     193.484E-03
             222            1112     198.692E-03     195.017E-03
             222            1113     212.981E-03     208.707E-03
             223            1098     184.726E-03     193.484E-03
             223            1099     235.414E-03     242.456E-03
             223            1113     212.981E-03     208.707E-03
             223            1114     234.139E-03     234.529E-03
             224              63     266.890E-03     271.714E-03
             224              64     248.095E-03     252.723E-03
             224            1099     235.414E-03     242.456E-03
             224            1114     234.139E-03     234.529E-03
             225             153     102.267E-03     115.047E-03
             225             154     66.8068E-03     79.9643E-03
             225            1100     71.5365E-03     80.0200E-03
             225            1115     105.323E-03     114.642E-03
             226            1100     71.5365E-03     80.0200E-03
             226            1101     79.2961E-03     82.2233E-03
             226            1115     105.323E-03     114.642E-03
             226            1116     113.225E-03     116.112E-03
             227            1101     79.2961E-03     82.2233E-03
             227            1102     86.3080E-03     88.6339E-03
             227            1116     113.225E-03     116.112E-03
             227            1117     123.630E-03     122.604E-03
             228            1102     86.3080E-03     88.6339E-03
             228            1103     94.9187E-03     97.4566E-03
             228            1117     123.630E-03     122.604E-03
             228            1118     135.318E-03     132.954E-03
             229            1103     94.9187E-03     97.4566E-03
             229            1104     104.669E-03     107.275E-03
             229            1118     135.318E-03     132.954E-03
             229            1119     148.324E-03     145.238E-03
             230            1104     104.669E-03     107.275E-03
             230            1105     115.269E-03     117.915E-03
             230            1119     148.324E-03     145.238E-03
             230            1120     162.427E-03     158.749E-03
             231            1105     115.269E-03     117.915E-03
             231            1106     126.441E-03     128.854E-03
             231            1120     162.427E-03     158.749E-03
             231            1121     177.106E-03     172.875E-03
             232            1106     126.441E-03     128.854E-03
             232            1107     137.928E-03     139.957E-03
             232            1121     177.106E-03     172.875E-03
             232            1122     192.051E-03     187.076E-03
             233            1107     137.928E-03     139.957E-03
             233            1108     149.603E-03     150.924E-03
             233            1122     192.051E-03     187.076E-03
             233            1123     206.771E-03     200.933E-03
             234            1108     149.603E-03     150.924E-03
             234            1109     161.363E-03     161.797E-03
             234            1123     206.771E-03     200.933E-03
             234            1124     220.814E-03     213.880E-03
             235            1109     161.363E-03     161.797E-03
             235            1110     173.307E-03     172.453E-03
             235            1124     220.814E-03     213.880E-03
             235            1125     233.607E-03     225.405E-03
             236            1110     173.307E-03     172.453E-03
             236            1111     185.488E-03     183.305E-03
             236            1125     233.607E-03     225.405E-03
             236            1126     244.254E-03     234.760E-03
             237            1111     185.488E-03     183.305E-03
             237            1112     198.692E-03     195.017E-03
             237            1126     244.254E-03     234.760E-03
             237            1127     251.686E-03     241.003E-03
             238            1112     198.692E-03     195.017E-03
             238            1113     212.981E-03     208.707E-03
             238            1127     251.686E-03     241.003E-03
             238            1128     253.143E-03     242.498E-03
             239            1113     212.981E-03     208.707E-03
             239            1114     234.139E-03     234.529E-03
             239            1128     253.143E-03     242.498E-03
             239            1129     245.764E-03     235.208E-03
             240              64     248.095E-03     252.723E-03
             240              65     239.695E-03     228.711E-03
             240            1114     234.139E-03     234.529E-03
             240            1129     245.764E-03     235.208E-03
             241             152     97.0299E-03     97.7142E-03
             241             153     102.267E-03     115.047E-03
             241            1115     105.323E-03     114.642E-03
             241            1130     97.5451E-03     101.447E-03
             242            1115     105.323E-03     114.642E-03
             242            1116     113.225E-03     116.112E-03
             242            1130     97.5451E-03     101.447E-03
             242            1131     102.862E-03     108.157E-03
             243            1116     113.225E-03     116.112E-03
             243            1117     123.630E-03     122.604E-03
             243            1131     102.862E-03     108.157E-03
             243            1132     114.368E-03     116.179E-03
             244            1117     123.630E-03     122.604E-03
             244            1118     135.318E-03     132.954E-03
             244            1132     114.368E-03     116.179E-03
             244            1133     128.356E-03     127.956E-03
             245            1118     135.318E-03     132.954E-03
             245            1119     148.324E-03     145.238E-03
             245            1133     128.356E-03     127.956E-03
             245            1134     143.683E-03     142.263E-03
             246            1119     148.324E-03     145.238E-03
             246            1120     162.427E-03     158.749E-03
             246            1134     143.683E-03     142.263E-03
             246            1135     160.105E-03     158.046E-03
             247            1120     162.427E-03     158.749E-03
             247            1121     177.106E-03     172.875E-03
             247            1135     160.105E-03     158.046E-03
             247            1136     177.201E-03     174.718E-03
             248            1121     177.106E-03     172.875E-03
             248            1122     192.051E-03     187.076E-03
             248            1136     177.201E-03     174.718E-03
             248            1137     194.587E-03     191.772E-03
             249            1122     192.051E-03     187.076E-03
             249            1123     206.771E-03     200.933E-03
             249            1137     194.587E-03     191.772E-03
             249            1138     211.867E-03     208.743E-03
             250            1123     206.771E-03     200.933E-03
             250            1124     220.814E-03     213.880E-03
             250            1138     211.867E-03     208.743E-03
             250            1139     228.492E-03     225.190E-03
             251            1124     220.814E-03     213.880E-03
             251            1125     233.607E-03     225.405E-03
             251            1139     228.492E-03     225.190E-03
             251            1140     243.734E-03     240.479E-03
             252            1125     233.607E-03     225.405E-03
             252            1126     244.254E-03     234.760E-03
             252            1140     243.734E-03     240.479E-03
             252            1141     256.619E-03     253.841E-03
             253            1126     244.254E-03     234.760E-03
             253            1127     251.686E-03     241.003E-03
             253            1141     256.619E-03     253.841E-03
             253            1142     265.564E-03     264.245E-03
             254            1127     251.686E-03     241.003E-03
             254            1128     253.143E-03     242.498E-03
             254            1142     265.564E-03     264.245E-03
             254            1143     268.373E-03     269.293E-03
             255            1128     253.143E-03     242.498E-03
             255            1129     245.764E-03     235.208E-03
             255            1143     268.373E-03     269.293E-03
             255            1144     269.384E-03     269.928E-03
             256              65     239.695E-03     228.711E-03
             256              66     270.876E-03     269.781E-03
             256            1129     245.764E-03     235.208E-03
             256            1144     269.384E-03     269.928E-03
             257             151     86.0964E-03     84.7959E-03
             257             152     97.0299E-03     97.7142E-03
             257            1130     97.5451E-03     101.447E-03
             257            1145     88.6023E-03     88.7727E-03
             258            1130     97.5451E-03     101.447E-03
             258            1131     102.862E-03     108.157E-03
             258            1145     88.6023E-03     88.7727E-03
             258            1146     95.5984E-03     98.4183E-03
             259            1131     102.862E-03     108.157E-03
             259            1132     114.368E-03     116.179E-03
             259            1146     95.5984E-03     98.4183E-03
             259            1147     107.158E-03     110.225E-03
             260            1132     114.368E-03     116.179E-03
             260            1133     128.356E-03     127.956E-03
             260            1147     107.158E-03     110.225E-03
             260            1148     122.607E-03     124.054E-03
             261            1133     128.356E-03     127.956E-03
             261            1134     143.683E-03     142.263E-03
             261            1148     122.607E-03     124.054E-03
             261            1149     139.875E-03     140.355E-03
             262            1134     143.683E-03     142.263E-03
             262            1135     160.105E-03     158.046E-03
             262            1149     139.875E-03     140.355E-03
             262            1150     158.234E-03     158.197E-03
             263            1135     160.105E-03     158.046E-03
             263            1136     177.201E-03     174.718E-03
             263            1150     158.234E-03     158.197E-03
             263            1151     177.294E-03     177.040E-03
             264            1136     177.201E-03     174.718E-03
             264            1137     194.587E-03     191.772E-03
             264            1151     177.294E-03     177.040E-03
             264            1152     196.697E-03     196.427E-03
             265            1137     194.587E-03     191.772E-03
             265            1138     211.867E-03     208.743E-03
             265            1152     196.697E-03     196.427E-03
             265            1153     216.002E-03     215.955E-03
             266            1138     211.867E-03     208.743E-03
             266            1139     228.492E-03     225.190E-03
             266            1153     216.002E-03     215.955E-03
             266            1154     234.719E-03     235.121E-03
             267            1139     228.492E-03     225.190E-03
             267            1140     243.734E-03     240.479E-03
             267            1154     234.719E-03     235.121E-03
             267            1155     252.072E-03     253.303E-03
             268            1140     243.734E-03     240.479E-03
             268            1141     256.619E-03     253.841E-03
             268            1155     252.072E-03     253.303E-03
             268            1156     266.981E-03     269.591E-03
             269            1141     256.619E-03     253.841E-03
             269            1142     265.564E-03     264.245E-03
             269            1156     266.981E-03     269.591E-03
             269            1157     278.287E-03     282.532E-03
             270            1142     265.564E-03     264.245E-03
             270            1143     268.373E-03     269.293E-03
             270            1157     278.287E-03     282.532E-03
             270            1158     285.886E-03     290.966E-03
             271            1143     268.373E-03     269.293E-03
             271            1144     269.384E-03     269.928E-03
             271            1158     285.886E-03     290.966E-03
             271            1159     294.987E-03     297.353E-03
             272              66     270.876E-03     269.781E-03
             272              67     301.014E-03     300.727E-03
             272            1144     269.384E-03     269.928E-03
             272            1159     294.987E-03     297.353E-03
             273             150     77.4277E-03     76.1880E-03
             273             151     86.0964E-03     84.7959E-03
             273            1145     88.6023E-03     88.7727E-03
             273            1160     79.9850E-03     79.7831E-03
             274            1145     88.6023E-03     88.7727E-03
             274            1146     95.5984E-03     98.4183E-03
             274            1160     79.9850E-03     79.7831E-03
             274            1161     88.1293E-03     89.8000E-03
             275            1146     95.5984E-03     98.4183E-03
             275            1147     107.158E-03     110.225E-03
             275            1161     88.1293E-03     89.8000E-03
             275            1162     101.189E-03     104.050E-03
             276            1147     107.158E-03     110.225E-03
             276            1148     122.607E-03     124.054E-03
             276            1162     101.189E-03     104.050E-03
             276            1163     117.595E-03     120.441E-03
             277            1148     122.607E-03     124.054E-03
             277            1149     139.875E-03     140.355E-03
             277            1163     117.595E-03     120.441E-03
             277            1164     136.258E-03     138.536E-03
             278            1149     139.875E-03     140.355E-03
             278            1150     158.234E-03     158.197E-03
             278            1164     136.258E-03     138.536E-03
             278            1165     156.070E-03     158.114E-03
             279            1150     158.234E-03     158.197E-03
             279            1151     177.294E-03     177.040E-03
             279            1165     156.070E-03     158.114E-03
             279            1166     176.610E-03     178.646E-03
             280            1151     177.294E-03     177.040E-03
             280            1152     196.697E-03     196.427E-03
             280            1166     176.610E-03     178.646E-03
             280            1167     197.485E-03     199.803E-03
             281            1152     196.697E-03     196.427E-03
             281            1153     216.002E-03     215.955E-03
             281            1167     197.485E-03     199.803E-03
             281            1168     218.427E-03     221.237E-03
             282            1153     216.002E-03     215.955E-03
             282            1154     234.719E-03     235.121E-03
             282            1168     218.427E-03     221.237E-03
             282            1169     238.876E-03     242.510E-03
             283            1154     234.719E-03     235.121E-03
             283            1155     252.072E-03     253.303E-03
             283            1169     238.876E-03     242.510E-03
             283            1170     258.252E-03     262.949E-03
             284            1155     252.072E-03     253.303E-03
             284            1156     266.981E-03     269.591E-03
             284            1170     258.252E-03     262.949E-03
             284            1171     275.718E-03     281.594E-03
             285            1156     266.981E-03     269.591E-03
             285            1157     278.287E-03     282.532E-03
             285            1171     275.718E-03     281.594E-03
             285            1172     290.456E-03     297.243E-03
             286            1157     278.287E-03     282.532E-03
             286            1158     285.886E-03     290.966E-03
             286            1172     290.456E-03     297.243E-03
             286            1173     303.936E-03     309.591E-03
             287            1158     285.886E-03     290.966E-03
             287            1159     294.987E-03     297.353E-03
             287            1173     303.936E-03     309.591E-03
             287            1174     318.150E-03     320.695E-03
             288              67     301.014E-03     300.727E-03
             288              68     325.606E-03     326.387E-03
             288            1159     294.987E-03     297.353E-03
             288            1174     318.150E-03     320.695E-03
             289             149     68.5039E-03     65.7654E-03
             289             150     77.4277E-03     76.1880E-03
             289            1160     79.9850E-03     79.7831E-03
             289            1175     71.6358E-03     70.6830E-03
             290            1160     79.9850E-03     79.7831E-03
             290            1161     88.1293E-03     89.8000E-03
             290            1175     71.6358E-03     70.6830E-03
             290            1176     80.8568E-03     82.5677E-03
             291            1161     88.1293E-03     89.8000E-03
             291            1162     101.189E-03     104.050E-03
             291            1176     80.8568E-03     82.5677E-03
             291            1177     95.1576E-03     98.2235E-03
             292            1162     101.189E-03     104.050E-03
             292            1163     117.595E-03     120.441E-03
             292            1177     95.1576E-03     98.2235E-03
             292            1178     112.760E-03     116.498E-03
             293            1163     117.595E-03     120.441E-03
             293            1164     136.258E-03     138.536E-03
             293            1178     112.760E-03     116.498E-03
             293            1179     132.336E-03     136.224E-03
             294            1164     136.258E-03     138.536E-03
             294            1165     156.070E-03     158.114E-03
             294            1179     132.336E-03     136.224E-03
             294            1180     153.160E-03     157.088E-03
             295            1165     156.070E-03     158.114E-03
             295            1166     176.610E-03     178.646E-03
             295            1180     153.160E-03     157.088E-03
             295            1181     174.659E-03     178.831E-03
             296            1166     176.610E-03     178.646E-03
             296            1167     197.485E-03     199.803E-03
             296            1181     174.659E-03     178.831E-03
             296            1182     196.625E-03     201.221E-03
             297            1167     197.485E-03     199.803E-03
             297            1168     218.427E-03     221.237E-03
             297            1182     196.625E-03     201.221E-03
             297            1183     218.710E-03     223.992E-03
             298            1168     218.427E-03     221.237E-03
             298            1169     238.876E-03     242.510E-03
             298            1183     218.710E-03     223.992E-03
             298            1184     240.799E-03     246.880E-03
             299            1169     238.876E-03     242.510E-03
             299            1170     258.252E-03     262.949E-03
             299            1184     240.799E-03     246.880E-03
             299            1185     262.290E-03     269.351E-03
             300            1170     258.252E-03     262.949E-03
             300            1171     275.718E-03     281.594E-03
             300            1185     262.290E-03     269.351E-03
             300            1186     282.757E-03     290.510E-03
             301            1171     275.718E-03     281.594E-03
             301            1172     290.456E-03     297.243E-03
             301            1186     282.757E-03     290.510E-03
             301            1187     302.112E-03     309.558E-03
             302            1172     290.456E-03     297.243E-03
             302            1173     303.936E-03     309.591E-03
             302            1187     302.112E-03     309.558E-03
             302            1188     320.282E-03     326.395E-03
             303            1173     303.936E-03     309.591E-03
             303            1174     318.150E-03     320.695E-03
             303            1188     320.282E-03     326.395E-03
             303            1189     339.469E-03     342.425E-03
             304              68     325.606E-03     326.387E-03
             304              69     349.759E-03     350.490E-03
             304            1174     318.150E-03     320.695E-03
             304            1189     339.469E-03     342.425E-03
             305             148     59.3672E-03     57.4146E-03
             305             149     68.5039E-03     65.7654E-03
             305            1175     71.6358E-03     70.6830E-03
             305            1190     63.0269E-03     62.3455E-03
             306            1175     71.6358E-03     70.6830E-03
             306            1176     80.8568E-03     82.5677E-03
             306            1190     63.0269E-03     62.3455E-03
             306            1191     73.4748E-03     75.3627E-03
             307            1176     80.8568E-03     82.5677E-03
             307            1177     95.1576E-03     98.2235E-03
             307            1191     73.4748E-03     75.3627E-03
             307            1192     88.9514E-03     92.7331E-03
             308            1177     95.1576E-03     98.2235E-03
             308            1178     112.760E-03     116.498E-03
             308            1192     88.9514E-03     92.7331E-03
             308            1193     107.509E-03     112.209E-03
             309            1178     112.760E-03     116.498E-03
             309            1179     132.336E-03     136.224E-03
             309            1193     107.509E-03     112.209E-03
             309            1194     127.845E-03     133.099E-03
             310            1179     132.336E-03     136.224E-03
             310            1180     153.160E-03     157.088E-03
             310            1194     127.845E-03     133.099E-03
             310            1195     149.240E-03     154.846E-03
             311            1180     153.160E-03     157.088E-03
             311            1181     174.659E-03     178.831E-03
             311            1195     149.240E-03     154.846E-03
             311            1196     171.349E-03     177.339E-03
             312            1181     174.659E-03     178.831E-03
             312            1182     196.625E-03     201.221E-03
             312            1196     171.349E-03     177.339E-03
             312            1197     193.913E-03     200.421E-03
             313            1182     196.625E-03     201.221E-03
             313            1183     218.710E-03     223.992E-03
             313            1197     193.913E-03     200.421E-03
             313            1198     216.927E-03     224.084E-03
             314            1183     218.710E-03     223.992E-03
             314            1184     240.799E-03     246.880E-03
             314            1198     216.927E-03     224.084E-03
             314            1199     240.183E-03     248.119E-03
             315            1184     240.799E-03     246.880E-03
             315            1185     262.290E-03     269.351E-03
             315            1199     240.183E-03     248.119E-03
             315            1200     263.998E-03     272.465E-03
             316            1185     262.290E-03     269.351E-03
             316            1186     282.757E-03     290.510E-03
             316            1200     263.998E-03     272.465E-03
             316            1201     287.916E-03     296.670E-03
             317            1186     282.757E-03     290.510E-03
             317            1187     302.112E-03     309.558E-03
             317            1201     287.916E-03     296.670E-03
             317            1202     311.784E-03     319.909E-03
             318            1187     302.112E-03     309.558E-03
             318            1188     320.282E-03     326.395E-03
             318            1202     311.784E-03     319.909E-03
             318            1203     335.790E-03     341.684E-03
             319            1188     320.282E-03     326.395E-03
             319            1189     339.469E-03     342.425E-03
             319            1203     335.790E-03     341.684E-03
             319            1204     359.269E-03     363.153E-03
             320              69     349.759E-03     350.490E-03
             320              70     370.881E-03     374.219E-03
             320            1189     339.469E-03     342.425E-03
             320            1204     359.269E-03     363.153E-03
             321             147     50.1048E-03     47.7742E-03
             321             148     59.3672E-03     57.4146E-03
             321            1190     63.0269E-03     62.3455E-03
             321            1205     54.1861E-03     53.8919E-03
             322            1190     63.0269E-03     62.3455E-03
             322            1191     73.4748E-03     75.3627E-03
             322            1205     54.1861E-03     53.8919E-03
             322            1206     65.7318E-03     68.5431E-03
             323            1191     73.4748E-03     75.3627E-03
             323            1192     88.9514E-03     92.7331E-03
             323            1206     65.7318E-03     68.5431E-03
             323            1207     82.4244E-03     87.1097E-03
             324            1192     88.9514E-03     92.7331E-03
             324            1193     107.509E-03     112.209E-03
             324            1207     82.4244E-03     87.1097E-03
             324            1208     101.769E-03     107.681E-03
             325            1193     107.509E-03     112.209E-03
             325            1194     127.845E-03     133.099E-03
             325            1208     101.769E-03     107.681E-03
             325            1209     122.617E-03     129.202E-03
             326            1194     127.845E-03     133.099E-03
             326            1195     149.240E-03     154.846E-03
             326            1209     122.617E-03     129.202E-03
             326            1210     144.352E-03     151.446E-03
             327            1195     149.240E-03     154.846E-03
             327            1196     171.349E-03     177.339E-03
             327            1210     144.352E-03     151.446E-03
             327            1211     166.705E-03     174.218E-03
             328            1196     171.349E-03     177.339E-03
             328            1197     193.913E-03     200.421E-03
             328            1211     166.705E-03     174.218E-03
             328            1212     189.581E-03     197.593E-03
             329            1197     193.913E-03     200.421E-03
             329            1198     216.927E-03     224.084E-03
             329            1212     189.581E-03     197.593E-03
             329            1213     213.014E-03     221.555E-03
             330            1198     216.927E-03     224.084E-03
             330            1199     240.183E-03     248.119E-03
             330            1213     213.014E-03     221.555E-03
             330            1214     237.298E-03     246.392E-03
             331            1199     240.183E-03     248.119E-03
             331            1200     263.998E-03     272.465E-03
             331            1214     237.298E-03     246.392E-03
             331            1215     262.568E-03     272.107E-03
             332            1200     263.998E-03     272.465E-03
             332            1201     287.916E-03     296.670E-03
             332            1215     262.568E-03     272.107E-03
             332            1216     290.152E-03     299.325E-03
             333            1201     287.916E-03     296.670E-03
             333            1202     311.784E-03     319.909E-03
             333            1216     290.152E-03     299.325E-03
             333            1217     319.350E-03     327.736E-03
             334            1202     311.784E-03     319.909E-03
             334            1203     335.790E-03     341.684E-03
             334            1217     319.350E-03     327.736E-03
             334            1218     349.084E-03     356.070E-03
             335            1203     335.790E-03     341.684E-03
             335            1204     359.269E-03     363.153E-03
             335            1218     349.084E-03     356.070E-03
             335            1219     379.388E-03     382.571E-03
             336              70     370.881E-03     374.219E-03
             336              71     394.463E-03     394.908E-03
             336            1204     359.269E-03     363.153E-03
             336            1219     379.388E-03     382.571E-03
             337             146     39.8403E-03     38.6785E-03
             337             147     50.1048E-03     47.7742E-03
             337            1205     54.1861E-03     53.8919E-03
             337            1220     44.7323E-03     45.4973E-03
             338            1205     54.1861E-03     53.8919E-03
             338            1206     65.7318E-03     68.5431E-03
             338            1220     44.7323E-03     45.4973E-03
             338            1221     57.7649E-03     61.8518E-03
             339            1206     65.7318E-03     68.5431E-03
             339            1207     82.4244E-03     87.1097E-03
             339            1221     57.7649E-03     61.8518E-03
             339            1222     75.5506E-03     81.7261E-03
             340            1207     82.4244E-03     87.1097E-03
             340            1208     101.769E-03     107.681E-03
             340            1222     75.5506E-03     81.7261E-03
             340            1223     95.6167E-03     102.946E-03
             341            1208     101.769E-03     107.681E-03
             341            1209     122.617E-03     129.202E-03
             341            1223     95.6167E-03     102.946E-03
             341            1224     116.800E-03     124.857E-03
             342            1209     122.617E-03     129.202E-03
             342            1210     144.352E-03     151.446E-03
             342            1224     116.800E-03     124.857E-03
             342            1225     138.680E-03     147.167E-03
             343            1210     144.352E-03     151.446E-03
             343            1211     166.705E-03     174.218E-03
             343            1225     138.680E-03     147.167E-03
             343            1226     161.034E-03     169.895E-03
             344            1211     166.705E-03     174.218E-03
             344            1212     189.581E-03     197.593E-03
             344            1226     161.034E-03     169.895E-03
             344            1227     183.929E-03     193.073E-03
             345            1212     189.581E-03     197.593E-03
             345            1213     213.014E-03     221.555E-03
             345            1227     183.929E-03     193.073E-03
             345            1228     207.458E-03     216.961E-03
             346            1213     213.014E-03     221.555E-03
             346            1214     237.298E-03     246.392E-03
             346            1228     207.458E-03     216.961E-03
             346            1229     232.072E-03     241.818E-03
             347            1214     237.298E-03     246.392E-03
             347            1215     262.568E-03     272.107E-03
             347            1229     232.072E-03     241.818E-03
             347            1230     258.485E-03     268.434E-03
             348            1215     262.568E-03     272.107E-03
             348            1216     290.152E-03     299.325E-03
             348            1230     258.485E-03     268.434E-03
             348            1231     287.511E-03     297.356E-03
             349            1216     290.152E-03     299.325E-03
             349            1217     319.350E-03     327.736E-03
             349            1231     287.511E-03     297.356E-03
             349            1232     322.484E-03     330.803E-03
             350            1217     319.350E-03     327.736E-03
             350            1218     349.084E-03     356.070E-03
             350            1232     322.484E-03     330.803E-03
             350            1233     361.095E-03     367.424E-03
             351            1218     349.084E-03     356.070E-03
             351            1219     379.388E-03     382.571E-03
             351            1233     361.095E-03     367.424E-03
             351            1234     397.508E-03     403.663E-03
             352              71     394.463E-03     394.908E-03
             352              72     414.930E-03     421.721E-03
             352            1219     379.388E-03     382.571E-03
             352            1234     397.508E-03     403.663E-03
             353             145     29.0968E-03     28.9766E-03
             353             146     39.8403E-03     38.6785E-03
             353            1220     44.7323E-03     45.4973E-03
             353            1235     34.8586E-03     37.3537E-03
             354            1220     44.7323E-03     45.4973E-03
             354            1221     57.7649E-03     61.8518E-03
             354            1235     34.8586E-03     37.3537E-03
             354            1236     49.5917E-03     55.8886E-03
             355            1221     57.7649E-03     61.8518E-03
             355            1222     75.5506E-03     81.7261E-03
             355            1236     49.5917E-03     55.8886E-03
             355            1237     68.6623E-03     76.8292E-03
             356            1222     75.5506E-03     81.7261E-03
             356            1223     95.6167E-03     102.946E-03
             356            1237     68.6623E-03     76.8292E-03
             356            1238     89.3240E-03     98.4810E-03
             357            1223     95.6167E-03     102.946E-03
             357            1224     116.800E-03     124.857E-03
             357            1238     89.3240E-03     98.4810E-03
             357            1239     110.747E-03     120.429E-03
             358            1224     116.800E-03     124.857E-03
             358            1225     138.680E-03     147.167E-03
             358            1239     110.747E-03     120.429E-03
             358            1240     132.577E-03     142.574E-03
             359            1225     138.680E-03     147.167E-03
             359            1226     161.034E-03     169.895E-03
             359            1240     132.577E-03     142.574E-03
             359            1241     154.824E-03     164.931E-03
             360            1226     161.034E-03     169.895E-03
             360            1227     183.929E-03     193.073E-03
             360            1241     154.824E-03     164.931E-03
             360            1242     177.472E-03     187.620E-03
             361            1227     183.929E-03     193.073E-03
             361            1228     207.458E-03     216.961E-03
             361            1242     177.472E-03     187.620E-03
             361            1243     200.883E-03     210.933E-03
             362            1228     207.458E-03     216.961E-03
             362            1229     232.072E-03     241.818E-03
             362            1243     200.883E-03     210.933E-03
             362            1244     225.321E-03     235.305E-03
             363            1229     232.072E-03     241.818E-03
             363            1230     258.485E-03     268.434E-03
             363            1244     225.321E-03     235.305E-03
             363            1245     251.849E-03     261.581E-03
             364            1230     258.485E-03     268.434E-03
             364            1231     287.511E-03     297.356E-03
             364            1245     251.849E-03     261.581E-03
             364            1246     281.551E-03     291.158E-03
             365            1231     287.511E-03     297.356E-03
             365            1232     322.484E-03     330.803E-03
             365            1246     281.551E-03     291.158E-03
             365            1247     316.917E-03     326.074E-03
             366            1232     322.484E-03     330.803E-03
             366            1233     361.095E-03     367.424E-03
             366            1247     316.917E-03     326.074E-03
             366            1248     365.388E-03     371.733E-03
             367            1233     361.095E-03     367.424E-03
             367            1234     397.508E-03     403.663E-03
             367            1248     365.388E-03     371.733E-03
             367            1249     417.911E-03     419.071E-03
             368              72     414.930E-03     421.721E-03
             368              73     441.756E-03     439.906E-03
             368            1234     397.508E-03     403.663E-03
             368            1249     417.911E-03     419.071E-03
             369             144     16.9003E-03     20.8223E-03
             369             145     29.0968E-03     28.9766E-03
             369            1235     34.8586E-03     37.3537E-03
             369            1250     24.5436E-03     30.7737E-03
             370            1235     34.8586E-03     37.3537E-03
             370            1236     49.5917E-03     55.8886E-03
             370            1250     24.5436E-03     30.7737E-03
             370            1251     42.0478E-03     51.4711E-03
             371            1236     49.5917E-03     55.8886E-03
             371            1237     68.6623E-03     76.8292E-03
             371            1251     42.0478E-03     51.4711E-03
             371            1252     62.3644E-03     73.0314E-03
             372            1237     68.6623E-03     76.8292E-03
             372            1238     89.3240E-03     98.4810E-03
             372            1252     62.3644E-03     73.0314E-03
             372            1253     83.4761E-03     94.7784E-03
             373            1238     89.3240E-03     98.4810E-03
             373            1239     110.747E-03     120.429E-03
             373            1253     83.4761E-03     94.7784E-03
             373            1254     104.894E-03     116.535E-03
             374            1239     110.747E-03     120.429E-03
             374            1240     132.577E-03     142.574E-03
             374            1254     104.894E-03     116.535E-03
             374            1255     126.600E-03     138.302E-03
             375            1240     132.577E-03     142.574E-03
             375            1241     154.824E-03     164.931E-03
             375            1255     126.600E-03     138.302E-03
             375            1256     148.553E-03     160.090E-03
             376            1241     154.824E-03     164.931E-03
             376            1242     177.472E-03     187.620E-03
             376            1256     148.553E-03     160.090E-03
             376            1257     170.965E-03     182.116E-03
             377            1242     177.472E-03     187.620E-03
             377            1243     200.883E-03     210.933E-03
             377            1257     170.965E-03     182.116E-03
             377            1258     193.976E-03     204.524E-03
             378            1243     200.883E-03     210.933E-03
             378            1244     225.321E-03     235.305E-03
             378            1258     193.976E-03     204.524E-03
             378            1259     218.218E-03     227.995E-03
             379            1244     225.321E-03     235.305E-03
             379            1245     251.849E-03     261.581E-03
             379            1259     218.218E-03     227.995E-03
             379            1260     244.104E-03     253.006E-03
             380            1245     251.849E-03     261.581E-03
             380            1246     281.551E-03     291.158E-03
             380            1260     244.104E-03     253.006E-03
             380            1261     273.530E-03     281.622E-03
             381            1246     281.551E-03     291.158E-03
             381            1247     316.917E-03     326.074E-03
             381            1261     273.530E-03     281.622E-03
             381            1262     307.540E-03     315.270E-03
             382            1247     316.917E-03     326.074E-03
             382            1248     365.388E-03     371.733E-03
             382            1262     307.540E-03     315.270E-03
             382            1263     353.633E-03     362.144E-03
             383            1248     365.388E-03     371.733E-03
             383            1249     417.911E-03     419.071E-03
             383            1263     353.633E-03     362.144E-03
             383            1264     423.581E-03     429.556E-03
             384              73     441.756E-03     439.906E-03
             384              74     465.274E-03     467.896E-03
             384            1249     417.911E-03     419.071E-03
             384            1264     423.581E-03     429.556E-03
             385             143     69.6439E-03     84.8773E-03
             385             144     16.9003E-03     20.8223E-03
             385            1250     24.5436E-03     30.7737E-03
             385            1265     79.3371E-03     90.0910E-03
             386            1250     24.5436E-03     30.7737E-03
             386            1251     42.0478E-03     51.4711E-03
             386            1265     79.3371E-03     90.0910E-03
             386            1266     97.6131E-03     103.044E-03
             387            1251     42.0478E-03     51.4711E-03
             387            1252     62.3644E-03     73.0314E-03
             387            1266     97.6131E-03     103.044E-03
             387            1267     116.018E-03     120.823E-03
             388            1252     62.3644E-03     73.0314E-03
             388            1253     83.4761E-03     94.7784E-03
             388            1267     116.018E-03     120.823E-03
             388            1268     136.147E-03     141.183E-03
             389            1253     83.4761E-03     94.7784E-03
             389            1254     104.894E-03     116.535E-03
             389            1268     136.147E-03     141.183E-03
             389            1269     157.605E-03     162.625E-03
             390            1254     104.894E-03     116.535E-03
             390            1255     126.600E-03     138.302E-03
             390            1269     157.605E-03     162.625E-03
             390            1270     179.968E-03     184.846E-03
             391            1255     126.600E-03     138.302E-03
             391            1256     148.553E-03     160.090E-03
             391            1270     179.968E-03     184.846E-03
             391            1271     203.011E-03     207.328E-03
             392            1256     148.553E-03     160.090E-03
             392            1257     170.965E-03     182.116E-03
             392            1271     203.011E-03     207.328E-03
             392            1272     226.420E-03     229.926E-03
             393            1257     170.965E-03     182.116E-03
             393            1258     193.976E-03     204.524E-03
             393            1272     226.420E-03     229.926E-03
             393            1273     250.203E-03     252.354E-03
             394            1258     193.976E-03     204.524E-03
             394            1259     218.218E-03     227.995E-03
             394            1273     250.203E-03     252.354E-03
             394            1274     274.151E-03     274.722E-03
             395            1259     218.218E-03     227.995E-03
             395            1260     244.104E-03     253.006E-03
             395            1274     274.151E-03     274.722E-03
             395            1275     298.656E-03     296.982E-03
             396            1260     244.104E-03     253.006E-03
             396            1261     273.530E-03     281.622E-03
             396            1275     298.656E-03     296.982E-03
             396            1276     323.523E-03     319.677E-03
             397            1261     273.530E-03     281.622E-03
             397            1262     307.540E-03     315.270E-03
             397            1276     323.523E-03     319.677E-03
             397            1277     350.231E-03     343.976E-03
             398            1262     307.540E-03     315.270E-03
             398            1263     353.633E-03     362.144E-03
             398            1277     350.231E-03     343.976E-03
             398            1278     378.479E-03     371.256E-03
             399            1263     353.633E-03     362.144E-03
             399            1264     423.581E-03     429.556E-03
             399            1278     378.479E-03     371.256E-03
             399            1279     417.206E-03     417.833E-03
             400              74     465.274E-03     467.896E-03
             400              75     442.287E-03     449.838E-03
             400            1264     423.581E-03     429.556E-03
             400            1279     417.206E-03     417.833E-03
             401             142     127.431E-03     144.526E-03
             401             143     69.6439E-03     84.8773E-03
             401            1265     79.3371E-03     90.0910E-03
             401            1280     132.845E-03     145.176E-03
             402            1265     79.3371E-03     90.0910E-03
             402            1266     97.6131E-03     103.044E-03
             402            1280     132.845E-03     145.176E-03
             402            1281     146.748E-03     150.875E-03
             403            1266     97.6131E-03     103.044E-03
             403            1267     116.018E-03     120.823E-03
             403            1281     146.748E-03     150.875E-03
             403            1282     165.262E-03     165.091E-03
             404            1267     116.018E-03     120.823E-03
             404            1268     136.147E-03     141.183E-03
             404            1282     165.262E-03     165.091E-03
             404            1283     186.419E-03     185.138E-03
             405            1268     136.147E-03     141.183E-03
             405            1269     157.605E-03     162.625E-03
             405            1283     186.419E-03     185.138E-03
             405            1284     209.788E-03     208.048E-03
             406            1269     157.605E-03     162.625E-03
             406            1270     179.968E-03     184.846E-03
             406            1284     209.788E-03     208.048E-03
             406            1285     234.857E-03     232.655E-03
             407            1270     179.968E-03     184.846E-03
             407            1271     203.011E-03     207.328E-03
             407            1285     234.857E-03     232.655E-03
             407            1286     260.839E-03     258.082E-03
             408            1271     203.011E-03     207.328E-03
             408            1272     226.420E-03     229.926E-03
             408            1286     260.839E-03     258.082E-03
             408            1287     287.333E-03     283.668E-03
             409            1272     226.420E-03     229.926E-03
             409            1273     250.203E-03     252.354E-03
             409            1287     287.333E-03     283.668E-03
             409            1288     313.746E-03     308.932E-03
             410            1273     250.203E-03     252.354E-03
             410            1274     274.151E-03     274.722E-03
             410            1288     313.746E-03     308.932E-03
             410            1289     339.662E-03     333.339E-03
             411            1274     274.151E-03     274.722E-03
             411            1275     298.656E-03     296.982E-03
             411            1289     339.662E-03     333.339E-03
             411            1290     364.475E-03     356.398E-03
             412            1275     298.656E-03     296.982E-03
             412            1276     323.523E-03     319.677E-03
             412            1290     364.475E-03     356.398E-03
             412            1291     387.541E-03     377.693E-03
             413            1276     323.523E-03     319.677E-03
             413            1277     350.231E-03     343.976E-03
             413            1291     387.541E-03     377.693E-03
             413            1292     407.795E-03     396.424E-03
             414            1277     350.231E-03     343.976E-03
             414            1278     378.479E-03     371.256E-03
             414            1292     407.795E-03     396.424E-03
             414            1293     423.677E-03     412.590E-03
             415            1278     378.479E-03     371.256E-03
             415            1279     417.206E-03     417.833E-03
             415            1293     423.677E-03     412.590E-03
             415            1294     433.427E-03     421.513E-03
             416              75     442.287E-03     449.838E-03
             416              76     436.450E-03     422.885E-03
             416            1279     417.206E-03     417.833E-03
             416            1294     433.427E-03     421.513E-03
             417             141     117.031E-03     119.584E-03
             417             142     127.431E-03     144.526E-03
             417            1280     132.845E-03     145.176E-03
             417            1295     119.391E-03     126.066E-03
             418            1280     132.845E-03     145.176E-03
             418            1281     146.748E-03     150.875E-03
             418            1295     119.391E-03     126.066E-03
             418            1296     130.956E-03     139.136E-03
             419            1281     146.748E-03     150.875E-03
             419            1282     165.262E-03     165.091E-03
             419            1296     130.956E-03     139.136E-03
             419            1297     152.164E-03     155.867E-03
             420            1282     165.262E-03     165.091E-03
             420            1283     186.419E-03     185.138E-03
             420            1297     152.164E-03     155.867E-03
             420            1298     177.142E-03     178.438E-03
             421            1283     186.419E-03     185.138E-03
             421            1284     209.788E-03     208.048E-03
             421            1298     177.142E-03     178.438E-03
             421            1299     204.138E-03     204.437E-03
             422            1284     209.788E-03     208.048E-03
             422            1285     234.857E-03     232.655E-03
             422            1299     204.138E-03     204.437E-03
             422            1300     232.595E-03     232.337E-03
             423            1285     234.857E-03     232.655E-03
             423            1286     260.839E-03     258.082E-03
             423            1300     232.595E-03     232.337E-03
             423            1301     261.954E-03     261.303E-03
             424            1286     260.839E-03     258.082E-03
             424            1287     287.333E-03     283.668E-03
             424            1301     261.954E-03     261.303E-03
             424            1302     291.731E-03     290.766E-03
             425            1287     287.333E-03     283.668E-03
             425            1288     313.746E-03     308.932E-03
             425            1302     291.731E-03     290.766E-03
             425            1303     321.533E-03     320.230E-03
             426            1288     313.746E-03     308.932E-03
             426            1289     339.662E-03     333.339E-03
             426            1303     321.533E-03     320.230E-03
             426            1304     350.800E-03     349.328E-03
             427            1289     339.662E-03     333.339E-03
             427            1290     364.475E-03     356.398E-03
             427            1304     350.800E-03     349.328E-03
             427            1305     378.893E-03     377.507E-03
             428            1290     364.475E-03     356.398E-03
             428            1291     387.541E-03     377.693E-03
             428            1305     378.893E-03     377.507E-03
             428            1306     405.005E-03     404.261E-03
             429            1291     387.541E-03     377.693E-03
             429            1292     407.795E-03     396.424E-03
             429            1306     405.005E-03     404.261E-03
             429            1307     427.741E-03     428.820E-03
             430            1292     407.795E-03     396.424E-03
             430            1293     423.677E-03     412.590E-03
             430            1307     427.741E-03     428.820E-03
             430            1308     446.402E-03     449.515E-03
             431            1293     423.677E-03     412.590E-03
             431            1294     433.427E-03     421.513E-03
             431            1308     446.402E-03     449.515E-03
             431            1309     461.991E-03     463.303E-03
             432              76     436.450E-03     422.885E-03
             432              77     469.318E-03     467.921E-03
             432            1294     433.427E-03     421.513E-03
             432            1309     461.991E-03     463.303E-03
             433             140     99.9989E-03     100.016E-03
             433             141     117.031E-03     119.584E-03
             433            1295     119.391E-03     126.066E-03
             433            1310     105.162E-03     107.572E-03
             434            1295     119.391E-03     126.066E-03
             434            1296     130.956E-03     139.136E-03
             434            1310     105.162E-03     107.572E-03
             434            1311     119.609E-03     125.703E-03
             435            1296     130.956E-03     139.136E-03
             435            1297     152.164E-03     155.867E-03
             435            1311     119.609E-03     125.703E-03
             435            1312     141.977E-03     147.983E-03
             436            1297     152.164E-03     155.867E-03
             436            1298     177.142E-03     178.438E-03
             436            1312     141.977E-03     147.983E-03
             436            1313     169.752E-03     173.602E-03
             437            1298     177.142E-03     178.438E-03
             437            1299     204.138E-03     204.437E-03
             437            1313     169.752E-03     173.602E-03
             437            1314     199.741E-03     202.510E-03
             438            1299     204.138E-03     204.437E-03
             438            1300     232.595E-03     232.337E-03
             438            1314     199.741E-03     202.510E-03
             438            1315     231.018E-03     233.245E-03
             439            1300     232.595E-03     232.337E-03
             439            1301     261.954E-03     261.303E-03
             439            1315     231.018E-03     233.245E-03
             439            1316     263.075E-03     265.172E-03
             440            1301     261.954E-03     261.303E-03
             440            1302     291.731E-03     290.766E-03
             440            1316     263.075E-03     265.172E-03
             440            1317     295.555E-03     297.749E-03
             441            1302     291.731E-03     290.766E-03
             441            1303     321.533E-03     320.230E-03
             441            1317     295.555E-03     297.749E-03
             441            1318     328.030E-03     330.643E-03
             442            1303     321.533E-03     320.230E-03
             442            1304     350.800E-03     349.328E-03
             442            1318     328.030E-03     330.643E-03
             442            1319     360.046E-03     363.352E-03
             443            1304     350.800E-03     349.328E-03
             443            1305     378.893E-03     377.507E-03
             443            1319     360.046E-03     363.352E-03
             443            1320     390.980E-03     395.413E-03
             444            1305     378.893E-03     377.507E-03
             444            1306     405.005E-03     404.261E-03
             444            1320     390.980E-03     395.413E-03
             444            1321     419.710E-03     425.916E-03
             445            1306     405.005E-03     404.261E-03
             445            1307     427.741E-03     428.820E-03
             445            1321     419.710E-03     425.916E-03
             445            1322     445.779E-03     453.609E-03
             446            1307     427.741E-03     428.820E-03
             446            1308     446.402E-03     449.515E-03
             446            1322     445.779E-03     453.609E-03
             446            1323     468.066E-03     476.332E-03
             447            1308     446.402E-03     449.515E-03
             447            1309     461.991E-03     463.303E-03
             447            1323     468.066E-03     476.332E-03
             447            1324     489.328E-03     494.237E-03
             448              77     469.318E-03     467.921E-03
             448              78     500.632E-03     502.462E-03
             448            1309     461.991E-03     463.303E-03
             448            1324     489.328E-03     494.237E-03
             449             139     86.0046E-03     86.6196E-03
             449             140     99.9989E-03     100.016E-03
             449            1310     105.162E-03     107.572E-03
             449            1325     91.7709E-03     94.1177E-03
             450            1310     105.162E-03     107.572E-03
             450            1311     119.609E-03     125.703E-03
             450            1325     91.7709E-03     94.1177E-03
             450            1326     108.726E-03     113.860E-03
             451            1311     119.609E-03     125.703E-03
             451            1312     141.977E-03     147.983E-03
             451            1326     108.726E-03     113.860E-03
             451            1327     133.867E-03     140.254E-03
             452            1312     141.977E-03     147.983E-03
             452            1313     169.752E-03     173.602E-03
             452            1327     133.867E-03     140.254E-03
             452            1328     163.528E-03     169.485E-03
             453            1313     169.752E-03     173.602E-03
             453            1314     199.741E-03     202.510E-03
             453            1328     163.528E-03     169.485E-03
             453            1329     195.746E-03     200.825E-03
             454            1314     199.741E-03     202.510E-03
             454            1315     231.018E-03     233.245E-03
             454            1329     195.746E-03     200.825E-03
             454            1330     229.090E-03     233.890E-03
             455            1315     231.018E-03     233.245E-03
             455            1316     263.075E-03     265.172E-03
             455            1330     229.090E-03     233.890E-03
             455            1331     263.166E-03     268.019E-03
             456            1316     263.075E-03     265.172E-03
             456            1317     295.555E-03     297.749E-03
             456            1331     263.166E-03     268.019E-03
             456            1332     297.600E-03     302.938E-03
             457            1317     295.555E-03     297.749E-03
             457            1318     328.030E-03     330.643E-03
             457            1332     297.600E-03     302.938E-03
             457            1333     332.181E-03     338.295E-03
             458            1318     328.030E-03     330.643E-03
             458            1319     360.046E-03     363.352E-03
             458            1333     332.181E-03     338.295E-03
             458            1334     366.457E-03     373.751E-03
             459            1319     360.046E-03     363.352E-03
             459            1320     390.980E-03     395.413E-03
             459            1334     366.457E-03     373.751E-03
             459            1335     399.834E-03     408.591E-03
             460            1320     390.980E-03     395.413E-03
             460            1321     419.710E-03     425.916E-03
             460            1335     399.834E-03     408.591E-03
             460            1336     431.751E-03     441.843E-03
             461            1321     419.710E-03     425.916E-03
             461            1322     445.779E-03     453.609E-03
             461            1336     431.751E-03     441.843E-03
             461            1337     460.947E-03     471.888E-03
             462            1322     445.779E-03     453.609E-03
             462            1323     468.066E-03     476.332E-03
             462            1337     460.947E-03     471.888E-03
             462            1338     488.102E-03     497.277E-03
             463            1323     468.066E-03     476.332E-03
             463            1324     489.328E-03     494.237E-03
             463            1338     488.102E-03     497.277E-03
             463            1339     514.017E-03     518.308E-03
             464              78     500.632E-03     502.462E-03
             464              79     526.545E-03     527.890E-03
             464            1324     489.328E-03     494.237E-03
             464            1339     514.017E-03     518.308E-03
             465             138     72.0389E-03     70.8190E-03
             465             139     86.0046E-03     86.6196E-03
             465            1325     91.7709E-03     94.1177E-03
             465            1340     79.1102E-03     80.8728E-03
             466            1325     91.7709E-03     94.1177E-03
             466            1326     108.726E-03     113.860E-03
             466            1340     79.1102E-03     80.8728E-03
             466            1341     98.5899E-03     104.288E-03
             467            1326     108.726E-03     113.860E-03
             467            1327     133.867E-03     140.254E-03
             467            1341     98.5899E-03     104.288E-03
             467            1342     126.205E-03     133.150E-03
             468            1327     133.867E-03     140.254E-03
             468            1328     163.528E-03     169.485E-03
             468            1342     126.205E-03     133.150E-03
             468            1343     157.844E-03     165.100E-03
             469            1328     163.528E-03     169.485E-03
             469            1329     195.746E-03     200.825E-03
             469            1343     157.844E-03     165.100E-03
             469            1344     191.459E-03     198.559E-03
             470            1329     195.746E-03     200.825E-03
             470            1330     229.090E-03     233.890E-03
             470            1344     191.459E-03     198.559E-03
             470            1345     226.219E-03     233.222E-03
             471            1330     229.090E-03     233.890E-03
             471            1331     263.166E-03     268.019E-03
             471            1345     226.219E-03     233.222E-03
             471            1346     261.558E-03     268.876E-03
             472            1331     263.166E-03     268.019E-03
             472            1332     297.600E-03     302.938E-03
             472            1346     261.558E-03     268.876E-03
             472            1347     297.359E-03     305.308E-03
             473            1332     297.600E-03     302.938E-03
             473            1333     332.181E-03     338.295E-03
             473            1347     297.359E-03     305.308E-03
             473            1348     333.363E-03     342.325E-03
             474            1333     332.181E-03     338.295E-03
             474            1334     366.457E-03     373.751E-03
             474            1348     333.363E-03     342.325E-03
             474            1349     369.532E-03     379.682E-03
             475            1334     366.457E-03     373.751E-03
             475            1335     399.834E-03     408.591E-03
             475            1349     369.532E-03     379.682E-03
             475            1350     405.381E-03     416.836E-03
             476            1335     399.834E-03     408.591E-03
             476            1336     431.751E-03     441.843E-03
             476            1350     405.381E-03     416.836E-03
             476            1351     440.345E-03     452.651E-03
             477            1336     431.751E-03     441.843E-03
             477            1337     460.947E-03     471.888E-03
             477            1351     440.345E-03     452.651E-03
             477            1352     474.002E-03     485.692E-03
             478            1337     460.947E-03     471.888E-03
             478            1338     488.102E-03     497.277E-03
             478            1352     474.002E-03     485.692E-03
             478            1353     505.444E-03     514.895E-03
             479            1338     488.102E-03     497.277E-03
             479            1339     514.017E-03     518.308E-03
             479            1353     505.444E-03     514.895E-03
             479            1354     535.810E-03     540.800E-03
             480              79     526.545E-03     527.890E-03
             480              80     551.072E-03     553.110E-03
             480            1339     514.017E-03     518.308E-03
             480            1354     535.810E-03     540.800E-03
             481             137     57.9296E-03     58.3116E-03
             481             138     72.0389E-03     70.8190E-03
             481            1340     79.1102E-03     80.8728E-03
             481            1355     66.4711E-03     69.1598E-03
             482            1340     79.1102E-03     80.8728E-03
             482            1341     98.5899E-03     104.288E-03
             482            1355     66.4711E-03     69.1598E-03
             482            1356     88.9112E-03     95.2004E-03
             483            1341     98.5899E-03     104.288E-03
             483            1342     126.205E-03     133.150E-03
             483            1356     88.9112E-03     95.2004E-03
             483            1357     118.833E-03     126.767E-03
             484            1342     126.205E-03     133.150E-03
             484            1343     157.844E-03     165.100E-03
             484            1357     118.833E-03     126.767E-03
             484            1358     151.950E-03     160.342E-03
             485            1343     157.844E-03     165.100E-03
             485            1344     191.459E-03     198.559E-03
             485            1358     151.950E-03     160.342E-03
             485            1359     186.593E-03     195.188E-03
             486            1344     191.459E-03     198.559E-03
             486            1345     226.219E-03     233.222E-03
             486            1359     186.593E-03     195.188E-03
             486            1360     222.056E-03     230.848E-03
             487            1345     226.219E-03     233.222E-03
             487            1346     261.558E-03     268.876E-03
             487            1360     222.056E-03     230.848E-03
             487            1361     258.089E-03     267.315E-03
             488            1346     261.558E-03     268.876E-03
             488            1347     297.359E-03     305.308E-03
             488            1361     258.089E-03     267.315E-03
             488            1362     294.545E-03     304.478E-03
             489            1347     297.359E-03     305.308E-03
             489            1348     333.363E-03     342.325E-03
             489            1362     294.545E-03     304.478E-03
             489            1363     331.523E-03     342.418E-03
             490            1348     333.363E-03     342.325E-03
             490            1349     369.532E-03     379.682E-03
             490            1363     331.523E-03     342.418E-03
             490            1364     368.899E-03     380.948E-03
             491            1349     369.532E-03     379.682E-03
             491            1350     405.381E-03     416.836E-03
             491            1364     368.899E-03     380.948E-03
             491            1365     407.116E-03     420.003E-03
             492            1350     405.381E-03     416.836E-03
             492            1351     440.345E-03     452.651E-03
             492            1365     407.116E-03     420.003E-03
             492            1366     445.567E-03     458.887E-03
             493            1351     440.345E-03     452.651E-03
             493            1352     474.002E-03     485.692E-03
             493            1366     445.567E-03     458.887E-03
             493            1367     483.744E-03     496.122E-03
             494            1352     474.002E-03     485.692E-03
             494            1353     505.444E-03     514.895E-03
             494            1367     483.744E-03     496.122E-03
             494            1368     521.028E-03     530.259E-03
             495            1353     505.444E-03     514.895E-03
             495            1354     535.810E-03     540.800E-03
             495            1368     521.028E-03     530.259E-03
             495            1369     555.740E-03     561.661E-03
             496              80     551.072E-03     553.110E-03
             496              81     572.376E-03     577.032E-03
             496            1354     535.810E-03     540.800E-03
             496            1369     555.740E-03     561.661E-03
             497             136     43.7528E-03     44.4655E-03
             497             137     57.9296E-03     58.3116E-03
             497            1355     66.4711E-03     69.1598E-03
             497            1370     54.1142E-03     57.8137E-03
             498            1355     66.4711E-03     69.1598E-03
             498            1356     88.9112E-03     95.2004E-03
             498            1370     54.1142E-03     57.8137E-03
             498            1371     79.6672E-03     87.2814E-03
             499            1356     88.9112E-03     95.2004E-03
             499            1357     118.833E-03     126.767E-03
             499            1371     79.6672E-03     87.2814E-03
             499            1372     111.653E-03     120.617E-03
             500            1357     118.833E-03     126.767E-03
             500            1358     151.950E-03     160.342E-03
             500            1372     111.653E-03     120.617E-03
             500            1373     145.830E-03     155.334E-03
             501            1358     151.950E-03     160.342E-03
             501            1359     186.593E-03     195.188E-03
             501            1373     145.830E-03     155.334E-03
             501            1374     180.982E-03     190.765E-03
             502            1359     186.593E-03     195.188E-03
             502            1360     222.056E-03     230.848E-03
             502            1374     180.982E-03     190.765E-03
             502            1375     216.659E-03     226.834E-03
             503            1360     222.056E-03     230.848E-03
             503            1361     258.089E-03     267.315E-03
             503            1375     216.659E-03     226.834E-03
             503            1376     252.797E-03     263.389E-03
             504            1361     258.089E-03     267.315E-03
             504            1362     294.545E-03     304.478E-03
             504            1376     252.797E-03     263.389E-03
             504            1377     289.399E-03     300.646E-03
             505            1362     294.545E-03     304.478E-03
             505            1363     331.523E-03     342.418E-03
             505            1377     289.399E-03     300.646E-03
             505            1378     326.602E-03     338.618E-03
             506            1363     331.523E-03     342.418E-03
             506            1364     368.899E-03     380.948E-03
             506            1378     326.602E-03     338.618E-03
             506            1379     364.834E-03     377.717E-03
             507            1364     368.899E-03     380.948E-03
             507            1365     407.116E-03     420.003E-03
             507            1379     364.834E-03     377.717E-03
             507            1380     404.221E-03     417.907E-03
             508            1365     407.116E-03     420.003E-03
             508            1366     445.567E-03     458.887E-03
             508            1380     404.221E-03     417.907E-03
             508            1381     446.363E-03     459.794E-03
             509            1366     445.567E-03     458.887E-03
             509            1367     483.744E-03     496.122E-03
             509            1381     446.363E-03     459.794E-03
             509            1382     490.064E-03     502.625E-03
             510            1367     483.744E-03     496.122E-03
             510            1368     521.028E-03     530.259E-03
             510            1382     490.064E-03     502.625E-03
             510            1383     533.471E-03     543.988E-03
             511            1368     521.028E-03     530.259E-03
             511            1369     555.740E-03     561.661E-03
             511            1383     533.471E-03     543.988E-03
             511            1384     575.659E-03     580.577E-03
             512              81     572.376E-03     577.032E-03
             512              82     595.987E-03     596.970E-03
             512            1369     555.740E-03     561.661E-03
             512            1384     575.659E-03     580.577E-03
             513             135     29.2526E-03     32.5506E-03
             513             136     43.7528E-03     44.4655E-03
             513            1370     54.1142E-03     57.8137E-03
             513            1385     42.0459E-03     48.1498E-03
             514            1370     54.1142E-03     57.8137E-03
             514            1371     79.6672E-03     87.2814E-03
             514            1385     42.0459E-03     48.1498E-03
             514            1386     71.3230E-03     80.7474E-03
             515            1371     79.6672E-03     87.2814E-03
             515            1372     111.653E-03     120.617E-03
             515            1386     71.3230E-03     80.7474E-03
             515            1387     105.037E-03     115.088E-03
             516            1372     111.653E-03     120.617E-03
             516            1373     145.830E-03     155.334E-03
             516            1387     105.037E-03     115.088E-03
             516            1388     139.753E-03     150.249E-03
             517            1373     145.830E-03     155.334E-03
             517            1374     180.982E-03     190.765E-03
             517            1388     139.753E-03     150.249E-03
             517            1389     174.840E-03     185.828E-03
             518            1374     180.982E-03     190.765E-03
             518            1375     216.659E-03     226.834E-03
             518            1389     174.840E-03     185.828E-03
             518            1390     210.312E-03     221.579E-03
             519            1375     216.659E-03     226.834E-03
             519            1376     252.797E-03     263.389E-03
             519            1390     210.312E-03     221.579E-03
             519            1391     246.072E-03     257.706E-03
             520            1376     252.797E-03     263.389E-03
             520            1377     289.399E-03     300.646E-03
             520            1391     246.072E-03     257.706E-03
             520            1392     282.322E-03     294.272E-03
             521            1377     289.399E-03     300.646E-03
             521            1378     326.602E-03     338.618E-03
             521            1392     282.322E-03     294.272E-03
             521            1393     319.232E-03     331.670E-03
             522            1378     326.602E-03     338.618E-03
             522            1379     364.834E-03     377.717E-03
             522            1393     319.232E-03     331.670E-03
             522            1394     357.329E-03     370.191E-03
             523            1379     364.834E-03     377.717E-03
             523            1380     404.221E-03     417.907E-03
             523            1394     357.329E-03     370.191E-03
             523            1395     397.496E-03     410.798E-03
             524            1380     404.221E-03     417.907E-03
             524            1381     446.363E-03     459.794E-03
             524            1395     397.496E-03     410.798E-03
             524            1396     440.501E-03     454.029E-03
             525            1381     446.363E-03     459.794E-03
             525            1382     490.064E-03     502.625E-03
             525            1396     440.501E-03     454.029E-03
             525            1397     490.349E-03     502.286E-03
             526            1382     490.064E-03     502.625E-03
             526            1383     533.471E-03     543.988E-03
             526            1397     490.349E-03     502.286E-03
             526            1398     543.669E-03     553.194E-03
             527            1383     533.471E-03     543.988E-03
             527            1384     575.659E-03     580.577E-03
             527            1398     543.669E-03     553.194E-03
             527            1399     592.521E-03     601.218E-03
             528              82     595.987E-03     596.970E-03
             528              83     615.515E-03     624.413E-03
             528            1384     575.659E-03     580.577E-03
             528            1399     592.521E-03     601.218E-03
             529             134     16.0572E-03     26.5496E-03
             529             135     29.2526E-03     32.5506E-03
             529            1385     42.0459E-03     48.1498E-03
             529            1400     32.2127E-03     42.7676E-03
             530            1385     42.0459E-03     48.1498E-03
             530            1386     71.3230E-03     80.7474E-03
             530            1400     32.2127E-03     42.7676E-03
             530            1401     65.5306E-03     76.0868E-03
             531            1386     71.3230E-03     80.7474E-03
             531            1387     105.037E-03     115.088E-03
             531            1401     65.5306E-03     76.0868E-03
             531            1402     99.8012E-03     110.873E-03
             532            1387     105.037E-03     115.088E-03
             532            1388     139.753E-03     150.249E-03
             532            1402     99.8012E-03     110.873E-03
             532            1403     134.135E-03     145.992E-03
             533            1388     139.753E-03     150.249E-03
             533            1389     174.840E-03     185.828E-03
             533            1403     134.135E-03     145.992E-03
             533            1404     168.753E-03     180.985E-03
             534            1389     174.840E-03     185.828E-03
             534            1390     210.312E-03     221.579E-03
             534            1404     168.753E-03     180.985E-03
             534            1405     203.517E-03     215.996E-03
             535            1390     210.312E-03     221.579E-03
             535            1391     246.072E-03     257.706E-03
             535            1405     203.517E-03     215.996E-03
             535            1406     238.596E-03     251.084E-03
             536            1391     246.072E-03     257.706E-03
             536            1392     282.322E-03     294.272E-03
             536            1406     238.596E-03     251.084E-03
             536            1407     274.020E-03     286.462E-03
             537            1392     282.322E-03     294.272E-03
             537            1393     319.232E-03     331.670E-03
             537            1407     274.020E-03     286.462E-03
             537            1408     310.238E-03     322.467E-03
             538            1393     319.232E-03     331.670E-03
             538            1394     357.329E-03     370.191E-03
             538            1408     310.238E-03     322.467E-03
             538            1409     347.547E-03     359.647E-03
             539            1394     357.329E-03     370.191E-03
             539            1395     397.496E-03     410.798E-03
             539            1409     347.547E-03     359.647E-03
             539            1410     387.134E-03     398.947E-03
             540            1395     397.496E-03     410.798E-03
             540            1396     440.501E-03     454.029E-03
             540            1410     387.134E-03     398.947E-03
             540            1411     430.242E-03     442.028E-03
             541            1396     440.501E-03     454.029E-03
             541            1397     490.349E-03     502.286E-03
             541            1411     430.242E-03     442.028E-03
             541            1412     479.552E-03     491.176E-03
             542            1397     490.349E-03     502.286E-03
             542            1398     543.669E-03     553.194E-03
             542            1412     479.552E-03     491.176E-03
             542            1413     543.972E-03     552.521E-03
             543            1398     543.669E-03     553.194E-03
             543            1399     592.521E-03     601.218E-03
             543            1413     543.972E-03     552.521E-03
             543            1414     611.531E-03     613.386E-03
             544              83     615.515E-03     624.413E-03
             544              84     641.650E-03     639.352E-03
             544            1399     592.521E-03     601.218E-03
             544            1414     611.531E-03     613.386E-03
             545             133     16.0741E-03     28.0156E-03
             545             134     16.0572E-03     26.5496E-03
             545            1400     32.2127E-03     42.7676E-03
             545            1415     32.1896E-03     43.0188E-03
             546            1400     32.2127E-03     42.7676E-03
             546            1401     65.5306E-03     76.0868E-03
             546            1415     32.1896E-03     43.0188E-03
             546            1416     64.2890E-03     75.1665E-03
             547            1401     65.5306E-03     76.0868E-03
             547            1402     99.8012E-03     110.873E-03
             547            1416     64.2890E-03     75.1665E-03
             547            1417     96.7844E-03     109.356E-03
             548            1402     99.8012E-03     110.873E-03
             548            1403     134.135E-03     145.992E-03
             548            1417     96.7844E-03     109.356E-03
             548            1418     129.974E-03     143.441E-03
             549            1403     134.135E-03     145.992E-03
             549            1404     168.753E-03     180.985E-03
             549            1418     129.974E-03     143.441E-03
             549            1419     163.403E-03     177.339E-03
             550            1404     168.753E-03     180.985E-03
             550            1405     203.517E-03     215.996E-03
             550            1419     163.403E-03     177.339E-03
             550            1420     197.131E-03     211.098E-03
             551            1405     203.517E-03     215.996E-03
             551            1406     238.596E-03     251.084E-03
             551            1420     197.131E-03     211.098E-03
             551            1421     231.093E-03     244.747E-03
             552            1406     238.596E-03     251.084E-03
             552            1407     274.020E-03     286.462E-03
             552            1421     231.093E-03     244.747E-03
             552            1422     265.544E-03     278.529E-03
             553            1407     274.020E-03     286.462E-03
             553            1408     310.238E-03     322.467E-03
             553            1422     265.544E-03     278.529E-03
             553            1423     300.606E-03     312.600E-03
             554            1408     310.238E-03     322.467E-03
             554            1409     347.547E-03     359.647E-03
             554            1423     300.606E-03     312.600E-03
             554            1424     336.997E-03     347.722E-03
             555            1409     347.547E-03     359.647E-03
             555            1410     387.134E-03     398.947E-03
             555            1424     336.997E-03     347.722E-03
             555            1425     375.118E-03     384.406E-03
             556            1410     387.134E-03     398.947E-03
             556            1411     430.242E-03     442.028E-03
             556            1425     375.118E-03     384.406E-03
             556            1426     417.138E-03     425.067E-03
             557            1411     430.242E-03     442.028E-03
             557            1412     479.552E-03     491.176E-03
             557            1426     417.138E-03     425.067E-03
             557            1427     464.097E-03     471.257E-03
             558            1412     479.552E-03     491.176E-03
             558            1413     543.972E-03     552.521E-03
             558            1427     464.097E-03     471.257E-03
             558            1428     524.730E-03     532.867E-03
             559            1413     543.972E-03     552.521E-03
             559            1414     611.531E-03     613.386E-03
             559            1428     524.730E-03     532.867E-03
             559            1429     612.396E-03     617.137E-03
             560              84     641.650E-03     639.352E-03
             560              85     663.693E-03     663.925E-03
             560            1414     611.531E-03     613.386E-03
             560            1429     612.396E-03     617.137E-03
             561             132     86.2452E-03     103.344E-03
             561             133     16.0741E-03     28.0156E-03
             561            1415     32.1896E-03     43.0188E-03
             561            1430     99.7986E-03     111.308E-03
             562            1415     32.1896E-03     43.0188E-03
             562            1416     64.2890E-03     75.1665E-03
             562            1430     99.7986E-03     111.308E-03
             562            1431     126.278E-03     131.933E-03
             563            1416     64.2890E-03     75.1665E-03
             563            1417     96.7844E-03     109.356E-03
             563            1431     126.278E-03     131.933E-03
             563            1432     154.035E-03     159.893E-03
             564            1417     96.7844E-03     109.356E-03
             564            1418     129.974E-03     143.441E-03
             564            1432     154.035E-03     159.893E-03
             564            1433     184.662E-03     191.347E-03
             565            1418     129.974E-03     143.441E-03
             565            1419     163.403E-03     177.339E-03
             565            1433     184.662E-03     191.347E-03
             565            1434     217.191E-03     224.163E-03
             566            1419     163.403E-03     177.339E-03
             566            1420     197.131E-03     211.098E-03
             566            1434     217.191E-03     224.163E-03
             566            1435     250.953E-03     257.886E-03
             567            1420     197.131E-03     211.098E-03
             567            1421     231.093E-03     244.747E-03
             567            1435     250.953E-03     257.886E-03
             567            1436     285.580E-03     291.874E-03
             568            1421     231.093E-03     244.747E-03
             568            1422     265.544E-03     278.529E-03
             568            1436     285.580E-03     291.874E-03
             568            1437     320.614E-03     325.873E-03
             569            1422     265.544E-03     278.529E-03
             569            1423     300.606E-03     312.600E-03
             569            1437     320.614E-03     325.873E-03
             569            1438     356.192E-03     359.651E-03
             570            1423     300.606E-03     312.600E-03
             570            1424     336.997E-03     347.722E-03
             570            1438     356.192E-03     359.651E-03
             570            1439     391.839E-03     393.135E-03
             571            1424     336.997E-03     347.722E-03
             571            1425     375.118E-03     384.406E-03
             571            1439     391.839E-03     393.135E-03
             571            1440     428.382E-03     426.500E-03
             572            1425     375.118E-03     384.406E-03
             572            1426     417.138E-03     425.067E-03
             572            1440     428.382E-03     426.500E-03
             572            1441     465.150E-03     460.183E-03
             573            1426     417.138E-03     425.067E-03
             573            1427     464.097E-03     471.257E-03
             573            1441     465.150E-03     460.183E-03
             573            1442     504.535E-03     495.983E-03
             574            1427     464.097E-03     471.257E-03
             574            1428     524.730E-03     532.867E-03
             574            1442     504.535E-03     495.983E-03
             574            1443     545.744E-03     535.672E-03
             575            1428     524.730E-03     532.867E-03
             575            1429     612.396E-03     617.137E-03
             575            1443     545.744E-03     535.672E-03
             575            1444     601.101E-03     602.122E-03
             576              85     663.693E-03     663.925E-03
             576              86     636.907E-03     647.587E-03
             576            1429     612.396E-03     617.137E-03
             576            1444     601.101E-03     602.122E-03
             577             131     145.604E-03     166.272E-03
             577             132     86.2452E-03     103.344E-03
             577            1430     99.7986E-03     111.308E-03
             577            1445     153.861E-03     168.593E-03
             578            1430     99.7986E-03     111.308E-03
             578            1431     126.278E-03     131.933E-03
             578            1445     153.861E-03     168.593E-03
             578            1446     174.818E-03     180.048E-03
             579            1431     126.278E-03     131.933E-03
             579            1432     154.035E-03     159.893E-03
             579            1446     174.818E-03     180.048E-03
             579            1447     202.634E-03     203.641E-03
             580            1432     154.035E-03     159.893E-03
             580            1433     184.662E-03     191.347E-03
             580            1447     202.634E-03     203.641E-03
             580            1448     234.404E-03     234.662E-03
             581            1433     184.662E-03     191.347E-03
             581            1434     217.191E-03     224.163E-03
             581            1448     234.404E-03     234.662E-03
             581            1449     269.139E-03     269.212E-03
             582            1434     217.191E-03     224.163E-03
             582            1435     250.953E-03     257.886E-03
             582            1449     269.139E-03     269.212E-03
             582            1450     305.935E-03     305.769E-03
             583            1435     250.953E-03     257.886E-03
             583            1436     285.580E-03     291.874E-03
             583            1450     305.935E-03     305.769E-03
             583            1451     343.903E-03     343.182E-03
             584            1436     285.580E-03     291.874E-03
             584            1437     320.614E-03     325.873E-03
             584            1451     343.903E-03     343.182E-03
             584            1452     382.497E-03     380.877E-03
             585            1437     320.614E-03     325.873E-03
             585            1438     356.192E-03     359.651E-03
             585            1452     382.497E-03     380.877E-03
             585            1453     421.113E-03     418.118E-03
             586            1438     356.192E-03     359.651E-03
             586            1439     391.839E-03     393.135E-03
             586            1453     421.113E-03     418.118E-03
             586            1454     459.418E-03     454.594E-03
             587            1439     391.839E-03     393.135E-03
             587            1440     428.382E-03     426.500E-03
             587            1454     459.418E-03     454.594E-03
             587            1455     496.572E-03     489.584E-03
             588            1440     428.382E-03     426.500E-03
             588            1441     465.150E-03     460.183E-03
             588            1455     496.572E-03     489.584E-03
             588            1456     532.463E-03     523.015E-03
             589            1441     465.150E-03     460.183E-03
             589            1442     504.535E-03     495.983E-03
             589            1456     532.463E-03     523.015E-03
             589            1457     565.468E-03     554.178E-03
             590            1442     504.535E-03     495.983E-03
             590            1443     545.744E-03     535.672E-03
             590            1457     565.468E-03     554.178E-03
             590            1458     595.571E-03     584.453E-03
             591            1443     545.744E-03     535.672E-03
             591            1444     601.101E-03     602.122E-03
             591            1458     595.571E-03     584.453E-03
             591            1459     622.180E-03     609.318E-03
             592              86     636.907E-03     647.587E-03
             592              87     633.920E-03     618.540E-03
             592            1444     601.101E-03     602.122E-03
             592            1459     622.180E-03     609.318E-03
             593             130     129.282E-03     133.471E-03
             593             131     145.604E-03     166.272E-03
             593            1445     153.861E-03     168.593E-03
             593            1460     134.190E-03     143.330E-03
             594            1445     153.861E-03     168.593E-03
             594            1446     174.818E-03     180.048E-03
             594            1460     134.190E-03     143.330E-03
             594            1461     153.490E-03     164.298E-03
             595            1446     174.818E-03     180.048E-03
             595            1447     202.634E-03     203.641E-03
             595            1461     153.490E-03     164.298E-03
             595            1462     185.708E-03     191.343E-03
             596            1447     202.634E-03     203.641E-03
             596            1448     234.404E-03     234.662E-03
             596            1462     185.708E-03     191.343E-03
             596            1463     222.618E-03     225.895E-03
             597            1448     234.404E-03     234.662E-03
             597            1449     269.139E-03     269.212E-03
             597            1463     222.618E-03     225.895E-03
             597            1464     261.894E-03     264.356E-03
             598            1449     269.139E-03     269.212E-03
             598            1450     305.935E-03     305.769E-03
             598            1464     261.894E-03     264.356E-03
             598            1465     302.887E-03     304.883E-03
             599            1450     305.935E-03     305.769E-03
             599            1451     343.903E-03     343.182E-03
             599            1465     302.887E-03     304.883E-03
             599            1466     344.849E-03     346.608E-03
             600            1451     343.903E-03     343.182E-03
             600            1452     382.497E-03     380.877E-03
             600            1466     344.849E-03     346.608E-03
             600            1467     387.430E-03     388.881E-03
             601            1452     382.497E-03     380.877E-03
             601            1453     421.113E-03     418.118E-03
             601            1467     387.430E-03     388.881E-03
             601            1468     430.163E-03     431.372E-03
             602            1453     421.113E-03     418.118E-03
             602            1454     459.418E-03     454.594E-03
             602            1468     430.163E-03     431.372E-03
             602            1469     472.564E-03     473.640E-03
             603            1454     459.418E-03     454.594E-03
             603            1455     496.572E-03     489.584E-03
             603            1469     472.564E-03     473.640E-03
             603            1470     514.147E-03     515.330E-03
             604            1455     496.572E-03     489.584E-03
             604            1456     532.463E-03     523.015E-03
             604            1470     514.147E-03     515.330E-03
             604            1471     553.859E-03     556.015E-03
             605            1456     532.463E-03     523.015E-03
             605            1457     565.468E-03     554.178E-03
             605            1471     553.859E-03     556.015E-03
             605            1472     590.949E-03     594.986E-03
             606            1457     565.468E-03     554.178E-03
             606            1458     595.571E-03     584.453E-03
             606            1472     590.949E-03     594.986E-03
             606            1473     625.279E-03     631.377E-03
             607            1458     595.571E-03     584.453E-03
             607            1459     622.180E-03     609.318E-03
             607            1473     625.279E-03     631.377E-03
             607            1474     655.590E-03     658.053E-03
             608              87     633.920E-03     618.540E-03
             608              88     669.445E-03     667.308E-03
             608            1459     622.180E-03     609.318E-03
             608            1474     655.590E-03     658.053E-03
             609             129     105.215E-03     106.722E-03
             609             130     129.282E-03     133.471E-03
             609            1460     134.190E-03     143.330E-03
             609            1475     113.914E-03     118.748E-03
             610            1460     134.190E-03     143.330E-03
             610            1461     153.490E-03     164.298E-03
             610            1475     113.914E-03     118.748E-03
             610            1476     137.709E-03     147.057E-03
             611            1461     153.490E-03     164.298E-03
             611            1462     185.708E-03     191.343E-03
             611            1476     137.709E-03     147.057E-03
             611            1477     172.405E-03     181.276E-03
             612            1462     185.708E-03     191.343E-03
             612            1463     222.618E-03     225.895E-03
             612            1477     172.405E-03     181.276E-03
             612            1478     213.197E-03     219.606E-03
             613            1463     222.618E-03     225.895E-03
             613            1464     261.894E-03     264.356E-03
             613            1478     213.197E-03     219.606E-03
             613            1479     256.260E-03     261.547E-03
             614            1464     261.894E-03     264.356E-03
             614            1465     302.887E-03     304.883E-03
             614            1479     256.260E-03     261.547E-03
             614            1480     300.536E-03     305.395E-03
             615            1465     302.887E-03     304.883E-03
             615            1466     344.849E-03     346.608E-03
             615            1480     300.536E-03     305.395E-03
             615            1481     345.708E-03     350.517E-03
             616            1466     344.849E-03     346.608E-03
             616            1467     387.430E-03     388.881E-03
             616            1481     345.708E-03     350.517E-03
             616            1482     391.320E-03     396.468E-03
             617            1467     387.430E-03     388.881E-03
             617            1468     430.163E-03     431.372E-03
             617            1482     391.320E-03     396.468E-03
             617            1483     437.269E-03     443.010E-03
             618            1468     430.163E-03     431.372E-03
             618            1469     472.564E-03     473.640E-03
             618            1483     437.269E-03     443.010E-03
             618            1484     482.981E-03     489.819E-03
             619            1469     472.564E-03     473.640E-03
             619            1470     514.147E-03     515.330E-03
             619            1484     482.981E-03     489.819E-03
             619            1485     528.093E-03     536.463E-03
             620            1470     514.147E-03     515.330E-03
             620            1471     553.859E-03     556.015E-03
             620            1485     528.093E-03     536.463E-03
             620            1486     571.535E-03     582.036E-03
             621            1471     553.859E-03     556.015E-03
             621            1472     590.949E-03     594.986E-03
             621            1486     571.535E-03     582.036E-03
             621            1487     612.744E-03     625.318E-03
             622            1472     590.949E-03     594.986E-03
             622            1473     625.279E-03     631.377E-03
             622            1487     612.744E-03     625.318E-03
             622            1488     650.533E-03     662.624E-03
             623            1473     625.279E-03     631.377E-03
             623            1474     655.590E-03     658.053E-03
             623            1488     650.533E-03     662.624E-03
             623            1489     684.337E-03     692.621E-03
             624              88     669.445E-03     667.308E-03
             624              89     700.623E-03     706.271E-03
             624            1474     655.590E-03     658.053E-03
             624            1489     684.337E-03     692.621E-03
             625             128     84.7054E-03     87.2654E-03
             625             129     105.215E-03     106.722E-03
             625            1475     113.914E-03     118.748E-03
             625            1490     95.0643E-03     100.161E-03
             626            1475     113.914E-03     118.748E-03
             626            1476     137.709E-03     147.057E-03
             626            1490     95.0643E-03     100.161E-03
             626            1491     123.213E-03     132.106E-03
             627            1476     137.709E-03     147.057E-03
             627            1477     172.405E-03     181.276E-03
             627            1491     123.213E-03     132.106E-03
             627            1492     161.931E-03     171.907E-03
             628            1477     172.405E-03     181.276E-03
             628            1478     213.197E-03     219.606E-03
             628            1492     161.931E-03     171.907E-03
             628            1493     205.417E-03     214.441E-03
             629            1478     213.197E-03     219.606E-03
             629            1479     256.260E-03     261.547E-03
             629            1493     205.417E-03     214.441E-03
             629            1494     251.106E-03     259.114E-03
             630            1479     256.260E-03     261.547E-03
             630            1480     300.536E-03     305.395E-03
             630            1494     251.106E-03     259.114E-03
             630            1495     297.774E-03     305.472E-03
             631            1480     300.536E-03     305.395E-03
             631            1481     345.708E-03     350.517E-03
             631            1495     297.774E-03     305.472E-03
             631            1496     345.037E-03     352.942E-03
             632            1481     345.708E-03     350.517E-03
             632            1482     391.320E-03     396.468E-03
             632            1496     345.037E-03     352.942E-03
             632            1497     392.860E-03     401.437E-03
             633            1482     391.320E-03     396.468E-03
             633            1483     437.269E-03     443.010E-03
             633            1497     392.860E-03     401.437E-03
             633            1498     440.871E-03     450.690E-03
             634            1483     437.269E-03     443.010E-03
             634            1484     482.981E-03     489.819E-03
             634            1498     440.871E-03     450.690E-03
             634            1499     489.281E-03     500.631E-03
             635            1484     482.981E-03     489.819E-03
             635            1485     528.093E-03     536.463E-03
             635            1499     489.281E-03     500.631E-03
             635            1500     537.174E-03     550.706E-03
             636            1485     528.093E-03     536.463E-03
             636            1486     571.535E-03     582.036E-03
             636            1500     537.174E-03     550.706E-03
             636            1501     584.407E-03     599.758E-03
             637            1486     571.535E-03     582.036E-03
             637            1487     612.744E-03     625.318E-03
             637            1501     584.407E-03     599.758E-03
             637            1502     629.525E-03     645.466E-03
             638            1487     612.744E-03     625.318E-03
             638            1488     650.533E-03     662.624E-03
             638            1502     629.525E-03     645.466E-03
             638            1503     670.895E-03     685.313E-03
             639            1488     650.533E-03     662.624E-03
             639            1489     684.337E-03     692.621E-03
             639            1503     670.895E-03     685.313E-03
             639            1504     710.433E-03     716.872E-03
             640              89     700.623E-03     706.271E-03
             640              90     729.881E-03     730.138E-03
             640            1489     684.337E-03     692.621E-03
             640            1504     710.433E-03     716.872E-03
             641             127     64.3524E-03     65.6632E-03
             641             128     84.7054E-03     87.2654E-03
             641            1490     95.0643E-03     100.161E-03
             641            1505     77.2621E-03     82.9384E-03
             642            1490     95.0643E-03     100.161E-03
             642            1491     123.213E-03     132.106E-03
             642            1505     77.2621E-03     82.9384E-03
             642            1506     110.294E-03     120.636E-03
             643            1491     123.213E-03     132.106E-03
             643            1492     161.931E-03     171.907E-03
             643            1506     110.294E-03     120.636E-03
             643            1507     152.815E-03     163.656E-03
             644            1492     161.931E-03     171.907E-03
             644            1493     205.417E-03     214.441E-03
             644            1507     152.815E-03     163.656E-03
             644            1508     198.549E-03     209.361E-03
             645            1493     205.417E-03     214.441E-03
             645            1494     251.106E-03     259.114E-03
             645            1508     198.549E-03     209.361E-03
             645            1509     245.803E-03     256.082E-03
             646            1494     251.106E-03     259.114E-03
             646            1495     297.774E-03     305.472E-03
             646            1509     245.803E-03     256.082E-03
             646            1510     293.809E-03     303.923E-03
             647            1495     297.774E-03     305.472E-03
             647            1496     345.037E-03     352.942E-03
             647            1510     293.809E-03     303.923E-03
             647            1511     342.290E-03     352.800E-03
             648            1496     345.037E-03     352.942E-03
             648            1497     392.860E-03     401.437E-03
             648            1511     342.290E-03     352.800E-03
             648            1512     391.136E-03     402.526E-03
             649            1497     392.860E-03     401.437E-03
             649            1498     440.871E-03     450.690E-03
             649            1512     391.136E-03     402.526E-03
             649            1513     440.600E-03     453.294E-03
             650            1498     440.871E-03     450.690E-03
             650            1499     489.281E-03     500.631E-03
             650            1513     440.600E-03     453.294E-03
             650            1514     490.295E-03     504.888E-03
             651            1499     489.281E-03     500.631E-03
             651            1500     537.174E-03     550.706E-03
             651            1514     490.295E-03     504.888E-03
             651            1515     540.996E-03     557.240E-03
             652            1500     537.174E-03     550.706E-03
             652            1501     584.407E-03     599.758E-03
             652            1515     540.996E-03     557.240E-03
             652            1516     591.498E-03     609.301E-03
             653            1501     584.407E-03     599.758E-03
             653            1502     629.525E-03     645.466E-03
             653            1516     591.498E-03     609.301E-03
             653            1517     641.025E-03     658.655E-03
             654            1502     629.525E-03     645.466E-03
             654            1503     670.895E-03     685.313E-03
             654            1517     641.025E-03     658.655E-03
             654            1518     688.704E-03     702.035E-03
             655            1503     670.895E-03     685.313E-03
             655            1504     710.433E-03     716.872E-03
             655            1518     688.704E-03     702.035E-03
             655            1519     731.107E-03     740.045E-03
             656              90     729.881E-03     730.138E-03
             656              91     750.875E-03     758.417E-03
             656            1504     710.433E-03     716.872E-03
             656            1519     731.107E-03     740.045E-03
             657             126     43.5980E-03     49.4840E-03
             657             127     64.3524E-03     65.6632E-03
             657            1505     77.2621E-03     82.9384E-03
             657            1520     60.6485E-03     68.6565E-03
             658            1505     77.2621E-03     82.9384E-03
             658            1506     110.294E-03     120.636E-03
             658            1520     60.6485E-03     68.6565E-03
             658            1521     99.5205E-03     110.966E-03
             659            1506     110.294E-03     120.636E-03
             659            1507     152.815E-03     163.656E-03
             659            1521     99.5205E-03     110.966E-03
             659            1522     144.753E-03     157.233E-03
             660            1507     152.815E-03     163.656E-03
             660            1508     198.549E-03     209.361E-03
             660            1522     144.753E-03     157.233E-03
             660            1523     192.088E-03     204.136E-03
             661            1508     198.549E-03     209.361E-03
             661            1509     245.803E-03     256.082E-03
             661            1523     192.088E-03     204.136E-03
             661            1524     240.082E-03     252.032E-03
             662            1509     245.803E-03     256.082E-03
             662            1510     293.809E-03     303.923E-03
             662            1524     240.082E-03     252.032E-03
             662            1525     288.459E-03     300.514E-03
             663            1510     293.809E-03     303.923E-03
             663            1511     342.290E-03     352.800E-03
             663            1525     288.459E-03     300.514E-03
             663            1526     337.187E-03     349.638E-03
             664            1511     342.290E-03     352.800E-03
             664            1512     391.136E-03     402.526E-03
             664            1526     337.187E-03     349.638E-03
             664            1527     386.328E-03     399.602E-03
             665            1512     391.136E-03     402.526E-03
             665            1513     440.600E-03     453.294E-03
             665            1527     386.328E-03     399.602E-03
             665            1528     435.927E-03     450.418E-03
             666            1513     440.600E-03     453.294E-03
             666            1514     490.295E-03     504.888E-03
             666            1528     435.927E-03     450.418E-03
             666            1529     486.571E-03     502.523E-03
             667            1514     490.295E-03     504.888E-03
             667            1515     540.996E-03     557.240E-03
             667            1529     486.571E-03     502.523E-03
             667            1530     538.097E-03     555.771E-03
             668            1515     540.996E-03     557.240E-03
             668            1516     591.498E-03     609.301E-03
             668            1530     538.097E-03     555.771E-03
             668            1531     592.290E-03     610.512E-03
             669            1516     591.498E-03     609.301E-03
             669            1517     641.025E-03     658.655E-03
             669            1531     592.290E-03     610.512E-03
             669            1532     647.612E-03     665.157E-03
             670            1517     641.025E-03     658.655E-03
             670            1518     688.704E-03     702.035E-03
             670            1532     647.612E-03     665.157E-03
             670            1533     701.137E-03     716.400E-03
             671            1518     688.704E-03     702.035E-03
             671            1519     731.107E-03     740.045E-03
             671            1533     701.137E-03     716.400E-03
             671            1534     752.487E-03     759.288E-03
             672              91     750.875E-03     758.417E-03
             672              92     777.199E-03     777.599E-03
             672            1519     731.107E-03     740.045E-03
             672            1534     752.487E-03     759.288E-03
             673             125     26.9792E-03     34.8038E-03
             673             126     43.5980E-03     49.4840E-03
             673            1520     60.6485E-03     68.6565E-03
             673            1535     47.2326E-03     58.4833E-03
             674            1520     60.6485E-03     68.6565E-03
             674            1521     99.5205E-03     110.966E-03
             674            1535     47.2326E-03     58.4833E-03
             674            1536     91.1039E-03     105.147E-03
             675            1521     99.5205E-03     110.966E-03
             675            1522     144.753E-03     157.233E-03
             675            1536     91.1039E-03     105.147E-03
             675            1537     138.533E-03     151.820E-03
             676            1522     144.753E-03     157.233E-03
             676            1523     192.088E-03     204.136E-03
             676            1537     138.533E-03     151.820E-03
             676            1538     186.183E-03     199.426E-03
             677            1523     192.088E-03     204.136E-03
             677            1524     240.082E-03     252.032E-03
             677            1538     186.183E-03     199.426E-03
             677            1539     233.966E-03     247.331E-03
             678            1524     240.082E-03     252.032E-03
             678            1525     288.459E-03     300.514E-03
             678            1539     233.966E-03     247.331E-03
             678            1540     281.944E-03     295.507E-03
             679            1525     288.459E-03     300.514E-03
             679            1526     337.187E-03     349.638E-03
             679            1540     281.944E-03     295.507E-03
             679            1541     330.126E-03     344.014E-03
             680            1526     337.187E-03     349.638E-03
             680            1527     386.328E-03     399.602E-03
             680            1541     330.126E-03     344.014E-03
             680            1542     378.660E-03     393.015E-03
             681            1527     386.328E-03     399.602E-03
             681            1528     435.927E-03     450.418E-03
             681            1542     378.660E-03     393.015E-03
             681            1543     427.755E-03     442.861E-03
             682            1528     435.927E-03     450.418E-03
             682            1529     486.571E-03     502.523E-03
             682            1543     427.755E-03     442.861E-03
             682            1544     477.838E-03     493.832E-03
             683            1529     486.571E-03     502.523E-03
             683            1530     538.097E-03     555.771E-03
             683            1544     477.838E-03     493.832E-03
             683            1545     529.834E-03     546.867E-03
             684            1530     538.097E-03     555.771E-03
             684            1531     592.290E-03     610.512E-03
             684            1545     529.834E-03     546.867E-03
             684            1546     584.452E-03     602.295E-03
             685            1531     592.290E-03     610.512E-03
             685            1532     647.612E-03     665.157E-03
             685            1546     584.452E-03     602.295E-03
             685            1547     645.972E-03     662.556E-03
             686            1532     647.612E-03     665.157E-03
             686            1533     701.137E-03     716.400E-03
             686            1547     645.972E-03     662.556E-03
             686            1548     710.708E-03     724.073E-03
             687            1533     701.137E-03     716.400E-03
             687            1534     752.487E-03     759.288E-03
             687            1548     710.708E-03     724.073E-03
             687            1549     768.631E-03     780.151E-03
             688              92     777.199E-03     777.599E-03
             688              93     795.343E-03     806.773E-03
             688            1534     752.487E-03     759.288E-03
             688            1549     768.631E-03     780.151E-03
             689             124     20.4605E-03     37.1964E-03
             689             125     26.9792E-03     34.8038E-03
             689            1535     47.2326E-03     58.4833E-03
             689            1550     42.5468E-03     58.5558E-03
             690            1535     47.2326E-03     58.4833E-03
             690            1536     91.1039E-03     105.147E-03
             690            1550     42.5468E-03     58.5558E-03
             690            1551     88.1359E-03     102.589E-03
             691            1536     91.1039E-03     105.147E-03
             691            1537     138.533E-03     151.820E-03
             691            1551     88.1359E-03     102.589E-03
             691            1552     134.890E-03     148.818E-03
             692            1537     138.533E-03     151.820E-03
             692            1538     186.183E-03     199.426E-03
             692            1552     134.890E-03     148.818E-03
             692            1553     181.405E-03     195.902E-03
             693            1538     186.183E-03     199.426E-03
             693            1539     233.966E-03     247.331E-03
             693            1553     181.405E-03     195.902E-03
             693            1554     228.048E-03     242.941E-03
             694            1539     233.966E-03     247.331E-03
             694            1540     281.944E-03     295.507E-03
             694            1554     228.048E-03     242.941E-03
             694            1555     274.839E-03     289.901E-03
             695            1540     281.944E-03     295.507E-03
             695            1541     330.126E-03     344.014E-03
             695            1555     274.839E-03     289.901E-03
             695            1556     321.828E-03     336.932E-03
             696            1541     330.126E-03     344.014E-03
             696            1542     378.660E-03     393.015E-03
             696            1556     321.828E-03     336.932E-03
             696            1557     369.064E-03     384.111E-03
             697            1542     378.660E-03     393.015E-03
             697            1543     427.755E-03     442.861E-03
             697            1557     369.064E-03     384.111E-03
             697            1558     416.942E-03     431.821E-03
             698            1543     427.755E-03     442.861E-03
             698            1544     477.838E-03     493.832E-03
             698            1558     416.942E-03     431.821E-03
             698            1559     465.677E-03     480.528E-03
             699            1544     477.838E-03     493.832E-03
             699            1545     529.834E-03     546.867E-03
             699            1559     465.677E-03     480.528E-03
             699            1560     516.539E-03     531.182E-03
             700            1545     529.834E-03     546.867E-03
             700            1546     584.452E-03     602.295E-03
             700            1560     516.539E-03     531.182E-03
             700            1561     570.654E-03     585.546E-03
             701            1546     584.452E-03     602.295E-03
             701            1547     645.972E-03     662.556E-03
             701            1561     570.654E-03     585.546E-03
             701            1562     631.102E-03     645.947E-03
             702            1547     645.972E-03     662.556E-03
             702            1548     710.708E-03     724.073E-03
             702            1562     631.102E-03     645.947E-03
             702            1563     707.782E-03     719.230E-03
             703            1548     710.708E-03     724.073E-03
             703            1549     768.631E-03     780.151E-03
             703            1563     707.782E-03     719.230E-03
             703            1564     786.737E-03     789.546E-03
             704              93     795.343E-03     806.773E-03
             704              94     821.691E-03     818.677E-03
             704            1549     768.631E-03     780.151E-03
             704            1564     786.737E-03     789.546E-03
             705             123     33.4958E-03     50.1602E-03
             705             124     20.4605E-03     37.1964E-03
             705            1550     42.5468E-03     58.5558E-03
             705            1565     52.6048E-03     66.6860E-03
             706            1550     42.5468E-03     58.5558E-03
             706            1551     88.1359E-03     102.589E-03
             706            1565     52.6048E-03     66.6860E-03
             706            1566     92.4442E-03     105.187E-03
             707            1551     88.1359E-03     102.589E-03
             707            1552     134.890E-03     148.818E-03
             707            1566     92.4442E-03     105.187E-03
             707            1567     134.909E-03     149.745E-03
             708            1552     134.890E-03     148.818E-03
             708            1553     181.405E-03     195.902E-03
             708            1567     134.909E-03     149.745E-03
             708            1568     178.789E-03     194.936E-03
             709            1553     181.405E-03     195.902E-03
             709            1554     228.048E-03     242.941E-03
             709            1568     178.789E-03     194.936E-03
             709            1569     223.295E-03     240.112E-03
             710            1554     228.048E-03     242.941E-03
             710            1555     274.839E-03     289.901E-03
             710            1569     223.295E-03     240.112E-03
             710            1570     268.171E-03     285.168E-03
             711            1555     274.839E-03     289.901E-03
             711            1556     321.828E-03     336.932E-03
             711            1570     268.171E-03     285.168E-03
             711            1571     313.299E-03     329.946E-03
             712            1556     321.828E-03     336.932E-03
             712            1557     369.064E-03     384.111E-03
             712            1571     313.299E-03     329.946E-03
             712            1572     358.827E-03     374.713E-03
             713            1557     369.064E-03     384.111E-03
             713            1558     416.942E-03     431.821E-03
             713            1572     358.827E-03     374.713E-03
             713            1573     404.781E-03     419.435E-03
             714            1558     416.942E-03     431.821E-03
             714            1559     465.677E-03     480.528E-03
             714            1573     404.781E-03     419.435E-03
             714            1574     451.946E-03     464.920E-03
             715            1559     465.677E-03     480.528E-03
             715            1560     516.539E-03     531.182E-03
             715            1574     451.946E-03     464.920E-03
             715            1575     500.522E-03     511.538E-03
             716            1560     516.539E-03     531.182E-03
             716            1561     570.654E-03     585.546E-03
             716            1575     500.522E-03     511.538E-03
             716            1576     553.054E-03     561.941E-03
             717            1561     570.654E-03     585.546E-03
             717            1562     631.102E-03     645.947E-03
             717            1576     553.054E-03     561.941E-03
             717            1577     610.305E-03     617.797E-03
             718            1562     631.102E-03     645.947E-03
             718            1563     707.782E-03     719.230E-03
             718            1577     610.305E-03     617.797E-03
             718            1578     682.284E-03     690.446E-03
             719            1563     707.782E-03     719.230E-03
             719            1564     786.737E-03     789.546E-03
             719            1578     682.284E-03     690.446E-03
             719            1579     783.735E-03     787.385E-03
             720              94     821.691E-03     818.677E-03
             720              95     842.374E-03     840.507E-03
             720            1564     786.737E-03     789.546E-03
             720            1579     783.735E-03     787.385E-03
             721             122     86.9141E-03     101.955E-03
             721             123     33.4958E-03     50.1602E-03
             721            1565     52.6048E-03     66.6860E-03
             721            1580     103.449E-03     113.546E-03
             722            1565     52.6048E-03     66.6860E-03
             722            1566     92.4442E-03     105.187E-03
             722            1580     103.449E-03     113.546E-03
             722            1581     138.051E-03     143.663E-03
             723            1566     92.4442E-03     105.187E-03
             723            1567     134.909E-03     149.745E-03
             723            1581     138.051E-03     143.663E-03
             723            1582     177.254E-03     183.793E-03
             724            1567     134.909E-03     149.745E-03
             724            1568     178.789E-03     194.936E-03
             724            1582     177.254E-03     183.793E-03
             724            1583     220.570E-03     228.169E-03
             725            1568     178.789E-03     194.936E-03
             725            1569     223.295E-03     240.112E-03
             725            1583     220.570E-03     228.169E-03
             725            1584     265.996E-03     273.898E-03
             726            1569     223.295E-03     240.112E-03
             726            1570     268.171E-03     285.168E-03
             726            1584     265.996E-03     273.898E-03
             726            1585     312.535E-03     320.507E-03
             727            1570     268.171E-03     285.168E-03
             727            1571     313.299E-03     329.946E-03
             727            1585     312.535E-03     320.507E-03
             727            1586     359.728E-03     367.270E-03
             728            1571     313.299E-03     329.946E-03
             728            1572     358.827E-03     374.713E-03
             728            1586     359.728E-03     367.270E-03
             728            1587     407.073E-03     414.127E-03
             729            1572     358.827E-03     374.713E-03
             729            1573     404.781E-03     419.435E-03
             729            1587     407.073E-03     414.127E-03
             729            1588     454.764E-03     460.572E-03
             730            1573     404.781E-03     419.435E-03
             730            1574     451.946E-03     464.920E-03
             730            1588     454.764E-03     460.572E-03
             730            1589     502.380E-03     506.732E-03
             731            1574     451.946E-03     464.920E-03
             731            1575     500.522E-03     511.538E-03
             731            1589     502.380E-03     506.732E-03
             731            1590     550.813E-03     552.404E-03
             732            1575     500.522E-03     511.538E-03
             732            1576     553.054E-03     561.941E-03
             732            1590     550.813E-03     552.404E-03
             732            1591     598.973E-03     597.471E-03
             733            1576     553.054E-03     561.941E-03
             733            1577     610.305E-03     617.797E-03
             733            1591     598.973E-03     597.471E-03
             733            1592     649.776E-03     643.697E-03
             734            1577     610.305E-03     617.797E-03
             734            1578     682.284E-03     690.446E-03
             734            1592     649.776E-03     643.697E-03
             734            1593     700.548E-03     692.031E-03
             735            1578     682.284E-03     690.446E-03
             735            1579     783.735E-03     787.385E-03
             735            1593     700.548E-03     692.031E-03
             735            1594     767.181E-03     771.680E-03
             736              95     842.374E-03     840.507E-03
             736              96     810.746E-03     826.364E-03
             736            1579     783.735E-03     787.385E-03
             736            1594     767.181E-03     771.680E-03
             737             121     118.610E-03     136.505E-03
             737             122     86.9141E-03     101.955E-03
             737            1580     103.449E-03     113.546E-03
             737            1595     132.158E-03     143.818E-03
             738            1580     103.449E-03     113.546E-03
             738            1581     138.051E-03     143.663E-03
             738            1595     132.158E-03     143.818E-03
             738            1596     165.306E-03     168.401E-03
             739            1581     138.051E-03     143.663E-03
             739            1582     177.254E-03     183.793E-03
             739            1596     165.306E-03     168.401E-03
             739            1597     207.616E-03     208.179E-03
             740            1582     177.254E-03     183.793E-03
             740            1583     220.570E-03     228.169E-03
             740            1597     207.616E-03     208.179E-03
             740            1598     254.511E-03     254.754E-03
             741            1583     220.570E-03     228.169E-03
             741            1584     265.996E-03     273.898E-03
             741            1598     254.511E-03     254.754E-03
             741            1599     304.000E-03     304.125E-03
             742            1584     265.996E-03     273.898E-03
             742            1585     312.535E-03     320.507E-03
             742            1599     304.000E-03     304.125E-03
             742            1600     354.995E-03     355.138E-03
             743            1585     312.535E-03     320.507E-03
             743            1586     359.728E-03     367.270E-03
             743            1600     354.995E-03     355.138E-03
             743            1601     406.765E-03     406.837E-03
             744            1586     359.728E-03     367.270E-03
             744            1587     407.073E-03     414.127E-03
             744            1601     406.765E-03     406.837E-03
             744            1602     458.802E-03     458.883E-03
             745            1587     407.073E-03     414.127E-03
             745            1588     454.764E-03     460.572E-03
             745            1602     458.802E-03     458.883E-03
             745            1603     510.982E-03     510.783E-03
             746            1588     454.764E-03     460.572E-03
             746            1589     502.380E-03     506.732E-03
             746            1603     510.982E-03     510.783E-03
             746            1604     562.838E-03     562.347E-03
             747            1589     502.380E-03     506.732E-03
             747            1590     550.813E-03     552.404E-03
             747            1604     562.838E-03     562.347E-03
             747            1605     614.341E-03     612.796E-03
             748            1590     550.813E-03     552.404E-03
             748            1591     598.973E-03     597.471E-03
             748            1605     614.341E-03     612.796E-03
             748            1606     664.796E-03     661.849E-03
             749            1591     598.973E-03     597.471E-03
             749            1592     649.776E-03     643.697E-03
             749            1606     664.796E-03     661.849E-03
             749            1607     711.496E-03     707.291E-03
             750            1592     649.776E-03     643.697E-03
             750            1593     700.548E-03     692.031E-03
             750            1607     711.496E-03     707.291E-03
             750            1608     754.622E-03     749.443E-03
             751            1593     700.548E-03     692.031E-03
             751            1594     767.181E-03     771.680E-03
             751            1608     754.622E-03     749.443E-03
             751            1609     791.326E-03     783.873E-03
             752              96     810.746E-03     826.364E-03
             752              97     807.021E-03     797.270E-03
             752            1594     767.181E-03     771.680E-03
             752            1609     791.326E-03     783.873E-03
             753             120     92.6266E-03     96.8924E-03
             753             121     118.610E-03     136.505E-03
             753            1595     132.158E-03     143.818E-03
             753            1610     104.836E-03     113.378E-03
             754            1595     132.158E-03     143.818E-03
             754            1596     165.306E-03     168.401E-03
             754            1610     104.836E-03     113.378E-03
             754            1611     139.796E-03     149.770E-03
             755            1596     165.306E-03     168.401E-03
             755            1597     207.616E-03     208.179E-03
             755            1611     139.796E-03     149.770E-03
             755            1612     187.850E-03     193.974E-03
             756            1597     207.616E-03     208.179E-03
             756            1598     254.511E-03     254.754E-03
             756            1612     187.850E-03     193.974E-03
             756            1613     239.224E-03     244.241E-03
             757            1598     254.511E-03     254.754E-03
             757            1599     304.000E-03     304.125E-03
             757            1613     239.224E-03     244.241E-03
             757            1614     292.014E-03     296.992E-03
             758            1599     304.000E-03     304.125E-03
             758            1600     354.995E-03     355.138E-03
             758            1614     292.014E-03     296.992E-03
             758            1615     345.820E-03     350.878E-03
             759            1600     354.995E-03     355.138E-03
             759            1601     406.765E-03     406.837E-03
             759            1615     345.820E-03     350.878E-03
             759            1616     400.203E-03     405.422E-03
             760            1601     406.765E-03     406.837E-03
             760            1602     458.802E-03     458.883E-03
             760            1616     400.203E-03     405.422E-03
             760            1617     455.143E-03     460.386E-03
             761            1602     458.802E-03     458.883E-03
             761            1603     510.982E-03     510.783E-03
             761            1617     455.143E-03     460.386E-03
             761            1618     510.401E-03     515.790E-03
             762            1603     510.982E-03     510.783E-03
             762            1604     562.838E-03     562.347E-03
             762            1618     510.401E-03     515.790E-03
             762            1619     566.184E-03     571.780E-03
             763            1604     562.838E-03     562.347E-03
             763            1605     614.341E-03     612.796E-03
             763            1619     566.184E-03     571.780E-03
             763            1620     621.962E-03     628.418E-03
             764            1605     614.341E-03     612.796E-03
             764            1606     664.796E-03     661.849E-03
             764            1620     621.962E-03     628.418E-03
             764            1621     678.583E-03     686.450E-03
             765            1606     664.796E-03     661.849E-03
             765            1607     711.496E-03     707.291E-03
             765            1621     678.583E-03     686.450E-03
             765            1622     733.615E-03     744.626E-03
             766            1607     711.496E-03     707.291E-03
             766            1608     754.622E-03     749.443E-03
             766            1622     733.615E-03     744.626E-03
             766            1623     785.483E-03     800.215E-03
             767            1608     754.622E-03     749.443E-03
             767            1609     791.326E-03     783.873E-03
             767            1623     785.483E-03     800.215E-03
             767            1624     829.836E-03     836.570E-03
             768              97     807.021E-03     797.270E-03
             768              98     848.337E-03     846.009E-03
             768            1609     791.326E-03     783.873E-03
             768            1624     829.836E-03     836.570E-03
             769             119     60.2173E-03     62.5897E-03
             769             120     92.6266E-03     96.8924E-03
             769            1610     104.836E-03     113.378E-03
             769            1625     77.9077E-03     85.9272E-03
             770            1610     104.836E-03     113.378E-03
             770            1611     139.796E-03     149.770E-03
             770            1625     77.9077E-03     85.9272E-03
             770            1626     120.558E-03     133.873E-03
             771            1611     139.796E-03     149.770E-03
             771            1612     187.850E-03     193.974E-03
             771            1626     120.558E-03     133.873E-03
             771            1627     172.625E-03     184.297E-03
             772            1612     187.850E-03     193.974E-03
             772            1613     239.224E-03     244.241E-03
             772            1627     172.625E-03     184.297E-03
             772            1628     227.220E-03     237.615E-03
             773            1613     239.224E-03     244.241E-03
             773            1614     292.014E-03     296.992E-03
             773            1628     227.220E-03     237.615E-03
             773            1629     282.357E-03     292.707E-03
             774            1614     292.014E-03     296.992E-03
             774            1615     345.820E-03     350.878E-03
             774            1629     282.357E-03     292.707E-03
             774            1630     337.901E-03     348.374E-03
             775            1615     345.820E-03     350.878E-03
             775            1616     400.203E-03     405.422E-03
             775            1630     337.901E-03     348.374E-03
             775            1631     393.928E-03     404.502E-03
             776            1616     400.203E-03     405.422E-03
             776            1617     455.143E-03     460.386E-03
             776            1631     393.928E-03     404.502E-03
             776            1632     450.308E-03     461.025E-03
             777            1617     455.143E-03     460.386E-03
             777            1618     510.401E-03     515.790E-03
             777            1632     450.308E-03     461.025E-03
             777            1633     507.157E-03     518.109E-03
             778            1618     510.401E-03     515.790E-03
             778            1619     566.184E-03     571.780E-03
             778            1633     507.157E-03     518.109E-03
             778            1634     564.353E-03     575.973E-03
             779            1619     566.184E-03     571.780E-03
             779            1620     621.962E-03     628.418E-03
             779            1634     564.353E-03     575.973E-03
             779            1635     622.403E-03     635.549E-03
             780            1620     621.962E-03     628.418E-03
             780            1621     678.583E-03     686.450E-03
             780            1635     622.403E-03     635.549E-03
             780            1636     680.538E-03     696.884E-03
             781            1621     678.583E-03     686.450E-03
             781            1622     733.615E-03     744.626E-03
             781            1636     680.538E-03     696.884E-03
             781            1637     743.548E-03     762.628E-03
             782            1622     733.615E-03     744.626E-03
             782            1623     785.483E-03     800.215E-03
             782            1637     743.548E-03     762.628E-03
             782            1638     805.551E-03     825.301E-03
             783            1623     785.483E-03     800.215E-03
             783            1624     829.836E-03     836.570E-03
             783            1638     805.551E-03     825.301E-03
             783            1639     854.949E-03     874.703E-03
             784              98     848.337E-03     846.009E-03
             784              99     876.674E-03     896.164E-03
             784            1624     829.836E-03     836.570E-03
             784            1639     854.949E-03     874.703E-03
             785             118     30.6706E-03     49.4570E-03
             785             119     60.2173E-03     62.5897E-03
             785            1625     77.9077E-03     85.9272E-03
             785            1640     55.8038E-03     72.6439E-03
             786            1625     77.9077E-03     85.9272E-03
             786            1626     120.558E-03     133.873E-03
             786            1640     55.8038E-03     72.6439E-03
             786            1641     108.091E-03     123.591E-03
             787            1626     120.558E-03     133.873E-03
             787            1627     172.625E-03     184.297E-03
             787            1641     108.091E-03     123.591E-03
             787            1642     162.979E-03     179.221E-03
             788            1627     172.625E-03     184.297E-03
             788            1628     227.220E-03     237.615E-03
             788            1642     162.979E-03     179.221E-03
             788            1643     218.716E-03     234.836E-03
             789            1628     227.220E-03     237.615E-03
             789            1629     282.357E-03     292.707E-03
             789            1643     218.716E-03     234.836E-03
             789            1644     274.728E-03     290.805E-03
             790            1629     282.357E-03     292.707E-03
             790            1630     337.901E-03     348.374E-03
             790            1644     274.728E-03     290.805E-03
             790            1645     330.883E-03     347.044E-03
             791            1630     337.901E-03     348.374E-03
             791            1631     393.928E-03     404.502E-03
             791            1645     330.883E-03     347.044E-03
             791            1646     387.159E-03     403.387E-03
             792            1631     393.928E-03     404.502E-03
             792            1632     450.308E-03     461.025E-03
             792            1646     387.159E-03     403.387E-03
             792            1647     443.597E-03     459.849E-03
             793            1632     450.308E-03     461.025E-03
             793            1633     507.157E-03     518.109E-03
             793            1647     443.597E-03     459.849E-03
             793            1648     500.213E-03     516.565E-03
             794            1633     507.157E-03     518.109E-03
             794            1634     564.353E-03     575.973E-03
             794            1648     500.213E-03     516.565E-03
             794            1649     557.028E-03     573.744E-03
             795            1634     564.353E-03     575.973E-03
             795            1635     622.403E-03     635.549E-03
             795            1649     557.028E-03     573.744E-03
             795            1650     614.245E-03     631.855E-03
             796            1635     622.403E-03     635.549E-03
             796            1636     680.538E-03     696.884E-03
             796            1650     614.245E-03     631.855E-03
             796            1651     672.708E-03     692.236E-03
             797            1636     680.538E-03     696.884E-03
             797            1637     743.548E-03     762.628E-03
             797            1651     672.708E-03     692.236E-03
             797            1652     733.627E-03     755.716E-03
             798            1637     743.548E-03     762.628E-03
             798            1638     805.551E-03     825.301E-03
             798            1652     733.627E-03     755.716E-03
             798            1653     806.879E-03     827.629E-03
             799            1638     805.551E-03     825.301E-03
             799            1639     854.949E-03     874.703E-03
             799            1653     806.879E-03     827.629E-03
             799            1654     880.177E-03     887.554E-03
             800              99     876.674E-03     896.164E-03
             800             100     911.391E-03     908.182E-03
             800            1639     854.949E-03     874.703E-03
             800            1654     880.177E-03     887.554E-03
             801             117     26.2430E-03     44.6171E-03
             801             118     30.6706E-03     49.4570E-03
             801            1640     55.8038E-03     72.6439E-03
             801            1655     52.2871E-03     70.3581E-03
             802            1640     55.8038E-03     72.6439E-03
             802            1641     108.091E-03     123.591E-03
             802            1655     52.2871E-03     70.3581E-03
             802            1656     105.063E-03     123.916E-03
             803            1641     108.091E-03     123.591E-03
             803            1642     162.979E-03     179.221E-03
             803            1656     105.063E-03     123.916E-03
             803            1657     159.206E-03     179.999E-03
             804            1642     162.979E-03     179.221E-03
             804            1643     218.716E-03     234.836E-03
             804            1657     159.206E-03     179.999E-03
             804            1658     214.169E-03     236.062E-03
             805            1643     218.716E-03     234.836E-03
             805            1644     274.728E-03     290.805E-03
             805            1658     214.169E-03     236.062E-03
             805            1659     269.569E-03     291.579E-03
             806            1644     274.728E-03     290.805E-03
             806            1645     330.883E-03     347.044E-03
             806            1659     269.569E-03     291.579E-03
             806            1660     325.033E-03     347.083E-03
             807            1645     330.883E-03     347.044E-03
             807            1646     387.159E-03     403.387E-03
             807            1660     325.033E-03     347.083E-03
             807            1661     380.348E-03     402.322E-03
             808            1646     387.159E-03     403.387E-03
             808            1647     443.597E-03     459.849E-03
             808            1661     380.348E-03     402.322E-03
             808            1662     435.474E-03     457.405E-03
             809            1647     443.597E-03     459.849E-03
             809            1648     500.213E-03     516.565E-03
             809            1662     435.474E-03     457.405E-03
             809            1663     490.317E-03     512.030E-03
             810            1648     500.213E-03     516.565E-03
             810            1649     557.028E-03     573.744E-03
             810            1663     490.317E-03     512.030E-03
             810            1664     545.056E-03     566.439E-03
             811            1649     557.028E-03     573.744E-03
             811            1650     614.245E-03     631.855E-03
             811            1664     545.056E-03     566.439E-03
             811            1665     599.642E-03     620.250E-03
             812            1650     614.245E-03     631.855E-03
             812            1651     672.708E-03     692.236E-03
             812            1665     599.642E-03     620.250E-03
             812            1666     655.745E-03     674.958E-03
             813            1651     672.708E-03     692.236E-03
             813            1652     733.627E-03     755.716E-03
             813            1666     655.745E-03     674.958E-03
             813            1667     713.142E-03     730.980E-03
             814            1652     733.627E-03     755.716E-03
             814            1653     806.879E-03     827.629E-03
             814            1667     713.142E-03     730.980E-03
             814            1668     782.216E-03     798.615E-03
             815            1653     806.879E-03     827.629E-03
             815            1654     880.177E-03     887.554E-03
             815            1668     782.216E-03     798.615E-03
             815            1669     877.979E-03     886.973E-03
             816             100     911.391E-03     908.182E-03
             816             101     933.226E-03     935.409E-03
             816            1654     880.177E-03     887.554E-03
             816            1669     877.979E-03     886.973E-03
             817               4     79.4973E-03     96.7940E-03
             817             116     100.680E-03     112.912E-03
             817             117     26.2430E-03     44.6171E-03
             817            1655     52.2871E-03     70.3581E-03
             818             115     145.573E-03     153.182E-03
             818             116     100.680E-03     112.912E-03
             818            1655     52.2871E-03     70.3581E-03
             818            1656     105.063E-03     123.916E-03
             819             114     195.673E-03     203.919E-03
             819             115     145.573E-03     153.182E-03
             819            1656     105.063E-03     123.916E-03
             819            1657     159.206E-03     179.999E-03
             820             113     249.191E-03     257.950E-03
             820             114     195.673E-03     203.919E-03
             820            1657     159.206E-03     179.999E-03
             820            1658     214.169E-03     236.062E-03
             821             112     304.344E-03     313.184E-03
             821             113     249.191E-03     257.950E-03
             821            1658     214.169E-03     236.062E-03
             821            1659     269.569E-03     291.579E-03
             822             111     360.096E-03     368.970E-03
             822             112     304.344E-03     313.184E-03
             822            1659     269.569E-03     291.579E-03
             822            1660     325.033E-03     347.083E-03
             823             110     416.189E-03     425.084E-03
             823             111     360.096E-03     368.970E-03
             823            1660     325.033E-03     347.083E-03
             823            1661     380.348E-03     402.322E-03
             824             109     471.878E-03     480.957E-03
             824             110     416.189E-03     425.084E-03
             824            1661     380.348E-03     402.322E-03
             824            1662     435.474E-03     457.405E-03
             825             108     527.490E-03     536.512E-03
             825             109     471.878E-03     480.957E-03
             825            1662     435.474E-03     457.405E-03
             825            1663     490.317E-03     512.030E-03
             826             107     582.057E-03     591.038E-03
             826             108     527.490E-03     536.512E-03
             826            1663     490.317E-03     512.030E-03
             826            1664     545.056E-03     566.439E-03
             827             106     636.937E-03     644.401E-03
             827             107     582.057E-03     591.038E-03
             827            1664     545.056E-03     566.439E-03
             827            1665     599.642E-03     620.250E-03
             828             105     690.306E-03     695.852E-03
             828             106     636.937E-03     644.401E-03
             828            1665     599.642E-03     620.250E-03
             828            1666     655.745E-03     674.958E-03
             829             104     744.826E-03     745.430E-03
             829             105     690.306E-03     695.852E-03
             829            1666     655.745E-03     674.958E-03
             829            1667     713.142E-03     730.980E-03
             830             103     797.488E-03     793.523E-03
             830             104     744.826E-03     745.430E-03
             830            1667     713.142E-03     730.980E-03
             830            1668     782.216E-03     798.615E-03
             831             102     863.319E-03     872.658E-03
             831             103     797.488E-03     793.523E-03
             831            1668     782.216E-03     798.615E-03
             831            1669     877.979E-03     886.973E-03
             832               3     906.246E-03     928.465E-03
             832             101     933.226E-03     935.409E-03
             832             102     863.319E-03     872.658E-03
             832            1669     877.979E-03     886.973E-03
            1777               4     79.4973E-03     96.7940E-03
            1777             116     100.680E-03     112.912E-03
            1777             466     116.429E-03     134.566E-03
            1777            2431     130.757E-03     140.769E-03
            1778             115     145.573E-03     153.182E-03
            1778             116     100.680E-03     112.912E-03
            1778            2431     130.757E-03     140.769E-03
            1778            2432     169.757E-03     169.543E-03
            1779             114     195.673E-03     203.919E-03
            1779             115     145.573E-03     153.182E-03
            1779            2432     169.757E-03     169.543E-03
            1779            2433     221.294E-03     218.706E-03
            1780             113     249.191E-03     257.950E-03
            1780             114     195.673E-03     203.919E-03
            1780            2433     221.294E-03     218.706E-03
            1780            2434     276.303E-03     273.413E-03
            1781             112     304.344E-03     313.184E-03
            1781             113     249.191E-03     257.950E-03
            1781            2434     276.303E-03     273.413E-03
            1781            2435     333.291E-03     330.504E-03
            1782             111     360.096E-03     368.970E-03
            1782             112     304.344E-03     313.184E-03
            1782            2435     333.291E-03     330.504E-03
            1782            2436     391.439E-03     388.872E-03
            1783             110     416.189E-03     425.084E-03
            1783             111     360.096E-03     368.970E-03
            1783            2436     391.439E-03     388.872E-03
            1783            2437     450.071E-03     447.747E-03
            1784             109     471.878E-03     480.957E-03
            1784             110     416.189E-03     425.084E-03
            1784            2437     450.071E-03     447.747E-03
            1784            2438     509.039E-03     506.966E-03
            1785             108     527.490E-03     536.512E-03
            1785             109     471.878E-03     480.957E-03
            1785            2438     509.039E-03     506.966E-03
            1785            2439     567.762E-03     566.057E-03
            1786             107     582.057E-03     591.038E-03
            1786             108     527.490E-03     536.512E-03
            1786            2439     567.762E-03     566.057E-03
            1786            2440     626.676E-03     624.966E-03
            1787             106     636.937E-03     644.401E-03
            1787             107     582.057E-03     591.038E-03
            1787            2440     626.676E-03     624.966E-03
            1787            2441     684.629E-03     683.265E-03
            1788             105     690.306E-03     695.852E-03
            1788             106     636.937E-03     644.401E-03
            1788            2441     684.629E-03     683.265E-03
            1788            2442     743.052E-03     740.727E-03
            1789             104     744.826E-03     745.430E-03
            1789             105     690.306E-03     695.852E-03
            1789            2442     743.052E-03     740.727E-03
            1789            2443     798.716E-03     795.592E-03
            1790             103     797.488E-03     793.523E-03
            1790             104     744.826E-03     745.430E-03
            1790            2443     798.716E-03     795.592E-03
            1790            2444     848.072E-03     847.455E-03
            1791             102     863.319E-03     872.658E-03
            1791             103     797.488E-03     793.523E-03
            1791            2444     848.072E-03     847.455E-03
            1791            2445     893.015E-03     885.830E-03
            1792               3     906.246E-03     928.465E-03
            1792             102     863.319E-03     872.658E-03
            1792             433     913.962E-03     898.493E-03
            1792            2445     893.015E-03     885.830E-03
            1793             465     92.2221E-03     94.9988E-03
            1793             466     116.429E-03     134.566E-03
            1793            2431     130.757E-03     140.769E-03
            1793            2446     104.119E-03     112.542E-03
            1794            2431     130.757E-03     140.769E-03
            1794            2432     169.757E-03     169.543E-03
            1794            2446     104.119E-03     112.542E-03
            1794            2447     144.049E-03     154.568E-03
            1795            2432     169.757E-03     169.543E-03
            1795            2433     221.294E-03     218.706E-03
            1795            2447     144.049E-03     154.568E-03
            1795            2448     201.194E-03     207.747E-03
            1796            2433     221.294E-03     218.706E-03
            1796            2434     276.303E-03     273.413E-03
            1796            2448     201.194E-03     207.747E-03
            1796            2449     259.870E-03     266.295E-03
            1797            2434     276.303E-03     273.413E-03
            1797            2435     333.291E-03     330.504E-03
            1797            2449     259.870E-03     266.295E-03
            1797            2450     319.525E-03     326.305E-03
            1798            2435     333.291E-03     330.504E-03
            1798            2436     391.439E-03     388.872E-03
            1798            2450     319.525E-03     326.305E-03
            1798            2451     379.835E-03     386.850E-03
            1799            2436     391.439E-03     388.872E-03
            1799            2437     450.071E-03     447.747E-03
            1799            2451     379.835E-03     386.850E-03
            1799            2452     440.544E-03     447.756E-03
            1800            2437     450.071E-03     447.747E-03
            1800            2438     509.039E-03     506.966E-03
            1800            2452     440.544E-03     447.756E-03
            1800            2453     501.582E-03     508.906E-03
            1801            2438     509.039E-03     506.966E-03
            1801            2439     567.762E-03     566.057E-03
            1801            2453     501.582E-03     508.906E-03
            1801            2454     563.005E-03     570.344E-03
            1802            2439     567.762E-03     566.057E-03
            1802            2440     626.676E-03     624.966E-03
            1802            2454     563.005E-03     570.344E-03
            1802            2455     624.652E-03     632.226E-03
            1803            2440     626.676E-03     624.966E-03
            1803            2441     684.629E-03     683.265E-03
            1803            2455     624.652E-03     632.226E-03
            1803            2456     687.002E-03     694.996E-03
            1804            2441     684.629E-03     683.265E-03
            1804            2442     743.052E-03     740.727E-03
            1804            2456     687.002E-03     694.996E-03
            1804            2457     749.172E-03     759.115E-03
            1805            2442     743.052E-03     740.727E-03
            1805            2443     798.716E-03     795.592E-03
            1805            2457     749.172E-03     759.115E-03
            1805            2458     813.825E-03     826.754E-03
            1806            2443     798.716E-03     795.592E-03
            1806            2444     848.072E-03     847.455E-03
            1806            2458     813.825E-03     826.754E-03
            1806            2459     879.229E-03     894.613E-03
            1807            2444     848.072E-03     847.455E-03
            1807            2445     893.015E-03     885.830E-03
            1807            2459     879.229E-03     894.613E-03
            1807            2460     928.962E-03     943.358E-03
            1808             433     913.962E-03     898.493E-03
            1808             434     947.351E-03     959.456E-03
            1808            2445     893.015E-03     885.830E-03
            1808            2460     928.962E-03     943.358E-03
            1809             464     59.1459E-03     66.8725E-03
            1809             465     92.2221E-03     94.9988E-03
            1809            2446     104.119E-03     112.542E-03
            1809            2461     79.9045E-03     93.0182E-03
            1810            2446     104.119E-03     112.542E-03
            1810            2447     144.049E-03     154.568E-03
            1810            2461     79.9045E-03     93.0182E-03
            1810            2462     128.318E-03     146.522E-03
            1811            2447     144.049E-03     154.568E-03
            1811            2448     201.194E-03     207.747E-03
            1811            2462     128.318E-03     146.522E-03
            1811            2463     186.495E-03     203.801E-03
            1812            2448     201.194E-03     207.747E-03
            1812            2449     259.870E-03     266.295E-03
            1812            2463     186.495E-03     203.801E-03
            1812            2464     247.594E-03     264.395E-03
            1813            2449     259.870E-03     266.295E-03
            1813            2450     319.525E-03     326.305E-03
            1813            2464     247.594E-03     264.395E-03
            1813            2465     308.869E-03     325.794E-03
            1814            2450     319.525E-03     326.305E-03
            1814            2451     379.835E-03     386.850E-03
            1814            2465     308.869E-03     325.794E-03
            1814            2466     370.329E-03     387.300E-03
            1815            2451     379.835E-03     386.850E-03
            1815            2452     440.544E-03     447.756E-03
            1815            2466     370.329E-03     387.300E-03
            1815            2467     432.015E-03     448.979E-03
            1816            2452     440.544E-03     447.756E-03
            1816            2453     501.582E-03     508.906E-03
            1816            2467     432.015E-03     448.979E-03
            1816            2468     493.846E-03     510.672E-03
            1817            2453     501.582E-03     508.906E-03
            1817            2454     563.005E-03     570.344E-03
            1817            2468     493.846E-03     510.672E-03
            1817            2469     555.992E-03     572.650E-03
            1818            2454     563.005E-03     570.344E-03
            1818            2455     624.652E-03     632.226E-03
            1818            2469     555.992E-03     572.650E-03
            1818            2470     618.240E-03     634.936E-03
            1819            2455     624.652E-03     632.226E-03
            1819            2456     687.002E-03     694.996E-03
            1819            2470     618.240E-03     634.936E-03
            1819            2471     681.125E-03     698.011E-03
            1820            2456     687.002E-03     694.996E-03
            1820            2457     749.172E-03     759.115E-03
            1820            2471     681.125E-03     698.011E-03
            1820            2472     744.025E-03     762.952E-03
            1821            2457     749.172E-03     759.115E-03
            1821            2458     813.825E-03     826.754E-03
            1821            2472     744.025E-03     762.952E-03
            1821            2473     809.198E-03     831.364E-03
            1822            2458     813.825E-03     826.754E-03
            1822            2459     879.229E-03     894.613E-03
            1822            2473     809.198E-03     831.364E-03
            1822            2474     885.106E-03     907.252E-03
            1823            2459     879.229E-03     894.613E-03
            1823            2460     928.962E-03     943.358E-03
            1823            2474     885.106E-03     907.252E-03
            1823            2475     955.760E-03     969.029E-03
            1824             434     947.351E-03     959.456E-03
            1824             435     984.655E-03     990.361E-03
            1824            2460     928.962E-03     943.358E-03
            1824            2475     955.760E-03     969.029E-03
            1825             463     46.8076E-03     69.0763E-03
            1825             464     59.1459E-03     66.8725E-03
            1825            2461     79.9045E-03     93.0182E-03
            1825            2476     70.4363E-03     93.1009E-03
            1826            2461     79.9045E-03     93.0182E-03
            1826            2462     128.318E-03     146.522E-03
            1826            2476     70.4363E-03     93.1009E-03
            1826            2477     121.545E-03     147.108E-03
            1827            2462     128.318E-03     146.522E-03
            1827            2463     186.495E-03     203.801E-03
            1827            2477     121.545E-03     147.108E-03
            1827            2478     179.230E-03     207.244E-03
            1828            2463     186.495E-03     203.801E-03
            1828            2464     247.594E-03     264.395E-03
            1828            2478     179.230E-03     207.244E-03
            1828            2479     240.204E-03     267.905E-03
            1829            2464     247.594E-03     264.395E-03
            1829            2465     308.869E-03     325.794E-03
            1829            2479     240.204E-03     267.905E-03
            1829            2480     301.605E-03     329.002E-03
            1830            2465     308.869E-03     325.794E-03
            1830            2466     370.329E-03     387.300E-03
            1830            2480     301.605E-03     329.002E-03
            1830            2481     363.069E-03     390.199E-03
            1831            2466     370.329E-03     387.300E-03
            1831            2467     432.015E-03     448.979E-03
            1831            2481     363.069E-03     390.199E-03
            1831            2482     424.422E-03     451.169E-03
            1832            2467     432.015E-03     448.979E-03
            1832            2468     493.846E-03     510.672E-03
            1832            2482     424.422E-03     451.169E-03
            1832            2483     485.665E-03     512.116E-03
            1833            2468     493.846E-03     510.672E-03
            1833            2469     555.992E-03     572.650E-03
            1833            2483     485.665E-03     512.116E-03
            1833            2484     546.476E-03     572.642E-03
            1834            2469     555.992E-03     572.650E-03
            1834            2470     618.240E-03     634.936E-03
            1834            2484     546.476E-03     572.642E-03
            1834            2485     607.336E-03     632.988E-03
            1835            2470     618.240E-03     634.936E-03
            1835            2471     681.125E-03     698.011E-03
            1835            2485     607.336E-03     632.988E-03
            1835            2486     667.283E-03     692.647E-03
            1836            2471     681.125E-03     698.011E-03
            1836            2472     744.025E-03     762.952E-03
            1836            2486     667.283E-03     692.647E-03
            1836            2487     728.469E-03     752.554E-03
            1837            2472     744.025E-03     762.952E-03
            1837            2473     809.198E-03     831.364E-03
            1837            2487     728.469E-03     752.554E-03
            1837            2488     789.569E-03     812.493E-03
            1838            2473     809.198E-03     831.364E-03
            1838            2474     885.106E-03     907.252E-03
            1838            2488     789.569E-03     812.493E-03
            1838            2489     858.796E-03     882.106E-03
            1839            2474     885.106E-03     907.252E-03
            1839            2475     955.760E-03     969.029E-03
            1839            2489     858.796E-03     882.106E-03
            1839            2490     955.688E-03     967.656E-03
            1840             435     984.655E-03     990.361E-03
            1840             436         1.01244         1.01288
            1840            2475     955.760E-03     969.029E-03
            1840            2490     955.688E-03     967.656E-03
            1841             462     44.9738E-03     61.8499E-03
            1841             463     46.8076E-03     69.0763E-03
            1841            2476     70.4363E-03     93.1009E-03
            1841            2491     70.3244E-03     89.1855E-03
            1842            2476     70.4363E-03     93.1009E-03
            1842            2477     121.545E-03     147.108E-03
            1842            2491     70.3244E-03     89.1855E-03
            1842            2492     124.943E-03     146.382E-03
            1843            2477     121.545E-03     147.108E-03
            1843            2478     179.230E-03     207.244E-03
            1843            2492     124.943E-03     146.382E-03
            1843            2493     184.183E-03     206.551E-03
            1844            2478     179.230E-03     207.244E-03
            1844            2479     240.204E-03     267.905E-03
            1844            2493     184.183E-03     206.551E-03
            1844            2494     244.458E-03     267.100E-03
            1845            2479     240.204E-03     267.905E-03
            1845            2480     301.605E-03     329.002E-03
            1845            2494     244.458E-03     267.100E-03
            1845            2495     305.324E-03     327.718E-03
            1846            2480     301.605E-03     329.002E-03
            1846            2481     363.069E-03     390.199E-03
            1846            2495     305.324E-03     327.718E-03
            1846            2496     366.203E-03     388.298E-03
            1847            2481     363.069E-03     390.199E-03
            1847            2482     424.422E-03     451.169E-03
            1847            2496     366.203E-03     388.298E-03
            1847            2497     427.013E-03     448.843E-03
            1848            2482     424.422E-03     451.169E-03
            1848            2483     485.665E-03     512.116E-03
            1848            2497     427.013E-03     448.843E-03
            1848            2498     487.497E-03     509.175E-03
            1849            2483     485.665E-03     512.116E-03
            1849            2484     546.476E-03     572.642E-03
            1849            2498     487.497E-03     509.175E-03
            1849            2499     547.881E-03     569.297E-03
            1850            2484     546.476E-03     572.642E-03
            1850            2485     607.336E-03     632.988E-03
            1850            2499     547.881E-03     569.297E-03
            1850            2500     607.629E-03     628.913E-03
            1851            2485     607.336E-03     632.988E-03
            1851            2486     667.283E-03     692.647E-03
            1851            2500     607.629E-03     628.913E-03
            1851            2501     667.502E-03     687.954E-03
            1852            2486     667.283E-03     692.647E-03
            1852            2487     728.469E-03     752.554E-03
            1852            2501     667.502E-03     687.954E-03
            1852            2502     726.631E-03     746.141E-03
            1853            2487     728.469E-03     752.554E-03
            1853            2488     789.569E-03     812.493E-03
            1853            2502     726.631E-03     746.141E-03
            1853            2503     787.381E-03     804.127E-03
            1854            2488     789.569E-03     812.493E-03
            1854            2489     858.796E-03     882.106E-03
            1854            2503     787.381E-03     804.127E-03
            1854            2504     849.007E-03     863.163E-03
            1855            2489     858.796E-03     882.106E-03
            1855            2490     955.688E-03     967.656E-03
            1855            2504     849.007E-03     863.163E-03
            1855            2505     927.448E-03     949.913E-03
            1856             436         1.01244         1.01288
            1856             437     976.403E-03         1.00698
            1856            2490     955.688E-03     967.656E-03
            1856            2505     927.448E-03     949.913E-03
            1857              18     39.9175E-03     56.4215E-03
            1857             461     67.2930E-03     85.8733E-03
            1857             462     44.9738E-03     61.8499E-03
            1857            2491     70.3244E-03     89.1855E-03
            1858             460     124.004E-03     145.823E-03
            1858             461     67.2930E-03     85.8733E-03
            1858            2491     70.3244E-03     89.1855E-03
            1858            2492     124.943E-03     146.382E-03
            1859             459     182.939E-03     206.231E-03
            1859             460     124.004E-03     145.823E-03
            1859            2492     124.943E-03     146.382E-03
            1859            2493     184.183E-03     206.551E-03
            1860             458     242.431E-03     266.303E-03
            1860             459     182.939E-03     206.231E-03
            1860            2493     184.183E-03     206.551E-03
            1860            2494     244.458E-03     267.100E-03
            1861             457     302.276E-03     326.241E-03
            1861             458     242.431E-03     266.303E-03
            1861            2494     244.458E-03     267.100E-03
            1861            2495     305.324E-03     327.718E-03
            1862             456     361.976E-03     385.941E-03
            1862             457     302.276E-03     326.241E-03
            1862            2495     305.324E-03     327.718E-03
            1862            2496     366.203E-03     388.298E-03
            1863             455     421.678E-03     445.432E-03
            1863             456     361.976E-03     385.941E-03
            1863            2496     366.203E-03     388.298E-03
            1863            2497     427.013E-03     448.843E-03
            1864             454     480.970E-03     504.732E-03
            1864             455     421.678E-03     445.432E-03
            1864            2497     427.013E-03     448.843E-03
            1864            2498     487.497E-03     509.175E-03
            1865             453     540.185E-03     563.619E-03
            1865             454     480.970E-03     504.732E-03
            1865            2498     487.497E-03     509.175E-03
            1865            2499     547.881E-03     569.297E-03
            1866             452     598.933E-03     622.129E-03
            1866             453     540.185E-03     563.619E-03
            1866            2499     547.881E-03     569.297E-03
            1866            2500     607.629E-03     628.913E-03
            1867             451     658.137E-03     680.117E-03
            1867             452     598.933E-03     622.129E-03
            1867            2500     607.629E-03     628.913E-03
            1867            2501     667.502E-03     687.954E-03
            1868             450     717.404E-03     737.896E-03
            1868             451     658.137E-03     680.117E-03
            1868            2501     667.502E-03     687.954E-03
            1868            2502     726.631E-03     746.141E-03
            1869             449     780.111E-03     797.540E-03
            1869             450     717.404E-03     737.896E-03
            1869            2502     726.631E-03     746.141E-03
            1869            2503     787.381E-03     804.127E-03
            1870             448     846.135E-03     861.984E-03
            1870             449     780.111E-03     797.540E-03
            1870            2503     787.381E-03     804.127E-03
            1870            2504     849.007E-03     863.163E-03
            1871             447     937.747E-03     963.805E-03
            1871             448     846.135E-03     861.984E-03
            1871            2504     849.007E-03     863.163E-03
            1871            2505     927.448E-03     949.913E-03
            1872              16     997.110E-03         1.03168
            1872             437     976.403E-03         1.00698
            1872             447     937.747E-03     963.805E-03
            1872            2505     927.448E-03     949.913E-03
            2905              18     39.9175E-03     56.4215E-03
            2905             461     67.2930E-03     85.8733E-03
            2905             552     47.3723E-03     62.9739E-03
            2905            3423     71.0051E-03     91.7085E-03
            2906             460     124.004E-03     145.823E-03
            2906             461     67.2930E-03     85.8733E-03
            2906            3423     71.0051E-03     91.7085E-03
            2906            3424     122.599E-03     149.660E-03
            2907             459     182.939E-03     206.231E-03
            2907             460     124.004E-03     145.823E-03
            2907            3424     122.599E-03     149.660E-03
            2907            3425     179.706E-03     209.061E-03
            2908             458     242.431E-03     266.303E-03
            2908             459     182.939E-03     206.231E-03
            2908            3425     179.706E-03     209.061E-03
            2908            3426     238.191E-03     268.918E-03
            2909             457     302.276E-03     326.241E-03
            2909             458     242.431E-03     266.303E-03
            2909            3426     238.191E-03     268.918E-03
            2909            3427     297.335E-03     328.163E-03
            2910             456     361.976E-03     385.941E-03
            2910             457     302.276E-03     326.241E-03
            2910            3427     297.335E-03     328.163E-03
            2910            3428     356.642E-03     387.440E-03
            2911             455     421.678E-03     445.432E-03
            2911             456     361.976E-03     385.941E-03
            2911            3428     356.642E-03     387.440E-03
            2911            3429     415.766E-03     446.431E-03
            2912             454     480.970E-03     504.732E-03
            2912             455     421.678E-03     445.432E-03
            2912            3429     415.766E-03     446.431E-03
            2912            3430     474.732E-03     505.281E-03
            2913             453     540.185E-03     563.619E-03
            2913             454     480.970E-03     504.732E-03
            2913            3430     474.732E-03     505.281E-03
            2913            3431     533.349E-03     563.636E-03
            2914             452     598.933E-03     622.129E-03
            2914             453     540.185E-03     563.619E-03
            2914            3431     533.349E-03     563.636E-03
            2914            3432     591.960E-03     621.840E-03
            2915             451     658.137E-03     680.117E-03
            2915             452     598.933E-03     622.129E-03
            2915            3432     591.960E-03     621.840E-03
            2915            3433     650.424E-03     679.498E-03
            2916             450     717.404E-03     737.896E-03
            2916             451     658.137E-03     680.117E-03
            2916            3433     650.424E-03     679.498E-03
            2916            3434     711.124E-03     738.661E-03
            2917             449     780.111E-03     797.540E-03
            2917             450     717.404E-03     737.896E-03
            2917            3434     711.124E-03     738.661E-03
            2917            3435     774.424E-03     800.356E-03
            2918             448     846.135E-03     861.984E-03
            2918             449     780.111E-03     797.540E-03
            2918            3435     774.424E-03     800.356E-03
            2918            3436     854.438E-03     878.656E-03
            2919             447     937.747E-03     963.805E-03
            2919             448     846.135E-03     861.984E-03
            2919            3436     854.438E-03     878.656E-03
            2919            3437     973.185E-03     987.997E-03
            2920              16     997.110E-03         1.03168
            2920             447     937.747E-03     963.805E-03
            2920             528         1.04364         1.04982
            2920            3437     973.185E-03     987.997E-03
            2921             551     68.1500E-03     78.6378E-03
            2921             552     47.3723E-03     62.9739E-03
            2921            3423     71.0051E-03     91.7085E-03
            2921            3438     89.1660E-03     102.035E-03
            2922            3423     71.0051E-03     91.7085E-03
            2922            3424     122.599E-03     149.660E-03
            2922            3438     89.1660E-03     102.035E-03
            2922            3439     136.235E-03     153.886E-03
            2923            3424     122.599E-03     149.660E-03
            2923            3425     179.706E-03     209.061E-03
            2923            3439     136.235E-03     153.886E-03
            2923            3440     190.956E-03     211.445E-03
            2924            3425     179.706E-03     209.061E-03
            2924            3426     238.191E-03     268.918E-03
            2924            3440     190.956E-03     211.445E-03
            2924            3441     248.959E-03     269.665E-03
            2925            3426     238.191E-03     268.918E-03
            2925            3427     297.335E-03     328.163E-03
            2925            3441     248.959E-03     269.665E-03
            2925            3442     307.862E-03     328.617E-03
            2926            3427     297.335E-03     328.163E-03
            2926            3428     356.642E-03     387.440E-03
            2926            3442     307.862E-03     328.617E-03
            2926            3443     367.226E-03     388.092E-03
            2927            3428     356.642E-03     387.440E-03
            2927            3429     415.766E-03     446.431E-03
            2927            3443     367.226E-03     388.092E-03
            2927            3444     426.872E-03     447.803E-03
            2928            3429     415.766E-03     446.431E-03
            2928            3430     474.732E-03     505.281E-03
            2928            3444     426.872E-03     447.803E-03
            2928            3445     486.759E-03     507.713E-03
            2929            3430     474.732E-03     505.281E-03
            2929            3431     533.349E-03     563.636E-03
            2929            3445     486.759E-03     507.713E-03
            2929            3446     546.931E-03     567.957E-03
            2930            3431     533.349E-03     563.636E-03
            2930            3432     591.960E-03     621.840E-03
            2930            3446     546.931E-03     567.957E-03
            2930            3447     607.295E-03     628.728E-03
            2931            3432     591.960E-03     621.840E-03
            2931            3433     650.424E-03     679.498E-03
            2931            3447     607.295E-03     628.728E-03
            2931            3448     668.250E-03     690.595E-03
            2932            3433     650.424E-03     679.498E-03
            2932            3434     711.124E-03     738.661E-03
            2932            3448     668.250E-03     690.595E-03
            2932            3449     730.578E-03     755.099E-03
            2933            3434     711.124E-03     738.661E-03
            2933            3435     774.424E-03     800.356E-03
            2933            3449     730.578E-03     755.099E-03
            2933            3450     796.363E-03     823.545E-03
            2934            3435     774.424E-03     800.356E-03
            2934            3436     854.438E-03     878.656E-03
            2934            3450     796.363E-03     823.545E-03
            2934            3451     879.526E-03     903.938E-03
            2935            3436     854.438E-03     878.656E-03
            2935            3437     973.185E-03     987.997E-03
            2935            3451     879.526E-03     903.938E-03
            2935            3452     965.500E-03     973.792E-03
            2936             528         1.04364         1.04982
            2936             529         1.00249     998.699E-03
            2936            3437     973.185E-03     987.997E-03
            2936            3452     965.500E-03     973.792E-03
            2937             550     100.448E-03     99.5440E-03
            2937             551     68.1500E-03     78.6378E-03
            2937            3438     89.1660E-03     102.035E-03
            2937            3453     116.328E-03     121.489E-03
            2938            3438     89.1660E-03     102.035E-03
            2938            3439     136.235E-03     153.886E-03
            2938            3453     116.328E-03     121.489E-03
            2938            3454     156.089E-03     168.382E-03
            2939            3439     136.235E-03     153.886E-03
            2939            3440     190.956E-03     211.445E-03
            2939            3454     156.089E-03     168.382E-03
            2939            3455     207.294E-03     219.541E-03
            2940            3440     190.956E-03     211.445E-03
            2940            3441     248.959E-03     269.665E-03
            2940            3455     207.294E-03     219.541E-03
            2940            3456     263.177E-03     274.283E-03
            2941            3441     248.959E-03     269.665E-03
            2941            3442     307.862E-03     328.617E-03
            2941            3456     263.177E-03     274.283E-03
            2941            3457     320.558E-03     331.647E-03
            2942            3442     307.862E-03     328.617E-03
            2942            3443     367.226E-03     388.092E-03
            2942            3457     320.558E-03     331.647E-03
            2942            3458     378.702E-03     389.986E-03
            2943            3443     367.226E-03     388.092E-03
            2943            3444     426.872E-03     447.803E-03
            2943            3458     378.702E-03     389.986E-03
            2943            3459     437.638E-03     449.040E-03
            2944            3444     426.872E-03     447.803E-03
            2944            3445     486.759E-03     507.713E-03
            2944            3459     437.638E-03     449.040E-03
            2944            3460     497.105E-03     508.672E-03
            2945            3445     486.759E-03     507.713E-03
            2945            3446     546.931E-03     567.957E-03
            2945            3460     497.105E-03     508.672E-03
            2945            3461     557.199E-03     569.012E-03
            2946            3446     546.931E-03     567.957E-03
            2946            3447     607.295E-03     628.728E-03
            2946            3461     557.199E-03     569.012E-03
            2946            3462     617.775E-03     630.271E-03
            2947            3447     607.295E-03     628.728E-03
            2947            3448     668.250E-03     690.595E-03
            2947            3462     617.775E-03     630.271E-03
            2947            3463     679.313E-03     693.428E-03
            2948            3448     668.250E-03     690.595E-03
            2948            3449     730.578E-03     755.099E-03
            2948            3463     679.313E-03     693.428E-03
            2948            3464     740.919E-03     758.437E-03
            2949            3449     730.578E-03     755.099E-03
            2949            3450     796.363E-03     823.545E-03
            2949            3464     740.919E-03     758.437E-03
            2949            3465     807.512E-03     828.077E-03
            2950            3450     796.363E-03     823.545E-03
            2950            3451     879.526E-03     903.938E-03
            2950            3465     807.512E-03     828.077E-03
            2950            3466     872.382E-03     893.908E-03
            2951            3451     879.526E-03     903.938E-03
            2951            3452     965.500E-03     973.792E-03
            2951            3466     872.382E-03     893.908E-03
            2951            3467     924.145E-03     945.666E-03
            2952             529         1.00249     998.699E-03
            2952             530     947.230E-03     968.380E-03
            2952            3452     965.500E-03     973.792E-03
            2952            3467     924.145E-03     945.666E-03
            2953             549     135.207E-03     137.290E-03
            2953             550     100.448E-03     99.5440E-03
            2953            3453     116.328E-03     121.489E-03
            2953            3468     146.202E-03     153.408E-03
            2954            3453     116.328E-03     121.489E-03
            2954            3454     156.089E-03     168.382E-03
            2954            3468     146.202E-03     153.408E-03
            2954            3469     179.819E-03     188.432E-03
            2955            3454     156.089E-03     168.382E-03
            2955            3455     207.294E-03     219.541E-03
            2955            3469     179.819E-03     188.432E-03
            2955            3470     228.116E-03     231.683E-03
            2956            3455     207.294E-03     219.541E-03
            2956            3456     263.177E-03     274.283E-03
            2956            3470     228.116E-03     231.683E-03
            2956            3471     280.452E-03     282.645E-03
            2957            3456     263.177E-03     274.283E-03
            2957            3457     320.558E-03     331.647E-03
            2957            3471     280.452E-03     282.645E-03
            2957            3472     334.869E-03     336.984E-03
            2958            3457     320.558E-03     331.647E-03
            2958            3458     378.702E-03     389.986E-03
            2958            3472     334.869E-03     336.984E-03
            2958            3473     390.835E-03     392.981E-03
            2959            3458     378.702E-03     389.986E-03
            2959            3459     437.638E-03     449.040E-03
            2959            3473     390.835E-03     392.981E-03
            2959            3474     447.657E-03     449.988E-03
            2960            3459     437.638E-03     449.040E-03
            2960            3460     497.105E-03     508.672E-03
            2960            3474     447.657E-03     449.988E-03
            2960            3475     505.310E-03     507.645E-03
            2961            3460     497.105E-03     508.672E-03
            2961            3461     557.199E-03     569.012E-03
            2961            3475     505.310E-03     507.645E-03
            2961            3476     563.424E-03     565.919E-03
            2962            3461     557.199E-03     569.012E-03
            2962            3462     617.775E-03     630.271E-03
            2962            3476     563.424E-03     565.919E-03
            2962            3477     622.263E-03     624.929E-03
            2963            3462     617.775E-03     630.271E-03
            2963            3463     679.313E-03     693.428E-03
            2963            3477     622.263E-03     624.929E-03
            2963            3478     681.040E-03     684.600E-03
            2964            3463     679.313E-03     693.428E-03
            2964            3464     740.919E-03     758.437E-03
            2964            3478     681.040E-03     684.600E-03
            2964            3479     740.586E-03     745.512E-03
            2965            3464     740.919E-03     758.437E-03
            2965            3465     807.512E-03     828.077E-03
            2965            3479     740.586E-03     745.512E-03
            2965            3480     797.152E-03     805.612E-03
            2966            3465     807.512E-03     828.077E-03
            2966            3466     872.382E-03     893.908E-03
            2966            3480     797.152E-03     805.612E-03
            2966            3481     845.323E-03     859.371E-03
            2967            3466     872.382E-03     893.908E-03
            2967            3467     924.145E-03     945.666E-03
            2967            3481     845.323E-03     859.371E-03
            2967            3482     883.250E-03     890.258E-03
            2968             530     947.230E-03     968.380E-03
            2968             531     899.034E-03     896.584E-03
            2968            3467     924.145E-03     945.666E-03
            2968            3482     883.250E-03     890.258E-03
            2969             548     161.651E-03     181.860E-03
            2969             549     135.207E-03     137.290E-03
            2969            3468     146.202E-03     153.408E-03
            2969            3483     175.783E-03     187.701E-03
            2970            3468     146.202E-03     153.408E-03
            2970            3469     179.819E-03     188.432E-03
            2970            3483     175.783E-03     187.701E-03
            2970            3484     209.655E-03     209.594E-03
            2971            3469     179.819E-03     188.432E-03
            2971            3470     228.116E-03     231.683E-03
            2971            3484     209.655E-03     209.594E-03
            2971            3485     252.484E-03     247.981E-03
            2972            3470     228.116E-03     231.683E-03
            2972            3471     280.452E-03     282.645E-03
            2972            3485     252.484E-03     247.981E-03
            2972            3486     300.301E-03     294.703E-03
            2973            3471     280.452E-03     282.645E-03
            2973            3472     334.869E-03     336.984E-03
            2973            3486     300.301E-03     294.703E-03
            2973            3487     351.128E-03     345.096E-03
            2974            3472     334.869E-03     336.984E-03
            2974            3473     390.835E-03     392.981E-03
            2974            3487     351.128E-03     345.096E-03
            2974            3488     403.927E-03     397.722E-03
            2975            3473     390.835E-03     392.981E-03
            2975            3474     447.657E-03     449.988E-03
            2975            3488     403.927E-03     397.722E-03
            2975            3489     457.814E-03     451.427E-03
            2976            3474     447.657E-03     449.988E-03
            2976            3475     505.310E-03     507.645E-03
            2976            3489     457.814E-03     451.427E-03
            2976            3490     512.135E-03     505.708E-03
            2977            3475     505.310E-03     507.645E-03
            2977            3476     563.424E-03     565.919E-03
            2977            3490     512.135E-03     505.708E-03
            2977            3491     566.756E-03     559.974E-03
            2978            3476     563.424E-03     565.919E-03
            2978            3477     622.263E-03     624.929E-03
            2978            3491     566.756E-03     559.974E-03
            2978            3492     620.975E-03     613.888E-03
            2979            3477     622.263E-03     624.929E-03
            2979            3478     681.040E-03     684.600E-03
            2979            3492     620.975E-03     613.888E-03
            2979            3493     674.757E-03     666.454E-03
            2980            3478     681.040E-03     684.600E-03
            2980            3479     740.586E-03     745.512E-03
            2980            3493     674.757E-03     666.454E-03
            2980            3494     726.651E-03     716.835E-03
            2981            3479     740.586E-03     745.512E-03
            2981            3480     797.152E-03     805.612E-03
            2981            3494     726.651E-03     716.835E-03
            2981            3495     772.914E-03     761.734E-03
            2982            3480     797.152E-03     805.612E-03
            2982            3481     845.323E-03     859.371E-03
            2982            3495     772.914E-03     761.734E-03
            2982            3496     810.792E-03     798.590E-03
            2983            3481     845.323E-03     859.371E-03
            2983            3482     883.250E-03     890.258E-03
            2983            3496     810.792E-03     798.590E-03
            2983            3497     832.016E-03     818.854E-03
            2984             531     899.034E-03     896.584E-03
            2984             532     836.778E-03     822.500E-03
            2984            3482     883.250E-03     890.258E-03
            2984            3497     832.016E-03     818.854E-03
            2985              22     105.966E-03     130.949E-03
            2985             547     123.772E-03     143.899E-03
            2985             548     161.651E-03     181.860E-03
            2985            3483     175.783E-03     187.701E-03
            2986             546     162.014E-03     177.424E-03
            2986             547     123.772E-03     143.899E-03
            2986            3483     175.783E-03     187.701E-03
            2986            3484     209.655E-03     209.594E-03
            2987             545     204.994E-03     220.771E-03
            2987             546     162.014E-03     177.424E-03
            2987            3484     209.655E-03     209.594E-03
            2987            3485     252.484E-03     247.981E-03
            2988             544     251.853E-03     267.750E-03
            2988             545     204.994E-03     220.771E-03
            2988            3485     252.484E-03     247.981E-03
            2988            3486     300.301E-03     294.703E-03
            2989             543     301.249E-03     316.470E-03
            2989             544     251.853E-03     267.750E-03
            2989            3486     300.301E-03     294.703E-03
            2989            3487     351.128E-03     345.096E-03
            2990             542     351.513E-03     366.663E-03
            2990             543     301.249E-03     316.470E-03
            2990            3487     351.128E-03     345.096E-03
            2990            3488     403.927E-03     397.722E-03
            2991             541     402.470E-03     417.285E-03
            2991             542     351.513E-03     366.663E-03
            2991            3488     403.927E-03     397.722E-03
            2991            3489     457.814E-03     451.427E-03
            2992             540     453.399E-03     468.316E-03
            2992             541     402.470E-03     417.285E-03
            2992            3489     457.814E-03     451.427E-03
            2992            3490     512.135E-03     505.708E-03
            2993             539     504.382E-03     518.845E-03
            2993             540     453.399E-03     468.316E-03
            2993            3490     512.135E-03     505.708E-03
            2993            3491     566.756E-03     559.974E-03
            2994             538     554.569E-03     568.884E-03
            2994             539     504.382E-03     518.845E-03
            2994            3491     566.756E-03     559.974E-03
            2994            3492     620.975E-03     613.888E-03
            2995             537     604.267E-03     617.263E-03
            2995             538     554.569E-03     568.884E-03
            2995            3492     620.975E-03     613.888E-03
            2995            3493     674.757E-03     666.454E-03
            2996             536     651.319E-03     662.694E-03
            2996             537     604.267E-03     617.263E-03
            2996            3493     674.757E-03     666.454E-03
            2996            3494     726.651E-03     716.835E-03
            2997             535     697.698E-03     704.583E-03
            2997             536     651.319E-03     662.694E-03
            2997            3494     726.651E-03     716.835E-03
            2997            3495     772.914E-03     761.734E-03
            2998             534     738.824E-03     741.651E-03
            2998             535     697.698E-03     704.583E-03
            2998            3495     772.914E-03     761.734E-03
            2998            3496     810.792E-03     798.590E-03
            2999             533     792.699E-03     804.479E-03
            2999             534     738.824E-03     741.651E-03
            2999            3496     810.792E-03     798.590E-03
            2999            3497     832.016E-03     818.854E-03
            3000              21     830.112E-03     849.477E-03
            3000             532     836.778E-03     822.500E-03
            3000             533     792.699E-03     804.479E-03
            3000            3497     832.016E-03     818.854E-03
            4210               2     7.31092E-03     18.0435E-03
            4210              50     16.5153E-03     19.0089E-03
            4210             217     142.500E-06     148.572E-06
            4210            4477     121.051E-06     128.298E-06
            4211              49     26.9021E-03     22.1281E-03
            4211              50     16.5153E-03     19.0089E-03
            4211            4477     121.051E-06     128.298E-06
            4211            4478     89.1237E-06     97.5639E-06
            4212              48     30.3934E-03     26.1748E-03
            4212              49     26.9021E-03     22.1281E-03
            4212            4478     89.1237E-06     97.5639E-06
            4212            4479     75.9738E-06     84.2485E-06
            4213              47     31.7059E-03     27.4478E-03
            4213              48     30.3934E-03     26.1748E-03
            4213            4479     75.9738E-06     84.2485E-06
            4213            4480     71.2091E-06     78.9284E-06
            4214              46     30.9738E-03     27.2577E-03
            4214              47     31.7059E-03     27.4478E-03
            4214            4480     71.2091E-06     78.9284E-06
            4214            4481     68.0212E-06     75.2990E-06
            4215              45     30.7137E-03     27.2848E-03
            4215              46     30.9738E-03     27.2577E-03
            4215            4481     68.0212E-06     75.2990E-06
            4215            4482     65.7718E-06     72.5785E-06
            4216              44     30.1194E-03     26.9824E-03
            4216              45     30.7137E-03     27.2848E-03
            4216            4482     65.7718E-06     72.5785E-06
            4216            4483     63.4732E-06     69.8205E-06
            4217              43     29.7117E-03     26.8920E-03
            4217              44     30.1194E-03     26.9824E-03
            4217            4483     63.4732E-06     69.8205E-06
            4217            4484     61.3187E-06     67.2358E-06
            4218              42     29.2089E-03     26.7105E-03
            4218              43     29.7117E-03     26.8920E-03
            4218            4484     61.3187E-06     67.2358E-06
            4218            4485     59.2890E-06     64.6816E-06
            4219              41     28.7951E-03     26.6287E-03
            4219              42     29.2089E-03     26.7105E-03
            4219            4485     59.2890E-06     64.6816E-06
            4219            4486     57.4939E-06     62.3358E-06
            4220              40     28.3791E-03     26.5385E-03
            4220              41     28.7951E-03     26.6287E-03
            4220            4486     57.4939E-06     62.3358E-06
            4220            4487     55.9847E-06     60.1366E-06
            4221              39     27.9704E-03     26.5769E-03
            4221              40     28.3791E-03     26.5385E-03
            4221            4487     55.9847E-06     60.1366E-06
            4221            4488     54.7922E-06     58.2253E-06
            4222              38     27.7145E-03     26.4829E-03
            4222              39     27.9704E-03     26.5769E-03
            4222            4488     54.7922E-06     58.2253E-06
            4222            4489     53.8239E-06     56.6232E-06
            4223              37     27.3393E-03     26.5014E-03
            4223              38     27.7145E-03     26.4829E-03
            4223            4489     53.8239E-06     56.6232E-06
            4223            4490     52.8299E-06     55.8149E-06
            4224              36     25.8578E-03     27.4666E-03
            4224              37     27.3393E-03     26.5014E-03
            4224            4490     52.8299E-06     55.8149E-06
            4224            4491     52.2523E-06     55.7615E-06
            4225               1     24.7369E-03     28.2816E-03
            4225              36     25.8578E-03     27.4666E-03
            4225             209     52.1602E-06     55.8001E-06
            4225            4491     52.2523E-06     55.7615E-06
            4226             217     142.500E-06     148.572E-06
            4226             218     113.908E-06     111.721E-06
            4226            4477     121.051E-06     128.298E-06
            4226            4492     104.493E-06     104.745E-06
            4227            4477     121.051E-06     128.298E-06
            4227            4478     89.1237E-06     97.5639E-06
            4227            4492     104.493E-06     104.745E-06
            4227            4493     88.7179E-06     92.3167E-06
            4228            4478     89.1237E-06     97.5639E-06
            4228            4479     75.9738E-06     84.2485E-06
            4228            4493     88.7179E-06     92.3167E-06
            4228            4494     79.3579E-06     84.4343E-06
            4229            4479     75.9738E-06     84.2485E-06
            4229            4480     71.2091E-06     78.9284E-06
            4229            4494     79.3579E-06     84.4343E-06
            4229            4495     75.3373E-06     80.6142E-06
            4230            4480     71.2091E-06     78.9284E-06
            4230            4481     68.0212E-06     75.2990E-06
            4230            4495     75.3373E-06     80.6142E-06
            4230            4496     72.7203E-06     77.4192E-06
            4231            4481     68.0212E-06     75.2990E-06
            4231            4482     65.7718E-06     72.5785E-06
            4231            4496     72.7203E-06     77.4192E-06
            4231            4497     69.8173E-06     74.1934E-06
            4232            4482     65.7718E-06     72.5785E-06
            4232            4483     63.4732E-06     69.8205E-06
            4232            4497     69.8173E-06     74.1934E-06
            4232            4498     67.1914E-06     71.2322E-06
            4233            4483     63.4732E-06     69.8205E-06
            4233            4484     61.3187E-06     67.2358E-06
            4233            4498     67.1914E-06     71.2322E-06
            4233            4499     64.6755E-06     68.4069E-06
            4234            4484     61.3187E-06     67.2358E-06
            4234            4485     59.2890E-06     64.6816E-06
            4234            4499     64.6755E-06     68.4069E-06
            4234            4500     62.4655E-06     65.8808E-06
            4235            4485     59.2890E-06     64.6816E-06
            4235            4486     57.4939E-06     62.3358E-06
            4235            4500     62.4655E-06     65.8808E-06
            4235            4501     60.5322E-06     63.5730E-06
            4236            4486     57.4939E-06     62.3358E-06
            4236            4487     55.9847E-06     60.1366E-06
            4236            4501     60.5322E-06     63.5730E-06
            4236            4502     58.9446E-06     61.6086E-06
            4237            4487     55.9847E-06     60.1366E-06
            4237            4488     54.7922E-06     58.2253E-06
            4237            4502     58.9446E-06     61.6086E-06
            4237            4503     57.7695E-06     59.8163E-06
            4238            4488     54.7922E-06     58.2253E-06
            4238            4489     53.8239E-06     56.6232E-06
            4238            4503     57.7695E-06     59.8163E-06
            4238            4504     56.8086E-06     58.4335E-06
            4239            4489     53.8239E-06     56.6232E-06
            4239            4490     52.8299E-06     55.8149E-06
            4239            4504     56.8086E-06     58.4335E-06
            4239            4505     56.5368E-06     57.3584E-06
            4240            4490     52.8299E-06     55.8149E-06
            4240            4491     52.2523E-06     55.7615E-06
            4240            4505     56.5368E-06     57.3584E-06
            4240            4506     57.6083E-06     55.3275E-06
            4241             208     58.4977E-06     53.8839E-06
            4241             209     52.1602E-06     55.8001E-06
            4241            4491     52.2523E-06     55.7615E-06
            4241            4506     57.6083E-06     55.3275E-06
            4242             218     113.908E-06     111.721E-06
            4242             219     82.6044E-06     85.4224E-06
            4242            4492     104.493E-06     104.745E-06
            4242            4507     78.9619E-06     81.4875E-06
            4243            4492     104.493E-06     104.745E-06
            4243            4493     88.7179E-06     92.3167E-06
            4243            4507     78.9619E-06     81.4875E-06
            4243            4508     77.0420E-06     79.8974E-06
            4244            4493     88.7179E-06     92.3167E-06
            4244            4494     79.3579E-06     84.4343E-06
            4244            4508     77.0420E-06     79.8974E-06
            4244            4509     79.0930E-06     82.1793E-06
            4245            4494     79.3579E-06     84.4343E-06
            4245            4495     75.3373E-06     80.6142E-06
            4245            4509     79.0930E-06     82.1793E-06
            4245            4510     78.5715E-06     81.1257E-06
            4246            4495     75.3373E-06     80.6142E-06
            4246            4496     72.7203E-06     77.4192E-06
            4246            4510     78.5715E-06     81.1257E-06
            4246            4511     76.3552E-06     78.5519E-06
            4247            4496     72.7203E-06     77.4192E-06
            4247            4497     69.8173E-06     74.1934E-06
            4247            4511     76.3552E-06     78.5519E-06
            4247            4512     73.4127E-06     75.3243E-06
            4248            4497     69.8173E-06     74.1934E-06
            4248            4498     67.1914E-06     71.2322E-06
            4248            4512     73.4127E-06     75.3243E-06
            4248            4513     70.4281E-06     72.1947E-06
            4249            4498     67.1914E-06     71.2322E-06
            4249            4499     64.6755E-06     68.4069E-06
            4249            4513     70.4281E-06     72.1947E-06
            4249            4514     67.7448E-06     69.3540E-06
            4250            4499     64.6755E-06     68.4069E-06
            4250            4500     62.4655E-06     65.8808E-06
            4250            4514     67.7448E-06     69.3540E-06
            4250            4515     65.3809E-06     66.8592E-06
            4251            4500     62.4655E-06     65.8808E-06
            4251            4501     60.5322E-06     63.5730E-06
            4251            4515     65.3809E-06     66.8592E-06
            4251            4516     63.4017E-06     64.7453E-06
            4252            4501     60.5322E-06     63.5730E-06
            4252            4502     58.9446E-06     61.6086E-06
            4252            4516     63.4017E-06     64.7453E-06
            4252            4517     61.7721E-06     62.9411E-06
            4253            4502     58.9446E-06     61.6086E-06
            4253            4503     57.7695E-06     59.8163E-06
            4253            4517     61.7721E-06     62.9411E-06
            4253            4518     60.5211E-06     61.5102E-06
            4254            4503     57.7695E-06     59.8163E-06
            4254            4504     56.8086E-06     58.4335E-06
            4254            4518     60.5211E-06     61.5102E-06
            4254            4519     59.9885E-06     60.0739E-06
            4255            4504     56.8086E-06     58.4335E-06
            4255            4505     56.5368E-06     57.3584E-06
            4255            4519     59.9885E-06     60.0739E-06
            4255            4520     60.2548E-06     58.1193E-06
            4256            4505     56.5368E-06     57.3584E-06
            4256            4506     57.6083E-06     55.3275E-06
            4256            4520     60.2548E-06     58.1193E-06
            4256            4521     60.6525E-06     56.4710E-06
            4257             207     60.7627E-06     55.9424E-06
            4257             208     58.4977E-06     53.8839E-06
            4257            4506     57.6083E-06     55.3275E-06
            4257            4521     60.6525E-06     56.4710E-06
            4258             219     82.6044E-06     85.4224E-06
            4258             220     58.1283E-06     54.9742E-06
            4258            4507     78.9619E-06     81.4875E-06
            4258            4522     56.8397E-06     56.9526E-06
            4259            4507     78.9619E-06     81.4875E-06
            4259            4508     77.0420E-06     79.8974E-06
            4259            4522     56.8397E-06     56.9526E-06
            4259            4523     63.4626E-06     66.2815E-06
            4260            4508     77.0420E-06     79.8974E-06
            4260            4509     79.0930E-06     82.1793E-06
            4260            4523     63.4626E-06     66.2815E-06
            4260            4524     75.6583E-06     76.6253E-06
            4261            4509     79.0930E-06     82.1793E-06
            4261            4510     78.5715E-06     81.1257E-06
            4261            4524     75.6583E-06     76.6253E-06
            4261            4525     79.4785E-06     79.0747E-06
            4262            4510     78.5715E-06     81.1257E-06
            4262            4511     76.3552E-06     78.5519E-06
            4262            4525     79.4785E-06     79.0747E-06
            4262            4526     78.0275E-06     77.5083E-06
            4263            4511     76.3552E-06     78.5519E-06
            4263            4512     73.4127E-06     75.3243E-06
            4263            4526     78.0275E-06     77.5083E-06
            4263            4527     75.6000E-06     75.0188E-06
            4264            4512     73.4127E-06     75.3243E-06
            4264            4513     70.4281E-06     72.1947E-06
            4264            4527     75.6000E-06     75.0188E-06
            4264            4528     72.7933E-06     72.2403E-06
            4265            4513     70.4281E-06     72.1947E-06
            4265            4514     67.7448E-06     69.3540E-06
            4265            4528     72.7933E-06     72.2403E-06
            4265            4529     70.2354E-06     69.7496E-06
            4266            4514     67.7448E-06     69.3540E-06
            4266            4515     65.3809E-06     66.8592E-06
            4266            4529     70.2354E-06     69.7496E-06
            4266            4530     67.9905E-06     67.5655E-06
            4267            4515     65.3809E-06     66.8592E-06
            4267            4516     63.4017E-06     64.7453E-06
            4267            4530     67.9905E-06     67.5655E-06
            4267            4531     66.0725E-06     65.7442E-06
            4268            4516     63.4017E-06     64.7453E-06
            4268            4517     61.7721E-06     62.9411E-06
            4268            4531     66.0725E-06     65.7442E-06
            4268            4532     64.4907E-06     64.2484E-06
            4269            4517     61.7721E-06     62.9411E-06
            4269            4518     60.5211E-06     61.5102E-06
            4269            4532     64.4907E-06     64.2484E-06
            4269            4533     63.2082E-06     63.0941E-06
            4270            4518     60.5211E-06     61.5102E-06
            4270            4519     59.9885E-06     60.0739E-06
            4270            4533     63.2082E-06     63.0941E-06
            4270            4534     62.5213E-06     62.0621E-06
            4271            4519     59.9885E-06     60.0739E-06
            4271            4520     60.2548E-06     58.1193E-06
            4271            4534     62.5213E-06     62.0621E-06
            4271            4535     62.6839E-06     60.5250E-06
            4272            4520     60.2548E-06     58.1193E-06
            4272            4521     60.6525E-06     56.4710E-06
            4272            4535     62.6839E-06     60.5250E-06
            4272            4536     63.0378E-06     58.8735E-06
            4273             206     63.1077E-06     58.2021E-06
            4273             207     60.7627E-06     55.9424E-06
            4273            4521     60.6525E-06     56.4710E-06
            4273            4536     63.0378E-06     58.8735E-06
            4274             220     58.1283E-06     54.9742E-06
            4274             221     33.5291E-06     30.7950E-06
            4274            4522     56.8397E-06     56.9526E-06
            4274            4537     38.4674E-06     37.3373E-06
            4275            4522     56.8397E-06     56.9526E-06
            4275            4523     63.4626E-06     66.2815E-06
            4275            4537     38.4674E-06     37.3373E-06
            4275            4538     56.0679E-06     54.6502E-06
            4276            4523     63.4626E-06     66.2815E-06
            4276            4524     75.6583E-06     76.6253E-06
            4276            4538     56.0679E-06     54.6502E-06
            4276            4539     72.1696E-06     68.8501E-06
            4277            4524     75.6583E-06     76.6253E-06
            4277            4525     79.4785E-06     79.0747E-06
            4277            4539     72.1696E-06     68.8501E-06
            4277            4540     76.9513E-06     73.5071E-06
            4278            4525     79.4785E-06     79.0747E-06
            4278            4526     78.0275E-06     77.5083E-06
            4278            4540     76.9513E-06     73.5071E-06
            4278            4541     77.6486E-06     74.2092E-06
            4279            4526     78.0275E-06     77.5083E-06
            4279            4527     75.6000E-06     75.0188E-06
            4279            4541     77.6486E-06     74.2092E-06
            4279            4542     76.1204E-06     72.9929E-06
            4280            4527     75.6000E-06     75.0188E-06
            4280            4528     72.7933E-06     72.2403E-06
            4280            4542     76.1204E-06     72.9929E-06
            4280            4543     74.2175E-06     71.3744E-06
            4281            4528     72.7933E-06     72.2403E-06
            4281            4529     70.2354E-06     69.7496E-06
            4281            4543     74.2175E-06     71.3744E-06
            4281            4544     72.1858E-06     69.6308E-06
            4282            4529     70.2354E-06     69.7496E-06
            4282            4530     67.9905E-06     67.5655E-06
            4282            4544     72.1858E-06     69.6308E-06
            4282            4545     70.3227E-06     68.0657E-06
            4283            4530     67.9905E-06     67.5655E-06
            4283            4531     66.0725E-06     65.7442E-06
            4283            4545     70.3227E-06     68.0657E-06
            4283            4546     68.6406E-06     66.6753E-06
            4284            4531     66.0725E-06     65.7442E-06
            4284            4532     64.4907E-06     64.2484E-06
            4284            4546     68.6406E-06     66.6753E-06
            4284            4547     67.1585E-06     65.5746E-06
            4285            4532     64.4907E-06     64.2484E-06
            4285            4533     63.2082E-06     63.0941E-06
            4285            4547     67.1585E-06     65.5746E-06
            4285            4548     65.9329E-06     64.6489E-06
            4286            4533     63.2082E-06     63.0941E-06
            4286            4534     62.5213E-06     62.0621E-06
            4286            4548     65.9329E-06     64.6489E-06
            4286            4549     64.6724E-06     64.2282E-06
            4287            4534     62.5213E-06     62.0621E-06
            4287            4535     62.6839E-06     60.5250E-06
            4287            4549     64.6724E-06     64.2282E-06
            4287            4550     63.9169E-06     64.2851E-06
            4288            4535     62.6839E-06     60.5250E-06
            4288            4536     63.0378E-06     58.8735E-06
            4288            4550     63.9169E-06     64.2851E-06
            4288            4551     64.8118E-06     63.0202E-06
            4289             205     65.7760E-06     61.7440E-06
            4289             206     63.1077E-06     58.2021E-06
            4289            4536     63.0378E-06     58.8735E-06
            4289            4551     64.8118E-06     63.0202E-06
            4290             221     33.5291E-06     30.7950E-06
            4290             222     23.7323E-06     34.1518E-06
            4290            4537     38.4674E-06     37.3373E-06
            4290            4552     32.4301E-06     33.5845E-06
            4291            4537     38.4674E-06     37.3373E-06
            4291            4538     56.0679E-06     54.6502E-06
            4291            4552     32.4301E-06     33.5845E-06
            4291            4553     50.9695E-06     42.8093E-06
            4292            4538     56.0679E-06     54.6502E-06
            4292            4539     72.1696E-06     68.8501E-06
            4292            4553     50.9695E-06     42.8093E-06
            4292            4554     65.7181E-06     58.0142E-06
            4293            4539     72.1696E-06     68.8501E-06
            4293            4540     76.9513E-06     73.5071E-06
            4293            4554     65.7181E-06     58.0142E-06
            4293            4555     72.6520E-06     65.8434E-06
            4294            4540     76.9513E-06     73.5071E-06
            4294            4541     77.6486E-06     74.2092E-06
            4294            4555     72.6520E-06     65.8434E-06
            4294            4556     75.3261E-06     69.2162E-06
            4295            4541     77.6486E-06     74.2092E-06
            4295            4542     76.1204E-06     72.9929E-06
            4295            4556     75.3261E-06     69.2162E-06
            4295            4557     75.8132E-06     70.2498E-06
            4296            4542     76.1204E-06     72.9929E-06
            4296            4543     74.2175E-06     71.3744E-06
            4296            4557     75.8132E-06     70.2498E-06
            4296            4558     75.1119E-06     70.1249E-06
            4297            4543     74.2175E-06     71.3744E-06
            4297            4544     72.1858E-06     69.6308E-06
            4297            4558     75.1119E-06     70.1249E-06
            4297            4559     73.9673E-06     69.4801E-06
            4298            4544     72.1858E-06     69.6308E-06
            4298            4545     70.3227E-06     68.0657E-06
            4298            4559     73.9673E-06     69.4801E-06
            4298            4560     72.6041E-06     68.6267E-06
            4299            4545     70.3227E-06     68.0657E-06
            4299            4546     68.6406E-06     66.6753E-06
            4299            4560     72.6041E-06     68.6267E-06
            4299            4561     71.2408E-06     67.7859E-06
            4300            4546     68.6406E-06     66.6753E-06
            4300            4547     67.1585E-06     65.5746E-06
            4300            4561     71.2408E-06     67.7859E-06
            4300            4562     69.9154E-06     66.9912E-06
            4301            4547     67.1585E-06     65.5746E-06
            4301            4548     65.9329E-06     64.6489E-06
            4301            4562     69.9154E-06     66.9912E-06
            4301            4563     68.6747E-06     66.4265E-06
            4302            4548     65.9329E-06     64.6489E-06
            4302            4549     64.6724E-06     64.2282E-06
            4302            4563     68.6747E-06     66.4265E-06
            4302            4564     67.4233E-06     66.1080E-06
            4303            4549     64.6724E-06     64.2282E-06
            4303            4550     63.9169E-06     64.2851E-06
            4303            4564     67.4233E-06     66.1080E-06
            4303            4565     65.8052E-06     66.6963E-06
            4304            4550     63.9169E-06     64.2851E-06
            4304            4551     64.8118E-06     63.0202E-06
            4304            4565     65.8052E-06     66.6963E-06
            4304            4566     64.3809E-06     68.2721E-06
            4305             204     63.8424E-06     69.1411E-06
            4305             205     65.7760E-06     61.7440E-06
            4305            4551     64.8118E-06     63.0202E-06
            4305            4566     64.3809E-06     68.2721E-06
            4306               9     25.5116E-06     47.6845E-06
            4306             222     23.7323E-06     34.1518E-06
            4306             738     33.3507E-06     37.8175E-06
            4306            4552     32.4301E-06     33.5845E-06
            4307             737     47.7901E-06     36.2001E-06
            4307             738     33.3507E-06     37.8175E-06
            4307            4552     32.4301E-06     33.5845E-06
            4307            4553     50.9695E-06     42.8093E-06
            4308             736     61.1915E-06     51.6043E-06
            4308             737     47.7901E-06     36.2001E-06
            4308            4553     50.9695E-06     42.8093E-06
            4308            4554     65.7181E-06     58.0142E-06
            4309             735     70.2288E-06     61.8097E-06
            4309             736     61.1915E-06     51.6043E-06
            4309            4554     65.7181E-06     58.0142E-06
            4309            4555     72.6520E-06     65.8434E-06
            4310             734     73.8745E-06     66.4686E-06
            4310             735     70.2288E-06     61.8097E-06
            4310            4555     72.6520E-06     65.8434E-06
            4310            4556     75.3261E-06     69.2162E-06
            4311             733     75.5401E-06     68.8659E-06
            4311             734     73.8745E-06     66.4686E-06
            4311            4556     75.3261E-06     69.2162E-06
            4311            4557     75.8132E-06     70.2498E-06
            4312             732     75.5577E-06     69.5457E-06
            4312             733     75.5401E-06     68.8659E-06
            4312            4557     75.8132E-06     70.2498E-06
            4312            4558     75.1119E-06     70.1249E-06
            4313             731     74.8613E-06     69.4486E-06
            4313             732     75.5577E-06     69.5457E-06
            4313            4558     75.1119E-06     70.1249E-06
            4313            4559     73.9673E-06     69.4801E-06
            4314             730     73.7770E-06     68.9971E-06
            4314             731     74.8613E-06     69.4486E-06
            4314            4559     73.9673E-06     69.4801E-06
            4314            4560     72.6041E-06     68.6267E-06
            4315             729     72.5747E-06     68.3948E-06
            4315             730     73.7770E-06     68.9971E-06
            4315            4560     72.6041E-06     68.6267E-06
            4315            4561     71.2408E-06     67.7859E-06
            4316             728     71.3006E-06     67.7574E-06
            4316             729     72.5747E-06     68.3948E-06
            4316            4561     71.2408E-06     67.7859E-06
            4316            4562     69.9154E-06     66.9912E-06
            4317             727     70.1335E-06     67.3901E-06
            4317             728     71.3006E-06     67.7574E-06
            4317            4562     69.9154E-06     66.9912E-06
            4317            4563     68.6747E-06     66.4265E-06
            4318             726     68.8577E-06     66.9070E-06
            4318             727     70.1335E-06     67.3901E-06
            4318            4563     68.6747E-06     66.4265E-06
            4318            4564     67.4233E-06     66.1080E-06
            4319             725     67.5147E-06     67.4662E-06
            4319             726     68.8577E-06     66.9070E-06
            4319            4564     67.4233E-06     66.1080E-06
            4319            4565     65.8052E-06     66.6963E-06
            4320             724     63.7278E-06     69.6545E-06
            4320             725     67.5147E-06     67.4662E-06
            4320            4565     65.8052E-06     66.6963E-06
            4320            4566     64.3809E-06     68.2721E-06
            4321               7     60.4767E-06     70.6691E-06
            4321             204     63.8424E-06     69.1411E-06
            4321             724     63.7278E-06     69.6545E-06
            4321            4566     64.3809E-06     68.2721E-06
            4786              30     40.3174E-03     46.6350E-03
            4786             797     42.0066E-03     44.8512E-03
            4786             838     52.1421E-06     55.8767E-06
            4786            4987     52.2458E-06     55.8044E-06
            4787             797     42.0066E-03     44.8512E-03
            4787             798     44.3033E-03     42.7734E-03
            4787            4987     52.2458E-06     55.8044E-06
            4787            4988     52.8308E-06     55.7903E-06
            4788             798     44.3033E-03     42.7734E-03
            4788             799     44.8669E-03     42.6075E-03
            4788            4988     52.8308E-06     55.7903E-06
            4788            4989     53.7827E-06     56.5402E-06
            4789             799     44.8669E-03     42.6075E-03
            4789             800     45.2667E-03     42.6993E-03
            4789            4989     53.7827E-06     56.5402E-06
            4789            4990     54.6692E-06     58.0831E-06
            4790             800     45.2667E-03     42.6993E-03
            4790             801     45.9919E-03     42.6461E-03
            4790            4990     54.6692E-06     58.0831E-06
            4790            4991     55.7729E-06     59.9137E-06
            4791             801     45.9919E-03     42.6461E-03
            4791             802     46.7223E-03     42.8042E-03
            4791            4991     55.7729E-06     59.9137E-06
            4791            4992     57.1868E-06     62.0194E-06
            4792             802     46.7223E-03     42.8042E-03
            4792             803     47.4643E-03     42.9654E-03
            4792            4992     57.1868E-06     62.0194E-06
            4792            4993     58.8817E-06     64.2681E-06
            4793             803     47.4643E-03     42.9654E-03
            4793             804     48.3517E-03     43.2933E-03
            4793            4993     58.8817E-06     64.2681E-06
            4793            4994     60.8142E-06     66.7273E-06
            4794             804     48.3517E-03     43.2933E-03
            4794             805     49.0846E-03     43.4745E-03
            4794            4994     60.8142E-06     66.7273E-06
            4794            4995     62.8649E-06     69.2113E-06
            4795             805     49.0846E-03     43.4745E-03
            4795             806     50.1294E-03     44.0150E-03
            4795            4995     62.8649E-06     69.2113E-06
            4795            4996     65.0561E-06     71.8611E-06
            4796             806     50.1294E-03     44.0150E-03
            4796             807     50.6201E-03     44.0121E-03
            4796            4996     65.0561E-06     71.8611E-06
            4796            4997     67.1364E-06     74.4223E-06
            4797             807     50.6201E-03     44.0121E-03
            4797             808     51.9189E-03     44.3844E-03
            4797            4997     67.1364E-06     74.4223E-06
            4797            4998     70.0441E-06     77.7903E-06
            4798             808     51.9189E-03     44.3844E-03
            4798             809     49.8720E-03     42.3610E-03
            4798            4998     70.0441E-06     77.7903E-06
            4798            4999     74.2961E-06     82.6383E-06
            4799             809     49.8720E-03     42.3610E-03
            4799             810     44.1306E-03     35.6635E-03
            4799            4999     74.2961E-06     82.6383E-06
            4799            5000     86.7054E-06     95.2754E-06
            4800             810     44.1306E-03     35.6635E-03
            4800             811     26.5526E-03     30.7902E-03
            4800            5000     86.7054E-06     95.2754E-06
            4800            5001     118.006E-06     125.436E-06
            4801              28     10.9545E-03     29.5146E-03
            4801             811     26.5526E-03     30.7902E-03
            4801             812     139.217E-06     145.498E-06
            4801            5001     118.006E-06     125.436E-06
            4802             837     58.4314E-06     53.7967E-06
            4802             838     52.1421E-06     55.8767E-06
            4802            4987     52.2458E-06     55.8044E-06
            4802            5002     57.4947E-06     55.2539E-06
            4803            4987     52.2458E-06     55.8044E-06
            4803            4988     52.8308E-06     55.7903E-06
            4803            5002     57.4947E-06     55.2539E-06
            4803            5003     56.3683E-06     57.2506E-06
            4804            4988     52.8308E-06     55.7903E-06
            4804            4989     53.7827E-06     56.5402E-06
            4804            5003     56.3683E-06     57.2506E-06
            4804            5004     56.6159E-06     58.2460E-06
            4805            4989     53.7827E-06     56.5402E-06
            4805            4990     54.6692E-06     58.0831E-06
            4805            5004     56.6159E-06     58.2460E-06
            4805            5005     57.5132E-06     59.5584E-06
            4806            4990     54.6692E-06     58.0831E-06
            4806            4991     55.7729E-06     59.9137E-06
            4806            5005     57.5132E-06     59.5584E-06
            4806            5006     58.6004E-06     61.2614E-06
            4807            4991     55.7729E-06     59.9137E-06
            4807            4992     57.1868E-06     62.0194E-06
            4807            5006     58.6004E-06     61.2614E-06
            4807            5007     60.0937E-06     63.1242E-06
            4808            4992     57.1868E-06     62.0194E-06
            4808            4993     58.8817E-06     64.2681E-06
            4808            5007     60.0937E-06     63.1242E-06
            4808            5008     61.9189E-06     65.3253E-06
            4809            4993     58.8817E-06     64.2681E-06
            4809            4994     60.8142E-06     66.7273E-06
            4809            5008     61.9189E-06     65.3253E-06
            4809            5009     64.0137E-06     67.7361E-06
            4810            4994     60.8142E-06     66.7273E-06
            4810            4995     62.8649E-06     69.2113E-06
            4810            5009     64.0137E-06     67.7361E-06
            4810            5010     66.4204E-06     70.4464E-06
            4811            4995     62.8649E-06     69.2113E-06
            4811            4996     65.0561E-06     71.8611E-06
            4811            5010     66.4204E-06     70.4464E-06
            4811            5011     68.9317E-06     73.2910E-06
            4812            4996     65.0561E-06     71.8611E-06
            4812            4997     67.1364E-06     74.4223E-06
            4812            5011     68.9317E-06     73.2910E-06
            4812            5012     71.7351E-06     76.4004E-06
            4813            4997     67.1364E-06     74.4223E-06
            4813            4998     70.0441E-06     77.7903E-06
            4813            5012     71.7351E-06     76.4004E-06
            4813            5013     74.1887E-06     79.4563E-06
            4814            4998     70.0441E-06     77.7903E-06
            4814            4999     74.2961E-06     82.6383E-06
            4814            5013     74.1887E-06     79.4563E-06
            4814            5014     77.8758E-06     82.9919E-06
            4815            4999     74.2961E-06     82.6383E-06
            4815            5000     86.7054E-06     95.2754E-06
            4815            5014     77.8758E-06     82.9919E-06
            4815            5015     86.7053E-06     90.4179E-06
            4816            5000     86.7054E-06     95.2754E-06
            4816            5001     118.006E-06     125.436E-06
            4816            5015     86.7053E-06     90.4179E-06
            4816            5016     101.981E-06     102.311E-06
            4817             812     139.217E-06     145.498E-06
            4817             813     111.224E-06     109.007E-06
            4817            5001     118.006E-06     125.436E-06
            4817            5016     101.981E-06     102.311E-06
            4818             836     60.6022E-06     55.6714E-06
            4818             837     58.4314E-06     53.7967E-06
            4818            5002     57.4947E-06     55.2539E-06
            4818            5017     60.4644E-06     56.2266E-06
            4819            5002     57.4947E-06     55.2539E-06
            4819            5003     56.3683E-06     57.2506E-06
            4819            5017     60.4644E-06     56.2266E-06
            4819            5018     59.9922E-06     57.9087E-06
            4820            5003     56.3683E-06     57.2506E-06
            4820            5004     56.6159E-06     58.2460E-06
            4820            5018     59.9922E-06     57.9087E-06
            4820            5019     59.6558E-06     59.8178E-06
            4821            5004     56.6159E-06     58.2460E-06
            4821            5005     57.5132E-06     59.5584E-06
            4821            5019     59.6558E-06     59.8178E-06
            4821            5020     60.1445E-06     61.1511E-06
            4822            5005     57.5132E-06     59.5584E-06
            4822            5006     58.6004E-06     61.2614E-06
            4822            5020     60.1445E-06     61.1511E-06
            4822            5021     61.3284E-06     62.4867E-06
            4823            5006     58.6004E-06     61.2614E-06
            4823            5007     60.0937E-06     63.1242E-06
            4823            5021     61.3284E-06     62.4867E-06
            4823            5022     62.8596E-06     64.1902E-06
            4824            5007     60.0937E-06     63.1242E-06
            4824            5008     61.9189E-06     65.3253E-06
            4824            5022     62.8596E-06     64.1902E-06
            4824            5023     64.7257E-06     66.1886E-06
            4825            5008     61.9189E-06     65.3253E-06
            4825            5009     64.0137E-06     67.7361E-06
            4825            5023     64.7257E-06     66.1886E-06
            4825            5024     66.9664E-06     68.5579E-06
            4826            5009     64.0137E-06     67.7361E-06
            4826            5010     66.4204E-06     70.4464E-06
            4826            5024     66.9664E-06     68.5579E-06
            4826            5025     69.5283E-06     71.2735E-06
            4827            5010     66.4204E-06     70.4464E-06
            4827            5011     68.9317E-06     73.2910E-06
            4827            5025     69.5283E-06     71.2735E-06
            4827            5026     72.4165E-06     74.2947E-06
            4828            5011     68.9317E-06     73.2910E-06
            4828            5012     71.7351E-06     76.4004E-06
            4828            5026     72.4165E-06     74.2947E-06
            4828            5027     75.3152E-06     77.4620E-06
            4829            5012     71.7351E-06     76.4004E-06
            4829            5013     74.1887E-06     79.4563E-06
            4829            5027     75.3152E-06     77.4620E-06
            4829            5028     77.5676E-06     80.0439E-06
            4830            5013     74.1887E-06     79.4563E-06
            4830            5014     77.8758E-06     82.9919E-06
            4830            5028     77.5676E-06     80.0439E-06
            4830            5029     78.1039E-06     81.1435E-06
            4831            5014     77.8758E-06     82.9919E-06
            4831            5015     86.7053E-06     90.4179E-06
            4831            5029     78.1039E-06     81.1435E-06
            4831            5030     75.7264E-06     78.6255E-06
            4832            5015     86.7053E-06     90.4179E-06
            4832            5016     101.981E-06     102.311E-06
            4832            5030     75.7264E-06     78.6255E-06
            4832            5031     76.9965E-06     79.5553E-06
            4833             813     111.224E-06     109.007E-06
            4833             814     80.2878E-06     83.0927E-06
            4833            5016     101.981E-06     102.311E-06
            4833            5031     76.9965E-06     79.5553E-06
            4834             835     62.8433E-06     57.8246E-06
            4834             836     60.6022E-06     55.6714E-06
            4834            5017     60.4644E-06     56.2266E-06
            4834            5032     62.7431E-06     58.5241E-06
            4835            5017     60.4644E-06     56.2266E-06
            4835            5018     59.9922E-06     57.9087E-06
            4835            5032     62.7431E-06     58.5241E-06
            4835            5033     62.3227E-06     60.1992E-06
            4836            5018     59.9922E-06     57.9087E-06
            4836            5019     59.6558E-06     59.8178E-06
            4836            5033     62.3227E-06     60.1992E-06
            4836            5034     62.1068E-06     61.6901E-06
            4837            5019     59.6558E-06     59.8178E-06
            4837            5020     60.1445E-06     61.1511E-06
            4837            5034     62.1068E-06     61.6901E-06
            4837            5035     62.7540E-06     62.6405E-06
            4838            5020     60.1445E-06     61.1511E-06
            4838            5021     61.3284E-06     62.4867E-06
            4838            5035     62.7540E-06     62.6405E-06
            4838            5036     63.9742E-06     63.7150E-06
            4839            5021     61.3284E-06     62.4867E-06
            4839            5022     62.8596E-06     64.1902E-06
            4839            5036     63.9742E-06     63.7150E-06
            4839            5037     65.4686E-06     65.1221E-06
            4840            5022     62.8596E-06     64.1902E-06
            4840            5023     64.7257E-06     66.1886E-06
            4840            5037     65.4686E-06     65.1221E-06
            4840            5038     67.2827E-06     66.8381E-06
            4841            5023     64.7257E-06     66.1886E-06
            4841            5024     66.9664E-06     68.5579E-06
            4841            5038     67.2827E-06     66.8381E-06
            4841            5039     69.4160E-06     68.9088E-06
            4842            5024     66.9664E-06     68.5579E-06
            4842            5025     69.5283E-06     71.2735E-06
            4842            5039     69.4160E-06     68.9088E-06
            4842            5040     71.8637E-06     71.2863E-06
            4843            5025     69.5283E-06     71.2735E-06
            4843            5026     72.4165E-06     74.2947E-06
            4843            5040     71.8637E-06     71.2863E-06
            4843            5041     74.6047E-06     73.9857E-06
            4844            5026     72.4165E-06     74.2947E-06
            4844            5027     75.3152E-06     77.4620E-06
            4844            5041     74.6047E-06     73.9857E-06
            4844            5042     77.0371E-06     76.4675E-06
            4845            5027     75.3152E-06     77.4620E-06
            4845            5028     77.5676E-06     80.0439E-06
            4845            5042     77.0371E-06     76.4675E-06
            4845            5043     78.6737E-06     78.1519E-06
            4846            5028     77.5676E-06     80.0439E-06
            4846            5029     78.1039E-06     81.1435E-06
            4846            5043     78.6737E-06     78.1519E-06
            4846            5044     75.2050E-06     76.0069E-06
            4847            5029     78.1039E-06     81.1435E-06
            4847            5030     75.7264E-06     78.6255E-06
            4847            5044     75.2050E-06     76.0069E-06
            4847            5045     62.8847E-06     65.6791E-06
            4848            5030     75.7264E-06     78.6255E-06
            4848            5031     76.9965E-06     79.5553E-06
            4848            5045     62.8847E-06     65.6791E-06
            4848            5046     55.4048E-06     55.5529E-06
            4849             814     80.2878E-06     83.0927E-06
            4849             815     56.1427E-06     52.9624E-06
            4849            5031     76.9965E-06     79.5553E-06
            4849            5046     55.4048E-06     55.5529E-06
            4850             834     65.3660E-06     61.3159E-06
            4850             835     62.8433E-06     57.8246E-06
            4850            5032     62.7431E-06     58.5241E-06
            4850            5047     64.3744E-06     62.5946E-06
            4851            5032     62.7431E-06     58.5241E-06
            4851            5033     62.3227E-06     60.1992E-06
            4851            5047     64.3744E-06     62.5946E-06
            4851            5048     63.4589E-06     63.8197E-06
            4852            5033     62.3227E-06     60.1992E-06
            4852            5034     62.1068E-06     61.6901E-06
            4852            5048     63.4589E-06     63.8197E-06
            4852            5049     64.2105E-06     63.7110E-06
            4853            5034     62.1068E-06     61.6901E-06
            4853            5035     62.7540E-06     62.6405E-06
            4853            5049     64.2105E-06     63.7110E-06
            4853            5050     65.4249E-06     64.1061E-06
            4854            5035     62.7540E-06     62.6405E-06
            4854            5036     63.9742E-06     63.7150E-06
            4854            5050     65.4249E-06     64.1061E-06
            4854            5051     66.5884E-06     64.9839E-06
            4855            5036     63.9742E-06     63.7150E-06
            4855            5037     65.4686E-06     65.1221E-06
            4855            5051     66.5884E-06     64.9839E-06
            4855            5052     68.0086E-06     66.0198E-06
            4856            5037     65.4686E-06     65.1221E-06
            4856            5038     67.2827E-06     66.8381E-06
            4856            5052     68.0086E-06     66.0198E-06
            4856            5053     69.6186E-06     67.3395E-06
            4857            5038     67.2827E-06     66.8381E-06
            4857            5039     69.4160E-06     68.9088E-06
            4857            5053     69.6186E-06     67.3395E-06
            4857            5054     71.4059E-06     68.8273E-06
            4858            5039     69.4160E-06     68.9088E-06
            4858            5040     71.8637E-06     71.2863E-06
            4858            5054     71.4059E-06     68.8273E-06
            4858            5055     73.3785E-06     70.5089E-06
            4859            5040     71.8637E-06     71.2863E-06
            4859            5041     74.6047E-06     73.9857E-06
            4859            5055     73.3785E-06     70.5089E-06
            4859            5056     75.2511E-06     72.0965E-06
            4860            5041     74.6047E-06     73.9857E-06
            4860            5042     77.0371E-06     76.4675E-06
            4860            5056     75.2511E-06     72.0965E-06
            4860            5057     76.8495E-06     73.3610E-06
            4861            5042     77.0371E-06     76.4675E-06
            4861            5043     78.6737E-06     78.1519E-06
            4861            5057     76.8495E-06     73.3610E-06
            4861            5058     76.3495E-06     72.8337E-06
            4862            5043     78.6737E-06     78.1519E-06
            4862            5044     75.2050E-06     76.0069E-06
            4862            5058     76.3495E-06     72.8337E-06
            4862            5059     71.9560E-06     68.4814E-06
            4863            5044     75.2050E-06     76.0069E-06
            4863            5045     62.8847E-06     65.6791E-06
            4863            5059     71.9560E-06     68.4814E-06
            4863            5060     56.1748E-06     54.5925E-06
            4864            5045     62.8847E-06     65.6791E-06
            4864            5046     55.4048E-06     55.5529E-06
            4864            5060     56.1748E-06     54.5925E-06
            4864            5061     37.8019E-06     36.5852E-06
            4865             815     56.1427E-06     52.9624E-06
            4865             816     32.0423E-06     29.2239E-06
            4865            5046     55.4048E-06     55.5529E-06
            4865            5061     37.8019E-06     36.5852E-06
            4866             833     63.2671E-06     68.6003E-06
            4866             834     65.3660E-06     61.3159E-06
            4866            5047     64.3744E-06     62.5946E-06
            4866            5062     63.8300E-06     67.7008E-06
            4867            5047     64.3744E-06     62.5946E-06
            4867            5048     63.4589E-06     63.8197E-06
            4867            5062     63.8300E-06     67.7008E-06
            4867            5063     65.2806E-06     66.0872E-06
            4868            5048     63.4589E-06     63.8197E-06
            4868            5049     64.2105E-06     63.7110E-06
            4868            5063     65.2806E-06     66.0872E-06
            4868            5064     66.8781E-06     65.4904E-06
            4869            5049     64.2105E-06     63.7110E-06
            4869            5050     65.4249E-06     64.1061E-06
            4869            5064     66.8781E-06     65.4904E-06
            4869            5065     68.0892E-06     65.7986E-06
            4870            5050     65.4249E-06     64.1061E-06
            4870            5051     66.5884E-06     64.9839E-06
            4870            5065     68.0892E-06     65.7986E-06
            4870            5066     69.2953E-06     66.3392E-06
            4871            5051     66.5884E-06     64.9839E-06
            4871            5052     68.0086E-06     66.0198E-06
            4871            5066     69.2953E-06     66.3392E-06
            4871            5067     70.5876E-06     67.1020E-06
            4872            5052     68.0086E-06     66.0198E-06
            4872            5053     69.6186E-06     67.3395E-06
            4872            5067     70.5876E-06     67.1020E-06
            4872            5068     71.9241E-06     67.9140E-06
            4873            5053     69.6186E-06     67.3395E-06
            4873            5054     71.4059E-06     68.8273E-06
            4873            5068     71.9241E-06     67.9140E-06
            4873            5069     73.2747E-06     68.7534E-06
            4874            5054     71.4059E-06     68.8273E-06
            4874            5055     73.3785E-06     70.5089E-06
            4874            5069     73.2747E-06     68.7534E-06
            4874            5070     74.4295E-06     69.4086E-06
            4875            5055     73.3785E-06     70.5089E-06
            4875            5056     75.2511E-06     72.0965E-06
            4875            5070     74.4295E-06     69.4086E-06
            4875            5071     75.1884E-06     69.5940E-06
            4876            5056     75.2511E-06     72.0965E-06
            4876            5057     76.8495E-06     73.3610E-06
            4876            5071     75.1884E-06     69.5940E-06
            4876            5072     74.8244E-06     68.6836E-06
            4877            5057     76.8495E-06     73.3610E-06
            4877            5058     76.3495E-06     72.8337E-06
            4877            5072     74.8244E-06     68.6836E-06
            4877            5073     72.3522E-06     65.5239E-06
            4878            5058     76.3495E-06     72.8337E-06
            4878            5059     71.9560E-06     68.4814E-06
            4878            5073     72.3522E-06     65.5239E-06
            4878            5074     65.6779E-06     57.9544E-06
            4879            5059     71.9560E-06     68.4814E-06
            4879            5060     56.1748E-06     54.5925E-06
            4879            5074     65.6779E-06     57.9544E-06
            4879            5075     51.3829E-06     43.1323E-06
            4880            5060     56.1748E-06     54.5925E-06
            4880            5061     37.8019E-06     36.5852E-06
            4880            5075     51.3829E-06     43.1323E-06
            4880            5076     32.4200E-06     33.5920E-06
            4881             816     32.0423E-06     29.2239E-06
            4881             817     22.9802E-06     33.5829E-06
            4881            5061     37.8019E-06     36.5852E-06
            4881            5076     32.4200E-06     33.5920E-06
            4882              32     59.8955E-06     70.0910E-06
            4882             832     63.1575E-06     69.0229E-06
            4882             833     63.2671E-06     68.6003E-06
            4882            5062     63.8300E-06     67.7008E-06
            4883             831     66.9422E-06     66.7948E-06
            4883             832     63.1575E-06     69.0229E-06
            4883            5062     63.8300E-06     67.7008E-06
            4883            5063     65.2806E-06     66.0872E-06
            4884             830     68.2543E-06     66.2543E-06
            4884             831     66.9422E-06     66.7948E-06
            4884            5063     65.2806E-06     66.0872E-06
            4884            5064     66.8781E-06     65.4904E-06
            4885             829     69.5013E-06     66.7210E-06
            4885             830     68.2543E-06     66.2543E-06
            4885            5064     66.8781E-06     65.4904E-06
            4885            5065     68.0892E-06     65.7986E-06
            4886             828     70.6506E-06     67.0690E-06
            4886             829     69.5013E-06     66.7210E-06
            4886            5065     68.0892E-06     65.7986E-06
            4886            5066     69.2953E-06     66.3392E-06
            4887             827     71.9093E-06     67.6928E-06
            4887             828     70.6506E-06     67.0690E-06
            4887            5066     69.2953E-06     66.3392E-06
            4887            5067     70.5876E-06     67.1020E-06
            4888             826     73.1079E-06     68.2861E-06
            4888             827     71.9093E-06     67.6928E-06
            4888            5067     70.5876E-06     67.1020E-06
            4888            5068     71.9241E-06     67.9140E-06
            4889             825     74.2156E-06     68.7607E-06
            4889             826     73.1079E-06     68.2861E-06
            4889            5068     71.9241E-06     67.9140E-06
            4889            5069     73.2747E-06     68.7534E-06
            4890             824     74.9607E-06     68.9073E-06
            4890             825     74.2156E-06     68.7607E-06
            4890            5069     73.2747E-06     68.7534E-06
            4890            5070     74.4295E-06     69.4086E-06
            4891             823     75.0613E-06     68.3462E-06
            4891             824     74.9607E-06     68.9073E-06
            4891            5070     74.4295E-06     69.4086E-06
            4891            5071     75.1884E-06     69.5940E-06
            4892             822     73.5399E-06     66.1174E-06
            4892             823     75.0613E-06     68.3462E-06
            4892            5071     75.1884E-06     69.5940E-06
            4892            5072     74.8244E-06     68.6836E-06
            4893             821     70.1261E-06     61.6963E-06
            4893             822     73.5399E-06     66.1174E-06
            4893            5072     74.8244E-06     68.6836E-06
            4893            5073     72.3522E-06     65.5239E-06
            4894             820     61.2947E-06     51.7644E-06
            4894             821     70.1261E-06     61.6963E-06
            4894            5073     72.3522E-06     65.5239E-06
            4894            5074     65.6779E-06     57.9544E-06
            4895             819     48.1958E-06     36.6833E-06
            4895             820     61.2947E-06     51.7644E-06
            4895            5074     65.6779E-06     57.9544E-06
            4895            5075     51.3829E-06     43.1323E-06
            4896             818     33.5207E-06     38.2109E-06
            4896             819     48.1958E-06     36.6833E-06
            4896            5075     51.3829E-06     43.1323E-06
            4896            5076     32.4200E-06     33.5920E-06
            4897              31     25.1742E-06     47.7836E-06
            4897             817     22.9802E-06     33.5829E-06
            4897             818     33.5207E-06     38.2109E-06
            4897            5076     32.4200E-06     33.5920E-06
            5687              22     105.966E-03     130.949E-03
            5687             547     123.772E-03     143.899E-03
            5687             754     60.8926E-03     67.2766E-03
            5687            5695     74.3161E-03     90.3921E-03
            5688             546     162.014E-03     177.424E-03
            5688             547     123.772E-03     143.899E-03
            5688            5695     74.3161E-03     90.3921E-03
            5688            5696     109.398E-03     136.853E-03
            5689             545     204.994E-03     220.771E-03
            5689             546     162.014E-03     177.424E-03
            5689            5696     109.398E-03     136.853E-03
            5689            5697     154.698E-03     183.867E-03
            5690             544     251.853E-03     267.750E-03
            5690             545     204.994E-03     220.771E-03
            5690            5697     154.698E-03     183.867E-03
            5690            5698     202.359E-03     232.077E-03
            5691             543     301.249E-03     316.470E-03
            5691             544     251.853E-03     267.750E-03
            5691            5698     202.359E-03     232.077E-03
            5691            5699     251.008E-03     280.999E-03
            5692             542     351.513E-03     366.663E-03
            5692             543     301.249E-03     316.470E-03
            5692            5699     251.008E-03     280.999E-03
            5692            5700     300.137E-03     330.215E-03
            5693             541     402.470E-03     417.285E-03
            5693             542     351.513E-03     366.663E-03
            5693            5700     300.137E-03     330.215E-03
            5693            5701     349.505E-03     379.544E-03
            5694             540     453.399E-03     468.316E-03
            5694             541     402.470E-03     417.285E-03
            5694            5701     349.505E-03     379.544E-03
            5694            5702     398.970E-03     429.152E-03
            5695             539     504.382E-03     518.845E-03
            5695             540     453.399E-03     468.316E-03
            5695            5702     398.970E-03     429.152E-03
            5695            5703     448.568E-03     478.590E-03
            5696             538     554.569E-03     568.884E-03
            5696             539     504.382E-03     518.845E-03
            5696            5703     448.568E-03     478.590E-03
            5696            5704     498.190E-03     528.347E-03
            5697             537     604.267E-03     617.263E-03
            5697             538     554.569E-03     568.884E-03
            5697            5704     498.190E-03     528.347E-03
            5697            5705     547.624E-03     577.637E-03
            5698             536     651.319E-03     662.694E-03
            5698             537     604.267E-03     617.263E-03
            5698            5705     547.624E-03     577.637E-03
            5698            5706     597.415E-03     627.252E-03
            5699             535     697.698E-03     704.583E-03
            5699             536     651.319E-03     662.694E-03
            5699            5706     597.415E-03     627.252E-03
            5699            5707     646.397E-03     676.708E-03
            5700             534     738.824E-03     741.651E-03
            5700             535     697.698E-03     704.583E-03
            5700            5707     646.397E-03     676.708E-03
            5700            5708     703.654E-03     733.937E-03
            5701             533     792.699E-03     804.479E-03
            5701             534     738.824E-03     741.651E-03
            5701            5708     703.654E-03     733.937E-03
            5701            5709     789.873E-03     812.906E-03
            5702              21     830.112E-03     849.477E-03
            5702             533     792.699E-03     804.479E-03
            5702             664     842.838E-03     858.341E-03
            5702            5709     789.873E-03     812.906E-03
            5703             754     60.8926E-03     67.2766E-03
            5703             755     96.0048E-03     92.7608E-03
            5703            5695     74.3161E-03     90.3921E-03
            5703            5710     106.066E-03     109.336E-03
            5704            5695     74.3161E-03     90.3921E-03
            5704            5696     109.398E-03     136.853E-03
            5704            5710     106.066E-03     109.336E-03
            5704            5711     135.284E-03     144.679E-03
            5705            5696     109.398E-03     136.853E-03
            5705            5697     154.698E-03     183.867E-03
            5705            5711     135.284E-03     144.679E-03
            5705            5712     176.902E-03     185.760E-03
            5706            5697     154.698E-03     183.867E-03
            5706            5698     202.359E-03     232.077E-03
            5706            5712     176.902E-03     185.760E-03
            5706            5713     222.368E-03     231.376E-03
            5707            5698     202.359E-03     232.077E-03
            5707            5699     251.008E-03     280.999E-03
            5707            5713     222.368E-03     231.376E-03
            5707            5714     269.073E-03     278.650E-03
            5708            5699     251.008E-03     280.999E-03
            5708            5700     300.137E-03     330.215E-03
            5708            5714     269.073E-03     278.650E-03
            5708            5715     316.999E-03     326.659E-03
            5709            5700     300.137E-03     330.215E-03
            5709            5701     349.505E-03     379.544E-03
            5709            5715     316.999E-03     326.659E-03
            5709            5716     365.471E-03     375.247E-03
            5710            5701     349.505E-03     379.544E-03
            5710            5702     398.970E-03     429.152E-03
            5710            5716     365.471E-03     375.247E-03
            5710            5717     414.414E-03     424.124E-03
            5711            5702     398.970E-03     429.152E-03
            5711            5703     448.568E-03     478.590E-03
            5711            5717     414.414E-03     424.124E-03
            5711            5718     463.609E-03     473.427E-03
            5712            5703     448.568E-03     478.590E-03
            5712            5704     498.190E-03     528.347E-03
            5712            5718     463.609E-03     473.427E-03
            5712            5719     513.203E-03     522.840E-03
            5713            5704     498.190E-03     528.347E-03
            5713            5705     547.624E-03     577.637E-03
            5713            5719     513.203E-03     522.840E-03
            5713            5720     563.198E-03     572.931E-03
            5714            5705     547.624E-03     577.637E-03
            5714            5706     597.415E-03     627.252E-03
            5714            5720     563.198E-03     572.931E-03
            5714            5721     613.695E-03     623.874E-03
            5715            5706     597.415E-03     627.252E-03
            5715            5707     646.397E-03     676.708E-03
            5715            5721     613.695E-03     623.874E-03
            5715            5722     664.200E-03     676.191E-03
            5716            5707     646.397E-03     676.708E-03
            5716            5708     703.654E-03     733.937E-03
            5716            5722     664.200E-03     676.191E-03
            5716            5723     722.249E-03     735.907E-03
            5717            5708     703.654E-03     733.937E-03
            5717            5709     789.873E-03     812.906E-03
            5717            5723     722.249E-03     735.907E-03
            5717            5724     772.406E-03     775.698E-03
            5718             664     842.838E-03     858.341E-03
            5718             665     789.418E-03     782.800E-03
            5718            5709     789.873E-03     812.906E-03
            5718            5724     772.406E-03     775.698E-03
            5719             755     96.0048E-03     92.7608E-03
            5719             756     119.681E-03     128.647E-03
            5719            5710     106.066E-03     109.336E-03
            5719            5725     132.978E-03     135.614E-03
            5720            5710     106.066E-03     109.336E-03
            5720            5711     135.284E-03     144.679E-03
            5720            5725     132.978E-03     135.614E-03
            5720            5726     163.954E-03     158.059E-03
            5721            5711     135.284E-03     144.679E-03
            5721            5712     176.902E-03     185.760E-03
            5721            5726     163.954E-03     158.059E-03
            5721            5727     202.071E-03     193.705E-03
            5722            5712     176.902E-03     185.760E-03
            5722            5713     222.368E-03     231.376E-03
            5722            5727     202.071E-03     193.705E-03
            5722            5728     244.590E-03     235.516E-03
            5723            5713     222.368E-03     231.376E-03
            5723            5714     269.073E-03     278.650E-03
            5723            5728     244.590E-03     235.516E-03
            5723            5729     289.515E-03     279.873E-03
            5724            5714     269.073E-03     278.650E-03
            5724            5715     316.999E-03     326.659E-03
            5724            5729     289.515E-03     279.873E-03
            5724            5730     335.709E-03     325.916E-03
            5725            5715     316.999E-03     326.659E-03
            5725            5716     365.471E-03     375.247E-03
            5725            5730     335.709E-03     325.916E-03
            5725            5731     382.843E-03     372.818E-03
            5726            5716     365.471E-03     375.247E-03
            5726            5717     414.414E-03     424.124E-03
            5726            5731     382.843E-03     372.818E-03
            5726            5732     430.333E-03     420.272E-03
            5727            5717     414.414E-03     424.124E-03
            5727            5718     463.609E-03     473.427E-03
            5727            5732     430.333E-03     420.272E-03
            5727            5733     478.182E-03     467.946E-03
            5728            5718     463.609E-03     473.427E-03
            5728            5719     513.203E-03     522.840E-03
            5728            5733     478.182E-03     467.946E-03
            5728            5734     525.810E-03     515.690E-03
            5729            5719     513.203E-03     522.840E-03
            5729            5720     563.198E-03     572.931E-03
            5729            5734     525.810E-03     515.690E-03
            5729            5735     573.739E-03     563.267E-03
            5730            5720     563.198E-03     572.931E-03
            5730            5721     613.695E-03     623.874E-03
            5730            5735     573.739E-03     563.267E-03
            5730            5736     620.833E-03     610.697E-03
            5731            5721     613.695E-03     623.874E-03
            5731            5722     664.200E-03     676.191E-03
            5731            5736     620.833E-03     610.697E-03
            5731            5737     668.443E-03     657.548E-03
            5732            5722     664.200E-03     676.191E-03
            5732            5723     722.249E-03     735.907E-03
            5732            5737     668.443E-03     657.548E-03
            5732            5738     708.986E-03     697.888E-03
            5733            5723     722.249E-03     735.907E-03
            5733            5724     772.406E-03     775.698E-03
            5733            5738     708.986E-03     697.888E-03
            5733            5739     722.052E-03     715.759E-03
            5734             665     789.418E-03     782.800E-03
            5734             666     719.535E-03     716.339E-03
            5734            5724     772.406E-03     775.698E-03
            5734            5739     722.052E-03     715.759E-03
            5735             756     119.681E-03     128.647E-03
            5735             757     77.0202E-03     90.2583E-03
            5735            5725     132.978E-03     135.614E-03
            5735            5740     92.7080E-03     101.914E-03
            5736            5725     132.978E-03     135.614E-03
            5736            5726     163.954E-03     158.059E-03
            5736            5740     92.7080E-03     101.914E-03
            5736            5741     125.638E-03     129.723E-03
            5737            5726     163.954E-03     158.059E-03
            5737            5727     202.071E-03     193.705E-03
            5737            5741     125.638E-03     129.723E-03
            5737            5742     161.528E-03     164.242E-03
            5738            5727     202.071E-03     193.705E-03
            5738            5728     244.590E-03     235.516E-03
            5738            5742     161.528E-03     164.242E-03
            5738            5743     199.817E-03     202.295E-03
            5739            5728     244.590E-03     235.516E-03
            5739            5729     289.515E-03     279.873E-03
            5739            5743     199.817E-03     202.295E-03
            5739            5744     239.770E-03     241.856E-03
            5740            5729     289.515E-03     279.873E-03
            5740            5730     335.709E-03     325.916E-03
            5740            5744     239.770E-03     241.856E-03
            5740            5745     280.494E-03     282.392E-03
            5741            5730     335.709E-03     325.916E-03
            5741            5731     382.843E-03     372.818E-03
            5741            5745     280.494E-03     282.392E-03
            5741            5746     321.918E-03     323.261E-03
            5742            5731     382.843E-03     372.818E-03
            5742            5732     430.333E-03     420.272E-03
            5742            5746     321.918E-03     323.261E-03
            5742            5747     363.639E-03     364.623E-03
            5743            5732     430.333E-03     420.272E-03
            5743            5733     478.182E-03     467.946E-03
            5743            5747     363.639E-03     364.623E-03
            5743            5748     405.982E-03     405.882E-03
            5744            5733     478.182E-03     467.946E-03
            5744            5734     525.810E-03     515.690E-03
            5744            5748     405.982E-03     405.882E-03
            5744            5749     448.706E-03     447.933E-03
            5745            5734     525.810E-03     515.690E-03
            5745            5735     573.739E-03     563.267E-03
            5745            5749     448.706E-03     447.933E-03
            5745            5750     492.572E-03     490.110E-03
            5746            5735     573.739E-03     563.267E-03
            5746            5736     620.833E-03     610.697E-03
            5746            5750     492.572E-03     490.110E-03
            5746            5751     538.087E-03     534.202E-03
            5747            5736     620.833E-03     610.697E-03
            5747            5737     668.443E-03     657.548E-03
            5747            5751     538.087E-03     534.202E-03
            5747            5752     586.698E-03     581.022E-03
            5748            5737     668.443E-03     657.548E-03
            5748            5738     708.986E-03     697.888E-03
            5748            5752     586.698E-03     581.022E-03
            5748            5753     634.071E-03     628.543E-03
            5749            5738     708.986E-03     697.888E-03
            5749            5739     722.052E-03     715.759E-03
            5749            5753     634.071E-03     628.543E-03
            5749            5754     693.946E-03     700.610E-03
            5750             666     719.535E-03     716.339E-03
            5750             667     732.319E-03     748.114E-03
            5750            5739     722.052E-03     715.759E-03
            5750            5754     693.946E-03     700.610E-03
            5751             757     77.0202E-03     90.2583E-03
            5751             758     34.2065E-03     44.2044E-03
            5751            5740     92.7080E-03     101.914E-03
            5751            5755     47.6061E-03     60.6561E-03
            5752            5740     92.7080E-03     101.914E-03
            5752            5741     125.638E-03     129.723E-03
            5752            5755     47.6061E-03     60.6561E-03
            5752            5756     77.8045E-03     95.0638E-03
            5753            5741     125.638E-03     129.723E-03
            5753            5742     161.528E-03     164.242E-03
            5753            5756     77.8045E-03     95.0638E-03
            5753            5757     112.210E-03     131.366E-03
            5754            5742     161.528E-03     164.242E-03
            5754            5743     199.817E-03     202.295E-03
            5754            5757     112.210E-03     131.366E-03
            5754            5758     147.761E-03     168.060E-03
            5755            5743     199.817E-03     202.295E-03
            5755            5744     239.770E-03     241.856E-03
            5755            5758     147.761E-03     168.060E-03
            5755            5759     183.864E-03     204.718E-03
            5756            5744     239.770E-03     241.856E-03
            5756            5745     280.494E-03     282.392E-03
            5756            5759     183.864E-03     204.718E-03
            5756            5760     220.332E-03     241.374E-03
            5757            5745     280.494E-03     282.392E-03
            5757            5746     321.918E-03     323.261E-03
            5757            5760     220.332E-03     241.374E-03
            5757            5761     257.089E-03     277.890E-03
            5758            5746     321.918E-03     323.261E-03
            5758            5747     363.639E-03     364.623E-03
            5758            5761     257.089E-03     277.890E-03
            5758            5762     294.382E-03     314.613E-03
            5759            5747     363.639E-03     364.623E-03
            5759            5748     405.982E-03     405.882E-03
            5759            5762     294.382E-03     314.613E-03
            5759            5763     332.349E-03     351.625E-03
            5760            5748     405.982E-03     405.882E-03
            5760            5749     448.706E-03     447.933E-03
            5760            5763     332.349E-03     351.625E-03
            5760            5764     371.997E-03     389.966E-03
            5761            5749     448.706E-03     447.933E-03
            5761            5750     492.572E-03     490.110E-03
            5761            5764     371.997E-03     389.966E-03
            5761            5765     413.874E-03     430.297E-03
            5762            5750     492.572E-03     490.110E-03
            5762            5751     538.087E-03     534.202E-03
            5762            5765     413.874E-03     430.297E-03
            5762            5766     461.158E-03     475.942E-03
            5763            5751     538.087E-03     534.202E-03
            5763            5752     586.698E-03     581.022E-03
            5763            5766     461.158E-03     475.942E-03
            5763            5767     515.468E-03     529.279E-03
            5764            5752     586.698E-03     581.022E-03
            5764            5753     634.071E-03     628.543E-03
            5764            5767     515.468E-03     529.279E-03
            5764            5768     589.328E-03     603.971E-03
            5765            5753     634.071E-03     628.543E-03
            5765            5754     693.946E-03     700.610E-03
            5765            5768     589.328E-03     603.971E-03
            5765            5769     702.542E-03     712.620E-03
            5766             667     732.319E-03     748.114E-03
            5766             668     770.274E-03     774.718E-03
            5766            5754     693.946E-03     700.610E-03
            5766            5769     702.542E-03     712.620E-03
            5767             758     34.2065E-03     44.2044E-03
            5767             759     51.5754E-03     54.4060E-03
            5767            5755     47.6061E-03     60.6561E-03
            5767            5770     62.9511E-03     69.2015E-03
            5768            5755     47.6061E-03     60.6561E-03
            5768            5756     77.8045E-03     95.0638E-03
            5768            5770     62.9511E-03     69.2015E-03
            5768            5771     89.5178E-03     101.277E-03
            5769            5756     77.8045E-03     95.0638E-03
            5769            5757     112.210E-03     131.366E-03
            5769            5771     89.5178E-03     101.277E-03
            5769            5772     121.976E-03     136.666E-03
            5770            5757     112.210E-03     131.366E-03
            5770            5758     147.761E-03     168.060E-03
            5770            5772     121.976E-03     136.666E-03
            5770            5773     157.125E-03     173.233E-03
            5771            5758     147.761E-03     168.060E-03
            5771            5759     183.864E-03     204.718E-03
            5771            5773     157.125E-03     173.233E-03
            5771            5774     193.331E-03     210.309E-03
            5772            5759     183.864E-03     204.718E-03
            5772            5760     220.332E-03     241.374E-03
            5772            5774     193.331E-03     210.309E-03
            5772            5775     230.177E-03     247.568E-03
            5773            5760     220.332E-03     241.374E-03
            5773            5761     257.089E-03     277.890E-03
            5773            5775     230.177E-03     247.568E-03
            5773            5776     267.538E-03     285.126E-03
            5774            5761     257.089E-03     277.890E-03
            5774            5762     294.382E-03     314.613E-03
            5774            5776     267.538E-03     285.126E-03
            5774            5777     305.345E-03     323.020E-03
            5775            5762     294.382E-03     314.613E-03
            5775            5763     332.349E-03     351.625E-03
            5775            5777     305.345E-03     323.020E-03
            5775            5778     344.089E-03     361.688E-03
            5776            5763     332.349E-03     351.625E-03
            5776            5764     371.997E-03     389.966E-03
            5776            5778     344.089E-03     361.688E-03
            5776            5779     384.090E-03     401.713E-03
            5777            5764     371.997E-03     389.966E-03
            5777            5765     413.874E-03     430.297E-03
            5777            5779     384.090E-03     401.713E-03
            5777            5780     427.015E-03     444.342E-03
            5778            5765     413.874E-03     430.297E-03
            5778            5766     461.158E-03     475.942E-03
            5778            5780     427.015E-03     444.342E-03
            5778            5781     474.550E-03     491.791E-03
            5779            5766     461.158E-03     475.942E-03
            5779            5767     515.468E-03     529.279E-03
            5779            5781     474.550E-03     491.791E-03
            5779            5782     530.866E-03     547.290E-03
            5780            5767     515.468E-03     529.279E-03
            5780            5768     589.328E-03     603.971E-03
            5780            5782     530.866E-03     547.290E-03
            5780            5783     608.425E-03     619.931E-03
            5781            5768     589.328E-03     603.971E-03
            5781            5769     702.542E-03     712.620E-03
            5781            5783     608.425E-03     619.931E-03
            5781            5784     692.618E-03     694.856E-03
            5782             668     770.274E-03     774.718E-03
            5782             669     730.732E-03     727.482E-03
            5782            5769     702.542E-03     712.620E-03
            5782            5784     692.618E-03     694.856E-03
            5783             759     51.5754E-03     54.4060E-03
            5783             760     69.8552E-03     68.6422E-03
            5783            5770     62.9511E-03     69.2015E-03
            5783            5785     79.0548E-03     81.5232E-03
            5784            5770     62.9511E-03     69.2015E-03
            5784            5771     89.5178E-03     101.277E-03
            5784            5785     79.0548E-03     81.5232E-03
            5784            5786     102.515E-03     110.380E-03
            5785            5771     89.5178E-03     101.277E-03
            5785            5772     121.976E-03     136.666E-03
            5785            5786     102.515E-03     110.380E-03
            5785            5787     133.144E-03     143.998E-03
            5786            5772     121.976E-03     136.666E-03
            5786            5773     157.125E-03     173.233E-03
            5786            5787     133.144E-03     143.998E-03
            5786            5788     167.201E-03     179.863E-03
            5787            5773     157.125E-03     173.233E-03
            5787            5774     193.331E-03     210.309E-03
            5787            5788     167.201E-03     179.863E-03
            5787            5789     203.129E-03     216.675E-03
            5788            5774     193.331E-03     210.309E-03
            5788            5775     230.177E-03     247.568E-03
            5788            5789     203.129E-03     216.675E-03
            5788            5790     240.067E-03     254.215E-03
            5789            5775     230.177E-03     247.568E-03
            5789            5776     267.538E-03     285.126E-03
            5789            5790     240.067E-03     254.215E-03
            5789            5791     277.666E-03     292.321E-03
            5790            5776     267.538E-03     285.126E-03
            5790            5777     305.345E-03     323.020E-03
            5790            5791     277.666E-03     292.321E-03
            5790            5792     315.942E-03     331.092E-03
            5791            5777     305.345E-03     323.020E-03
            5791            5778     344.089E-03     361.688E-03
            5791            5792     315.942E-03     331.092E-03
            5791            5793     354.975E-03     370.847E-03
            5792            5778     344.089E-03     361.688E-03
            5792            5779     384.090E-03     401.713E-03
            5792            5793     354.975E-03     370.847E-03
            5792            5794     395.342E-03     411.894E-03
            5793            5779     384.090E-03     401.713E-03
            5793            5780     427.015E-03     444.342E-03
            5793            5794     395.342E-03     411.894E-03
            5793            5795     438.126E-03     455.395E-03
            5794            5780     427.015E-03     444.342E-03
            5794            5781     474.550E-03     491.791E-03
            5794            5795     438.126E-03     455.395E-03
            5794            5796     484.524E-03     501.999E-03
            5795            5781     474.550E-03     491.791E-03
            5795            5782     530.866E-03     547.290E-03
            5795            5796     484.524E-03     501.999E-03
            5795            5797     540.041E-03     555.249E-03
            5796            5782     530.866E-03     547.290E-03
            5796            5783     608.425E-03     619.931E-03
            5796            5797     540.041E-03     555.249E-03
            5796            5798     601.262E-03     612.789E-03
            5797            5783     608.425E-03     619.931E-03
            5797            5784     692.618E-03     694.856E-03
            5797            5798     601.262E-03     612.789E-03
            5797            5799     658.395E-03     669.046E-03
            5798             669     730.732E-03     727.482E-03
            5798             670     685.501E-03     697.004E-03
            5798            5784     692.618E-03     694.856E-03
            5798            5799     658.395E-03     669.046E-03
            5799             760     69.8552E-03     68.6422E-03
            5799             761     87.0587E-03     85.2455E-03
            5799            5785     79.0548E-03     81.5232E-03
            5799            5800     94.9286E-03     95.5372E-03
            5800            5785     79.0548E-03     81.5232E-03
            5800            5786     102.515E-03     110.380E-03
            5800            5800     94.9286E-03     95.5372E-03
            5800            5801     115.716E-03     120.923E-03
            5801            5786     102.515E-03     110.380E-03
            5801            5787     133.144E-03     143.998E-03
            5801            5801     115.716E-03     120.923E-03
            5801            5802     144.348E-03     152.620E-03
            5802            5787     133.144E-03     143.998E-03
            5802            5788     167.201E-03     179.863E-03
            5802            5802     144.348E-03     152.620E-03
            5802            5803     177.245E-03     186.939E-03
            5803            5788     167.201E-03     179.863E-03
            5803            5789     203.129E-03     216.675E-03
            5803            5803     177.245E-03     186.939E-03
            5803            5804     212.513E-03     223.032E-03
            5804            5789     203.129E-03     216.675E-03
            5804            5790     240.067E-03     254.215E-03
            5804            5804     212.513E-03     223.032E-03
            5804            5805     249.157E-03     260.186E-03
            5805            5790     240.067E-03     254.215E-03
            5805            5791     277.666E-03     292.321E-03
            5805            5805     249.157E-03     260.186E-03
            5805            5806     286.709E-03     298.264E-03
            5806            5791     277.666E-03     292.321E-03
            5806            5792     315.942E-03     331.092E-03
            5806            5806     286.709E-03     298.264E-03
            5806            5807     324.964E-03     337.321E-03
            5807            5792     315.942E-03     331.092E-03
            5807            5793     354.975E-03     370.847E-03
            5807            5807     324.964E-03     337.321E-03
            5807            5808     363.881E-03     377.265E-03
            5808            5793     354.975E-03     370.847E-03
            5808            5794     395.342E-03     411.894E-03
            5808            5808     363.881E-03     377.265E-03
            5808            5809     403.872E-03     418.497E-03
            5809            5794     395.342E-03     411.894E-03
            5809            5795     438.126E-03     455.395E-03
            5809            5809     403.872E-03     418.497E-03
            5809            5810     444.858E-03     460.819E-03
            5810            5795     438.126E-03     455.395E-03
            5810            5796     484.524E-03     501.999E-03
            5810            5810     444.858E-03     460.819E-03
            5810            5811     488.943E-03     504.999E-03
            5811            5796     484.524E-03     501.999E-03
            5811            5797     540.041E-03     555.249E-03
            5811            5811     488.943E-03     504.999E-03
            5811            5812     534.885E-03     550.066E-03
            5812            5797     540.041E-03     555.249E-03
            5812            5798     601.262E-03     612.789E-03
            5812            5812     534.885E-03     550.066E-03
            5812            5813     580.876E-03     593.823E-03
            5813            5798     601.262E-03     612.789E-03
            5813            5799     658.395E-03     669.046E-03
            5813            5813     580.876E-03     593.823E-03
            5813            5814     627.773E-03     633.404E-03
            5814             670     685.501E-03     697.004E-03
            5814             671     651.183E-03     651.391E-03
            5814            5799     658.395E-03     669.046E-03
            5814            5814     627.773E-03     633.404E-03
            5815             761     87.0587E-03     85.2455E-03
            5815             762     104.176E-03     100.218E-03
            5815            5800     94.9286E-03     95.5372E-03
            5815            5815     110.678E-03     110.022E-03
            5816            5800     94.9286E-03     95.5372E-03
            5816            5801     115.716E-03     120.923E-03
            5816            5815     110.678E-03     110.022E-03
            5816            5816     128.819E-03     132.890E-03
            5817            5801     115.716E-03     120.923E-03
            5817            5802     144.348E-03     152.620E-03
            5817            5816     128.819E-03     132.890E-03
            5817            5817     155.333E-03     161.615E-03
            5818            5802     144.348E-03     152.620E-03
            5818            5803     177.245E-03     186.939E-03
            5818            5817     155.333E-03     161.615E-03
            5818            5818     186.797E-03     194.154E-03
            5819            5803     177.245E-03     186.939E-03
            5819            5804     212.513E-03     223.032E-03
            5819            5818     186.797E-03     194.154E-03
            5819            5819     221.031E-03     228.640E-03
            5820            5804     212.513E-03     223.032E-03
            5820            5805     249.157E-03     260.186E-03
            5820            5819     221.031E-03     228.640E-03
            5820            5820     256.963E-03     264.682E-03
            5821            5805     249.157E-03     260.186E-03
            5821            5806     286.709E-03     298.264E-03
            5821            5820     256.963E-03     264.682E-03
            5821            5821     293.923E-03     302.077E-03
            5822            5806     286.709E-03     298.264E-03
            5822            5807     324.964E-03     337.321E-03
            5822            5821     293.923E-03     302.077E-03
            5822            5822     331.540E-03     340.454E-03
            5823            5807     324.964E-03     337.321E-03
            5823            5808     363.881E-03     377.265E-03
            5823            5822     331.540E-03     340.454E-03
            5823            5823     369.806E-03     379.831E-03
            5824            5808     363.881E-03     377.265E-03
            5824            5809     403.872E-03     418.497E-03
            5824            5823     369.806E-03     379.831E-03
            5824            5824     408.183E-03     419.805E-03
            5825            5809     403.872E-03     418.497E-03
            5825            5810     444.858E-03     460.819E-03
            5825            5824     408.183E-03     419.805E-03
            5825            5825     447.062E-03     460.158E-03
            5826            5810     444.858E-03     460.819E-03
            5826            5811     488.943E-03     504.999E-03
            5826            5825     447.062E-03     460.158E-03
            5826            5826     485.137E-03     499.737E-03
            5827            5811     488.943E-03     504.999E-03
            5827            5812     534.885E-03     550.066E-03
            5827            5826     485.137E-03     499.737E-03
            5827            5827     522.063E-03     536.647E-03
            5828            5812     534.885E-03     550.066E-03
            5828            5813     580.876E-03     593.823E-03
            5828            5827     522.063E-03     536.647E-03
            5828            5828     558.225E-03     569.232E-03
            5829            5813     580.876E-03     593.823E-03
            5829            5814     627.773E-03     633.404E-03
            5829            5828     558.225E-03     569.232E-03
            5829            5829     592.956E-03     600.105E-03
            5830             671     651.183E-03     651.391E-03
            5830             672     610.196E-03     616.065E-03
            5830            5814     627.773E-03     633.404E-03
            5830            5829     592.956E-03     600.105E-03
            5831             762     104.176E-03     100.218E-03
            5831             763     120.625E-03     118.988E-03
            5831            5815     110.678E-03     110.022E-03
            5831            5830     125.971E-03     126.102E-03
            5832            5815     110.678E-03     110.022E-03
            5832            5816     128.819E-03     132.890E-03
            5832            5830     125.971E-03     126.102E-03
            5832            5831     141.944E-03     145.295E-03
            5833            5816     128.819E-03     132.890E-03
            5833            5817     155.333E-03     161.615E-03
            5833            5831     141.944E-03     145.295E-03
            5833            5832     166.263E-03     171.583E-03
            5834            5817     155.333E-03     161.615E-03
            5834            5818     186.797E-03     194.154E-03
            5834            5832     166.263E-03     171.583E-03
            5834            5833     195.847E-03     201.097E-03
            5835            5818     186.797E-03     194.154E-03
            5835            5819     221.031E-03     228.640E-03
            5835            5833     195.847E-03     201.097E-03
            5835            5834     228.720E-03     233.159E-03
            5836            5819     221.031E-03     228.640E-03
            5836            5820     256.963E-03     264.682E-03
            5836            5834     228.720E-03     233.159E-03
            5836            5835     263.279E-03     267.458E-03
            5837            5820     256.963E-03     264.682E-03
            5837            5821     293.923E-03     302.077E-03
            5837            5835     263.279E-03     267.458E-03
            5837            5836     298.878E-03     303.191E-03
            5838            5821     293.923E-03     302.077E-03
            5838            5822     331.540E-03     340.454E-03
            5838            5836     298.878E-03     303.191E-03
            5838            5837     335.268E-03     340.078E-03
            5839            5822     331.540E-03     340.454E-03
            5839            5823     369.806E-03     379.831E-03
            5839            5837     335.268E-03     340.078E-03
            5839            5838     371.826E-03     377.644E-03
            5840            5823     369.806E-03     379.831E-03
            5840            5824     408.183E-03     419.805E-03
            5840            5838     371.826E-03     377.644E-03
            5840            5839     408.369E-03     415.490E-03
            5841            5824     408.183E-03     419.805E-03
            5841            5825     447.062E-03     460.158E-03
            5841            5839     408.369E-03     415.490E-03
            5841            5840     443.615E-03     452.754E-03
            5842            5825     447.062E-03     460.158E-03
            5842            5826     485.137E-03     499.737E-03
            5842            5840     443.615E-03     452.754E-03
            5842            5841     476.427E-03     487.700E-03
            5843            5826     485.137E-03     499.737E-03
            5843            5827     522.063E-03     536.647E-03
            5843            5841     476.427E-03     487.700E-03
            5843            5842     505.531E-03     518.016E-03
            5844            5827     522.063E-03     536.647E-03
            5844            5828     558.225E-03     569.232E-03
            5844            5842     505.531E-03     518.016E-03
            5844            5843     531.279E-03     542.773E-03
            5845            5828     558.225E-03     569.232E-03
            5845            5829     592.956E-03     600.105E-03
            5845            5843     531.279E-03     542.773E-03
            5845            5844     558.722E-03     563.682E-03
            5846             672     610.196E-03     616.065E-03
            5846             673     573.603E-03     573.492E-03
            5846            5829     592.956E-03     600.105E-03
            5846            5844     558.722E-03     563.682E-03
            5847             763     120.625E-03     118.988E-03
            5847             764     136.756E-03     134.519E-03
            5847            5830     125.971E-03     126.102E-03
            5847            5845     141.699E-03     142.123E-03
            5848            5830     125.971E-03     126.102E-03
            5848            5831     141.944E-03     145.295E-03
            5848            5845     141.699E-03     142.123E-03
            5848            5846     155.436E-03     160.269E-03
            5849            5831     141.944E-03     145.295E-03
            5849            5832     166.263E-03     171.583E-03
            5849            5846     155.436E-03     160.269E-03
            5849            5847     177.261E-03     182.256E-03
            5850            5832     166.263E-03     171.583E-03
            5850            5833     195.847E-03     201.097E-03
            5850            5847     177.261E-03     182.256E-03
            5850            5848     205.220E-03     207.651E-03
            5851            5833     195.847E-03     201.097E-03
            5851            5834     228.720E-03     233.159E-03
            5851            5848     205.220E-03     207.651E-03
            5851            5849     235.918E-03     236.973E-03
            5852            5834     228.720E-03     233.159E-03
            5852            5835     263.279E-03     267.458E-03
            5852            5849     235.918E-03     236.973E-03
            5852            5850     268.233E-03     268.653E-03
            5853            5835     263.279E-03     267.458E-03
            5853            5836     298.878E-03     303.191E-03
            5853            5850     268.233E-03     268.653E-03
            5853            5851     301.766E-03     301.933E-03
            5854            5836     298.878E-03     303.191E-03
            5854            5837     335.268E-03     340.078E-03
            5854            5851     301.766E-03     301.933E-03
            5854            5852     335.861E-03     336.186E-03
            5855            5837     335.268E-03     340.078E-03
            5855            5838     371.826E-03     377.644E-03
            5855            5852     335.861E-03     336.186E-03
            5855            5853     370.206E-03     370.894E-03
            5856            5838     371.826E-03     377.644E-03
            5856            5839     408.369E-03     415.490E-03
            5856            5853     370.206E-03     370.894E-03
            5856            5854     403.832E-03     405.434E-03
            5857            5839     408.369E-03     415.490E-03
            5857            5840     443.615E-03     452.754E-03
            5857            5854     403.832E-03     405.434E-03
            5857            5855     435.706E-03     438.735E-03
            5858            5840     443.615E-03     452.754E-03
            5858            5841     476.427E-03     487.700E-03
            5858            5855     435.706E-03     438.735E-03
            5858            5856     464.090E-03     469.365E-03
            5859            5841     476.427E-03     487.700E-03
            5859            5842     505.531E-03     518.016E-03
            5859            5856     464.090E-03     469.365E-03
            5859            5857     486.267E-03     494.708E-03
            5860            5842     505.531E-03     518.016E-03
            5860            5843     531.279E-03     542.773E-03
            5860            5857     486.267E-03     494.708E-03
            5860            5858     502.686E-03     512.015E-03
            5861            5843     531.279E-03     542.773E-03
            5861            5844     558.722E-03     563.682E-03
            5861            5858     502.686E-03     512.015E-03
            5861            5859     520.059E-03     525.193E-03
            5862             673     573.603E-03     573.492E-03
            5862             674     530.293E-03     531.965E-03
            5862            5844     558.722E-03     563.682E-03
            5862            5859     520.059E-03     525.193E-03
            5863             764     136.756E-03     134.519E-03
            5863             765     156.067E-03     157.501E-03
            5863            5845     141.699E-03     142.123E-03
            5863            5860     157.844E-03     164.277E-03
            5864            5845     141.699E-03     142.123E-03
            5864            5846     155.436E-03     160.269E-03
            5864            5860     157.844E-03     164.277E-03
            5864            5861     168.856E-03     177.043E-03
            5865            5846     155.436E-03     160.269E-03
            5865            5847     177.261E-03     182.256E-03
            5865            5861     168.856E-03     177.043E-03
            5865            5862     190.278E-03     192.667E-03
            5866            5847     177.261E-03     182.256E-03
            5866            5848     205.220E-03     207.651E-03
            5866            5862     190.278E-03     192.667E-03
            5866            5863     215.684E-03     214.713E-03
            5867            5848     205.220E-03     207.651E-03
            5867            5849     235.918E-03     236.973E-03
            5867            5863     215.684E-03     214.713E-03
            5867            5864     243.237E-03     240.845E-03
            5868            5849     235.918E-03     236.973E-03
            5868            5850     268.233E-03     268.653E-03
            5868            5864     243.237E-03     240.845E-03
            5868            5865     272.595E-03     269.313E-03
            5869            5850     268.233E-03     268.653E-03
            5869            5851     301.766E-03     301.933E-03
            5869            5865     272.595E-03     269.313E-03
            5869            5866     303.022E-03     299.248E-03
            5870            5851     301.766E-03     301.933E-03
            5870            5852     335.861E-03     336.186E-03
            5870            5866     303.022E-03     299.248E-03
            5870            5867     334.108E-03     329.832E-03
            5871            5852     335.861E-03     336.186E-03
            5871            5853     370.206E-03     370.894E-03
            5871            5867     334.108E-03     329.832E-03
            5871            5868     365.126E-03     360.500E-03
            5872            5853     370.206E-03     370.894E-03
            5872            5854     403.832E-03     405.434E-03
            5872            5868     365.126E-03     360.500E-03
            5872            5869     395.335E-03     390.433E-03
            5873            5854     403.832E-03     405.434E-03
            5873            5855     435.706E-03     438.735E-03
            5873            5869     395.335E-03     390.433E-03
            5873            5870     423.576E-03     418.758E-03
            5874            5855     435.706E-03     438.735E-03
            5874            5856     464.090E-03     469.365E-03
            5874            5870     423.576E-03     418.758E-03
            5874            5871     447.892E-03     444.046E-03
            5875            5856     464.090E-03     469.365E-03
            5875            5857     486.267E-03     494.708E-03
            5875            5871     447.892E-03     444.046E-03
            5875            5872     466.101E-03     464.438E-03
            5876            5857     486.267E-03     494.708E-03
            5876            5858     502.686E-03     512.015E-03
            5876            5872     466.101E-03     464.438E-03
            5876            5873     473.639E-03     476.009E-03
            5877            5858     502.686E-03     512.015E-03
            5877            5859     520.059E-03     525.193E-03
            5877            5873     473.639E-03     476.009E-03
            5877            5874     477.566E-03     478.940E-03
            5878             674     530.293E-03     531.965E-03
            5878             675     481.214E-03     479.066E-03
            5878            5859     520.059E-03     525.193E-03
            5878            5874     477.566E-03     478.940E-03
            5879             765     156.067E-03     157.501E-03
            5879             766     166.732E-03     187.213E-03
            5879            5860     157.844E-03     164.277E-03
            5879            5875     172.596E-03     187.046E-03
            5880            5860     157.844E-03     164.277E-03
            5880            5861     168.856E-03     177.043E-03
            5880            5875     172.596E-03     187.046E-03
            5880            5876     187.264E-03     190.954E-03
            5881            5861     168.856E-03     177.043E-03
            5881            5862     190.278E-03     192.667E-03
            5881            5876     187.264E-03     190.954E-03
            5881            5877     206.334E-03     203.898E-03
            5882            5862     190.278E-03     192.667E-03
            5882            5863     215.684E-03     214.713E-03
            5882            5877     206.334E-03     203.898E-03
            5882            5878     227.851E-03     223.440E-03
            5883            5863     215.684E-03     214.713E-03
            5883            5864     243.237E-03     240.845E-03
            5883            5878     227.851E-03     223.440E-03
            5883            5879     251.693E-03     246.221E-03
            5884            5864     243.237E-03     240.845E-03
            5884            5865     272.595E-03     269.313E-03
            5884            5879     251.693E-03     246.221E-03
            5884            5880     277.360E-03     271.101E-03
            5885            5865     272.595E-03     269.313E-03
            5885            5866     303.022E-03     299.248E-03
            5885            5880     277.360E-03     271.101E-03
            5885            5881     304.065E-03     296.954E-03
            5886            5866     303.022E-03     299.248E-03
            5886            5867     334.108E-03     329.832E-03
            5886            5881     304.065E-03     296.954E-03
            5886            5882     331.215E-03     323.080E-03
            5887            5867     334.108E-03     329.832E-03
            5887            5868     365.126E-03     360.500E-03
            5887            5882     331.215E-03     323.080E-03
            5887            5883     358.099E-03     348.585E-03
            5888            5868     365.126E-03     360.500E-03
            5888            5869     395.335E-03     390.433E-03
            5888            5883     358.099E-03     348.585E-03
            5888            5884     383.988E-03     372.765E-03
            5889            5869     395.335E-03     390.433E-03
            5889            5870     423.576E-03     418.758E-03
            5889            5884     383.988E-03     372.765E-03
            5889            5885     407.767E-03     394.509E-03
            5890            5870     423.576E-03     418.758E-03
            5890            5871     447.892E-03     444.046E-03
            5890            5885     407.767E-03     394.509E-03
            5890            5886     428.230E-03     412.649E-03
            5891            5871     447.892E-03     444.046E-03
            5891            5872     466.101E-03     464.438E-03
            5891            5886     428.230E-03     412.649E-03
            5891            5887     443.015E-03     425.552E-03
            5892            5872     466.101E-03     464.438E-03
            5892            5873     473.639E-03     476.009E-03
            5892            5887     443.015E-03     425.552E-03
            5892            5888     448.028E-03     430.359E-03
            5893            5873     473.639E-03     476.009E-03
            5893            5874     477.566E-03     478.940E-03
            5893            5888     448.028E-03     430.359E-03
            5893            5889     437.941E-03     420.277E-03
            5894             675     481.214E-03     479.066E-03
            5894             676     428.414E-03     410.173E-03
            5894            5874     477.566E-03     478.940E-03
            5894            5889     437.941E-03     420.277E-03
            5895             766     166.732E-03     187.213E-03
            5895             767     108.512E-03     131.312E-03
            5895            5875     172.596E-03     187.046E-03
            5895            5890     116.636E-03     131.522E-03
            5896            5875     172.596E-03     187.046E-03
            5896            5876     187.264E-03     190.954E-03
            5896            5890     116.636E-03     131.522E-03
            5896            5891     130.801E-03     136.148E-03
            5897            5876     187.264E-03     190.954E-03
            5897            5877     206.334E-03     203.898E-03
            5897            5891     130.801E-03     136.148E-03
            5897            5892     144.207E-03     148.286E-03
            5898            5877     206.334E-03     203.898E-03
            5898            5878     227.851E-03     223.440E-03
            5898            5892     144.207E-03     148.286E-03
            5898            5893     160.240E-03     164.541E-03
            5899            5878     227.851E-03     223.440E-03
            5899            5879     251.693E-03     246.221E-03
            5899            5893     160.240E-03     164.541E-03
            5899            5894     178.234E-03     182.481E-03
            5900            5879     251.693E-03     246.221E-03
            5900            5880     277.360E-03     271.101E-03
            5900            5894     178.234E-03     182.481E-03
            5900            5895     197.666E-03     201.896E-03
            5901            5880     277.360E-03     271.101E-03
            5901            5881     304.065E-03     296.954E-03
            5901            5895     197.666E-03     201.896E-03
            5901            5896     218.071E-03     221.868E-03
            5902            5881     304.065E-03     296.954E-03
            5902            5882     331.215E-03     323.080E-03
            5902            5896     218.071E-03     221.868E-03
            5902            5897     239.080E-03     242.205E-03
            5903            5882     331.215E-03     323.080E-03
            5903            5883     358.099E-03     348.585E-03
            5903            5897     239.080E-03     242.205E-03
            5903            5898     260.580E-03     262.533E-03
            5904            5883     358.099E-03     348.585E-03
            5904            5884     383.988E-03     372.765E-03
            5904            5898     260.580E-03     262.533E-03
            5904            5899     282.296E-03     282.779E-03
            5905            5884     383.988E-03     372.765E-03
            5905            5885     407.767E-03     394.509E-03
            5905            5899     282.296E-03     282.779E-03
            5905            5900     304.691E-03     303.008E-03
            5906            5885     407.767E-03     394.509E-03
            5906            5886     428.230E-03     412.649E-03
            5906            5900     304.691E-03     303.008E-03
            5906            5901     327.464E-03     323.648E-03
            5907            5886     428.230E-03     412.649E-03
            5907            5887     443.015E-03     425.552E-03
            5907            5901     327.464E-03     323.648E-03
            5907            5902     352.357E-03     346.009E-03
            5908            5887     443.015E-03     425.552E-03
            5908            5888     448.028E-03     430.359E-03
            5908            5902     352.357E-03     346.009E-03
            5908            5903     378.994E-03     371.802E-03
            5909            5888     448.028E-03     430.359E-03
            5909            5889     437.941E-03     420.277E-03
            5909            5903     378.994E-03     371.802E-03
            5909            5904     417.581E-03     418.879E-03
            5910             676     428.414E-03     410.173E-03
            5910             677     443.118E-03     451.820E-03
            5910            5889     437.941E-03     420.277E-03
            5910            5904     417.581E-03     418.879E-03
            5911             767     108.512E-03     131.312E-03
            5911             768     60.7994E-03     68.1492E-03
            5911            5890     116.636E-03     131.522E-03
            5911            5905     62.0456E-03     71.1115E-03
            5912            5890     116.636E-03     131.522E-03
            5912            5891     130.801E-03     136.148E-03
            5912            5905     62.0456E-03     71.1115E-03
            5912            5906     67.9193E-03     78.8666E-03
            5913            5891     130.801E-03     136.148E-03
            5913            5892     144.207E-03     148.286E-03
            5913            5906     67.9193E-03     78.8666E-03
            5913            5907     78.2946E-03     89.9752E-03
            5914            5892     144.207E-03     148.286E-03
            5914            5893     160.240E-03     164.541E-03
            5914            5907     78.2946E-03     89.9752E-03
            5914            5908     90.6082E-03     103.499E-03
            5915            5893     160.240E-03     164.541E-03
            5915            5894     178.234E-03     182.481E-03
            5915            5908     90.6082E-03     103.499E-03
            5915            5909     104.453E-03     118.259E-03
            5916            5894     178.234E-03     182.481E-03
            5916            5895     197.666E-03     201.896E-03
            5916            5909     104.453E-03     118.259E-03
            5916            5910     119.478E-03     133.907E-03
            5917            5895     197.666E-03     201.896E-03
            5917            5896     218.071E-03     221.868E-03
            5917            5910     119.478E-03     133.907E-03
            5917            5911     135.395E-03     150.162E-03
            5918            5896     218.071E-03     221.868E-03
            5918            5897     239.080E-03     242.205E-03
            5918            5911     135.395E-03     150.162E-03
            5918            5912     152.338E-03     167.197E-03
            5919            5897     239.080E-03     242.205E-03
            5919            5898     260.580E-03     262.533E-03
            5919            5912     152.338E-03     167.197E-03
            5919            5913     170.429E-03     185.111E-03
            5920            5898     260.580E-03     262.533E-03
            5920            5899     282.296E-03     282.779E-03
            5920            5913     170.429E-03     185.111E-03
            5920            5914     190.530E-03     204.872E-03
            5921            5899     282.296E-03     282.779E-03
            5921            5900     304.691E-03     303.008E-03
            5921            5914     190.530E-03     204.872E-03
            5921            5915     213.327E-03     227.204E-03
            5922            5900     304.691E-03     303.008E-03
            5922            5901     327.464E-03     323.648E-03
            5922            5915     213.327E-03     227.204E-03
            5922            5916     241.599E-03     255.076E-03
            5923            5901     327.464E-03     323.648E-03
            5923            5902     352.357E-03     346.009E-03
            5923            5916     241.599E-03     255.076E-03
            5923            5917     277.170E-03     290.787E-03
            5924            5902     352.357E-03     346.009E-03
            5924            5903     378.994E-03     371.802E-03
            5924            5917     277.170E-03     290.787E-03
            5924            5918     330.829E-03     345.652E-03
            5925            5903     378.994E-03     371.802E-03
            5925            5904     417.581E-03     418.879E-03
            5925            5918     330.829E-03     345.652E-03
            5925            5919     420.836E-03     432.887E-03
            5926             677     443.118E-03     451.820E-03
            5926             678     476.498E-03     484.707E-03
            5926            5904     417.581E-03     418.879E-03
            5926            5919     420.836E-03     432.887E-03
            5927             768     60.7994E-03     68.1492E-03
            5927             769     76.3215E-03     72.7585E-03
            5927            5905     62.0456E-03     71.1115E-03
            5927            5920     76.3837E-03     76.6025E-03
            5928            5905     62.0456E-03     71.1115E-03
            5928            5906     67.9193E-03     78.8666E-03
            5928            5920     76.3837E-03     76.6025E-03
            5928            5921     79.5662E-03     85.3700E-03
            5929            5906     67.9193E-03     78.8666E-03
            5929            5907     78.2946E-03     89.9752E-03
            5929            5921     79.5662E-03     85.3700E-03
            5929            5922     88.0851E-03     96.3468E-03
            5930            5907     78.2946E-03     89.9752E-03
            5930            5908     90.6082E-03     103.499E-03
            5930            5922     88.0851E-03     96.3468E-03
            5930            5923     99.7492E-03     109.349E-03
            5931            5908     90.6082E-03     103.499E-03
            5931            5909     104.453E-03     118.259E-03
            5931            5923     99.7492E-03     109.349E-03
            5931            5924     113.116E-03     123.899E-03
            5932            5909     104.453E-03     118.259E-03
            5932            5910     119.478E-03     133.907E-03
            5932            5924     113.116E-03     123.899E-03
            5932            5925     127.807E-03     139.391E-03
            5933            5910     119.478E-03     133.907E-03
            5933            5911     135.395E-03     150.162E-03
            5933            5925     127.807E-03     139.391E-03
            5933            5926     143.556E-03     155.707E-03
            5934            5911     135.395E-03     150.162E-03
            5934            5912     152.338E-03     167.197E-03
            5934            5926     143.556E-03     155.707E-03
            5934            5927     160.219E-03     172.768E-03
            5935            5912     152.338E-03     167.197E-03
            5935            5913     170.429E-03     185.111E-03
            5935            5927     160.219E-03     172.768E-03
            5935            5928     178.187E-03     190.925E-03
            5936            5913     170.429E-03     185.111E-03
            5936            5914     190.530E-03     204.872E-03
            5936            5928     178.187E-03     190.925E-03
            5936            5929     197.760E-03     210.642E-03
            5937            5914     190.530E-03     204.872E-03
            5937            5915     213.327E-03     227.204E-03
            5937            5929     197.760E-03     210.642E-03
            5937            5930     220.500E-03     233.153E-03
            5938            5915     213.327E-03     227.204E-03
            5938            5916     241.599E-03     255.076E-03
            5938            5930     220.500E-03     233.153E-03
            5938            5931     247.924E-03     260.376E-03
            5939            5916     241.599E-03     255.076E-03
            5939            5917     277.170E-03     290.787E-03
            5939            5931     247.924E-03     260.376E-03
            5939            5932     284.041E-03     295.461E-03
            5940            5917     277.170E-03     290.787E-03
            5940            5918     330.829E-03     345.652E-03
            5940            5932     284.041E-03     295.461E-03
            5940            5933     339.440E-03     346.693E-03
            5941            5918     330.829E-03     345.652E-03
            5941            5919     420.836E-03     432.887E-03
            5941            5933     339.440E-03     346.693E-03
            5941            5934     404.745E-03     405.487E-03
            5942             678     476.498E-03     484.707E-03
            5942             679     435.974E-03     433.227E-03
            5942            5919     420.836E-03     432.887E-03
            5942            5934     404.745E-03     405.487E-03
            5943             769     76.3215E-03     72.7585E-03
            5943             770     84.8732E-03     81.0217E-03
            5943            5920     76.3837E-03     76.6025E-03
            5943            5935     86.3878E-03     83.6317E-03
            5944            5920     76.3837E-03     76.6025E-03
            5944            5921     79.5662E-03     85.3700E-03
            5944            5935     86.3878E-03     83.6317E-03
            5944            5936     90.5923E-03     91.3627E-03
            5945            5921     79.5662E-03     85.3700E-03
            5945            5922     88.0851E-03     96.3468E-03
            5945            5936     90.5923E-03     91.3627E-03
            5945            5937     97.8585E-03     102.427E-03
            5946            5922     88.0851E-03     96.3468E-03
            5946            5923     99.7492E-03     109.349E-03
            5946            5937     97.8585E-03     102.427E-03
            5946            5938     108.583E-03     115.242E-03
            5947            5923     99.7492E-03     109.349E-03
            5947            5924     113.116E-03     123.899E-03
            5947            5938     108.583E-03     115.242E-03
            5947            5939     121.570E-03     129.572E-03
            5948            5924     113.116E-03     123.899E-03
            5948            5925     127.807E-03     139.391E-03
            5948            5939     121.570E-03     129.572E-03
            5948            5940     136.027E-03     145.016E-03
            5949            5925     127.807E-03     139.391E-03
            5949            5926     143.556E-03     155.707E-03
            5949            5940     136.027E-03     145.016E-03
            5949            5941     151.616E-03     161.330E-03
            5950            5926     143.556E-03     155.707E-03
            5950            5927     160.219E-03     172.768E-03
            5950            5941     151.616E-03     161.330E-03
            5950            5942     168.220E-03     178.482E-03
            5951            5927     160.219E-03     172.768E-03
            5951            5928     178.187E-03     190.925E-03
            5951            5942     168.220E-03     178.482E-03
            5951            5943     185.813E-03     196.606E-03
            5952            5928     178.187E-03     190.925E-03
            5952            5929     197.760E-03     210.642E-03
            5952            5943     185.813E-03     196.606E-03
            5952            5944     204.959E-03     216.014E-03
            5953            5929     197.760E-03     210.642E-03
            5953            5930     220.500E-03     233.153E-03
            5953            5944     204.959E-03     216.014E-03
            5953            5945     226.465E-03     237.672E-03
            5954            5930     220.500E-03     233.153E-03
            5954            5931     247.924E-03     260.376E-03
            5954            5945     226.465E-03     237.672E-03
            5954            5946     251.777E-03     262.480E-03
            5955            5931     247.924E-03     260.376E-03
            5955            5932     284.041E-03     295.461E-03
            5955            5946     251.777E-03     262.480E-03
            5955            5947     285.613E-03     294.032E-03
            5956            5932     284.041E-03     295.461E-03
            5956            5933     339.440E-03     346.693E-03
            5956            5947     285.613E-03     294.032E-03
            5956            5948     326.394E-03     332.182E-03
            5957            5933     339.440E-03     346.693E-03
            5957            5934     404.745E-03     405.487E-03
            5957            5948     326.394E-03     332.182E-03
            5957            5949     369.060E-03     375.398E-03
            5958             679     435.974E-03     433.227E-03
            5958             680     390.788E-03     398.757E-03
            5958            5934     404.745E-03     405.487E-03
            5958            5949     369.060E-03     375.398E-03
            5959             770     84.8732E-03     81.0217E-03
            5959             771     94.1596E-03     88.7879E-03
            5959            5935     86.3878E-03     83.6317E-03
            5959            5950     95.1571E-03     91.4109E-03
            5960            5935     86.3878E-03     83.6317E-03
            5960            5936     90.5923E-03     91.3627E-03
            5960            5950     95.1571E-03     91.4109E-03
            5960            5951     99.1691E-03     98.1929E-03
            5961            5936     90.5923E-03     91.3627E-03
            5961            5937     97.8585E-03     102.427E-03
            5961            5951     99.1691E-03     98.1929E-03
            5961            5952     106.633E-03     108.307E-03
            5962            5937     97.8585E-03     102.427E-03
            5962            5938     108.583E-03     115.242E-03
            5962            5952     106.633E-03     108.307E-03
            5962            5953     116.781E-03     120.912E-03
            5963            5938     108.583E-03     115.242E-03
            5963            5939     121.570E-03     129.572E-03
            5963            5953     116.781E-03     120.912E-03
            5963            5954     129.342E-03     134.922E-03
            5964            5939     121.570E-03     129.572E-03
            5964            5940     136.027E-03     145.016E-03
            5964            5954     129.342E-03     134.922E-03
            5964            5955     143.608E-03     150.164E-03
            5965            5940     136.027E-03     145.016E-03
            5965            5941     151.616E-03     161.330E-03
            5965            5955     143.608E-03     150.164E-03
            5965            5956     159.043E-03     166.336E-03
            5966            5941     151.616E-03     161.330E-03
            5966            5942     168.220E-03     178.482E-03
            5966            5956     159.043E-03     166.336E-03
            5966            5957     175.391E-03     183.343E-03
            5967            5942     168.220E-03     178.482E-03
            5967            5943     185.813E-03     196.606E-03
            5967            5957     175.391E-03     183.343E-03
            5967            5958     192.509E-03     201.059E-03
            5968            5943     185.813E-03     196.606E-03
            5968            5944     204.959E-03     216.014E-03
            5968            5958     192.509E-03     201.059E-03
            5968            5959     210.548E-03     219.673E-03
            5969            5944     204.959E-03     216.014E-03
            5969            5945     226.465E-03     237.672E-03
            5969            5959     210.548E-03     219.673E-03
            5969            5960     229.653E-03     239.128E-03
            5970            5945     226.465E-03     237.672E-03
            5970            5946     251.777E-03     262.480E-03
            5970            5960     229.653E-03     239.128E-03
            5970            5961     251.570E-03     260.460E-03
            5971            5946     251.777E-03     262.480E-03
            5971            5947     285.613E-03     294.032E-03
            5971            5961     251.570E-03     260.460E-03
            5971            5962     276.140E-03     283.985E-03
            5972            5947     285.613E-03     294.032E-03
            5972            5948     326.394E-03     332.182E-03
            5972            5962     276.140E-03     283.985E-03
            5972            5963     303.776E-03     310.172E-03
            5973            5948     326.394E-03     332.182E-03
            5973            5949     369.060E-03     375.398E-03
            5973            5963     303.776E-03     310.172E-03
            5973            5964     337.426E-03     340.009E-03
            5974             680     390.788E-03     398.757E-03
            5974             681     355.959E-03     355.687E-03
            5974            5949     369.060E-03     375.398E-03
            5974            5964     337.426E-03     340.009E-03
            5975             771     94.1596E-03     88.7879E-03
            5975             772     101.740E-03     96.5845E-03
            5975            5950     95.1571E-03     91.4109E-03
            5975            5965     102.959E-03     98.6038E-03
            5976            5950     95.1571E-03     91.4109E-03
            5976            5951     99.1691E-03     98.1929E-03
            5976            5965     102.959E-03     98.6038E-03
            5976            5966     106.898E-03     104.865E-03
            5977            5951     99.1691E-03     98.1929E-03
            5977            5952     106.633E-03     108.307E-03
            5977            5966     106.898E-03     104.865E-03
            5977            5967     113.926E-03     114.405E-03
            5978            5952     106.633E-03     108.307E-03
            5978            5953     116.781E-03     120.912E-03
            5978            5967     113.926E-03     114.405E-03
            5978            5968     123.904E-03     126.120E-03
            5979            5953     116.781E-03     120.912E-03
            5979            5954     129.342E-03     134.922E-03
            5979            5968     123.904E-03     126.120E-03
            5979            5969     136.144E-03     139.645E-03
            5980            5954     129.342E-03     134.922E-03
            5980            5955     143.608E-03     150.164E-03
            5980            5969     136.144E-03     139.645E-03
            5980            5970     150.089E-03     154.353E-03
            5981            5955     143.608E-03     150.164E-03
            5981            5956     159.043E-03     166.336E-03
            5981            5970     150.089E-03     154.353E-03
            5981            5971     165.258E-03     170.086E-03
            5982            5956     159.043E-03     166.336E-03
            5982            5957     175.391E-03     183.343E-03
            5982            5971     165.258E-03     170.086E-03
            5982            5972     181.128E-03     186.545E-03
            5983            5957     175.391E-03     183.343E-03
            5983            5958     192.509E-03     201.059E-03
            5983            5972     181.128E-03     186.545E-03
            5983            5973     197.482E-03     203.552E-03
            5984            5958     192.509E-03     201.059E-03
            5984            5959     210.548E-03     219.673E-03
            5984            5973     197.482E-03     203.552E-03
            5984            5974     213.757E-03     220.627E-03
            5985            5959     210.548E-03     219.673E-03
            5985            5960     229.653E-03     239.128E-03
            5985            5974     213.757E-03     220.627E-03
            5985            5975     230.104E-03     237.535E-03
            5986            5960     229.653E-03     239.128E-03
            5986            5961     251.570E-03     260.460E-03
            5986            5975     230.104E-03     237.535E-03
            5986            5976     245.924E-03     253.766E-03
            5987            5961     251.570E-03     260.460E-03
            5987            5962     276.140E-03     283.985E-03
            5987            5976     245.924E-03     253.766E-03
            5987            5977     261.850E-03     269.183E-03
            5988            5962     276.140E-03     283.985E-03
            5988            5963     303.776E-03     310.172E-03
            5988            5977     261.850E-03     269.183E-03
            5988            5978     280.506E-03     285.370E-03
            5989            5963     303.776E-03     310.172E-03
            5989            5964     337.426E-03     340.009E-03
            5989            5978     280.506E-03     285.370E-03
            5989            5979     304.062E-03     307.313E-03
            5990             681     355.959E-03     355.687E-03
            5990             682     317.418E-03     320.769E-03
            5990            5964     337.426E-03     340.009E-03
            5990            5979     304.062E-03     307.313E-03
            5991             772     101.740E-03     96.5845E-03
            5991             773     109.173E-03     103.374E-03
            5991            5965     102.959E-03     98.6038E-03
            5991            5980     110.138E-03     105.730E-03
            5992            5965     102.959E-03     98.6038E-03
            5992            5966     106.898E-03     104.865E-03
            5992            5980     110.138E-03     105.730E-03
            5992            5981     113.625E-03     111.624E-03
            5993            5966     106.898E-03     104.865E-03
            5993            5967     113.926E-03     114.405E-03
            5993            5981     113.625E-03     111.624E-03
            5993            5982     120.315E-03     120.144E-03
            5994            5967     113.926E-03     114.405E-03
            5994            5968     123.904E-03     126.120E-03
            5994            5982     120.315E-03     120.144E-03
            5994            5983     129.896E-03     131.033E-03
            5995            5968     123.904E-03     126.120E-03
            5995            5969     136.144E-03     139.645E-03
            5995            5983     129.896E-03     131.033E-03
            5995            5984     141.743E-03     143.481E-03
            5996            5969     136.144E-03     139.645E-03
            5996            5970     150.089E-03     154.353E-03
            5996            5984     141.743E-03     143.481E-03
            5996            5985     155.290E-03     157.270E-03
            5997            5970     150.089E-03     154.353E-03
            5997            5971     165.258E-03     170.086E-03
            5997            5985     155.290E-03     157.270E-03
            5997            5986     169.859E-03     172.109E-03
            5998            5971     165.258E-03     170.086E-03
            5998            5972     181.128E-03     186.545E-03
            5998            5986     169.859E-03     172.109E-03
            5998            5987     185.056E-03     187.675E-03
            5999            5972     181.128E-03     186.545E-03
            5999            5973     197.482E-03     203.552E-03
            5999            5987     185.056E-03     187.675E-03
            5999            5988     200.161E-03     203.418E-03
            6000            5973     197.482E-03     203.552E-03
            6000            5974     213.757E-03     220.627E-03
            6000            5988     200.161E-03     203.418E-03
            6000            5989     214.775E-03     218.784E-03
            6001            5974     213.757E-03     220.627E-03
            6001            5975     230.104E-03     237.535E-03
            6001            5989     214.775E-03     218.784E-03
            6001            5990     227.562E-03     232.765E-03
            6002            5975     230.104E-03     237.535E-03
            6002            5976     245.924E-03     253.766E-03
            6002            5990     227.562E-03     232.765E-03
            6002            5991     237.829E-03     244.056E-03
            6003            5976     245.924E-03     253.766E-03
            6003            5977     261.850E-03     269.183E-03
            6003            5991     237.829E-03     244.056E-03
            6003            5992     246.188E-03     252.402E-03
            6004            5977     261.850E-03     269.183E-03
            6004            5978     280.506E-03     285.370E-03
            6004            5992     246.188E-03     252.402E-03
            6004            5993     254.989E-03     260.190E-03
            6005            5978     280.506E-03     285.370E-03
            6005            5979     304.062E-03     307.313E-03
            6005            5993     254.989E-03     260.190E-03
            6005            5994     271.777E-03     273.470E-03
            6006             682     317.418E-03     320.769E-03
            6006             683     283.393E-03     282.404E-03
            6006            5979     304.062E-03     307.313E-03
            6006            5994     271.777E-03     273.470E-03
            6007             773     109.173E-03     103.374E-03
            6007             774     116.199E-03     112.070E-03
            6007            5980     110.138E-03     105.730E-03
            6007            5995     116.737E-03     113.489E-03
            6008            5980     110.138E-03     105.730E-03
            6008            5981     113.625E-03     111.624E-03
            6008            5995     116.737E-03     113.489E-03
            6008            5996     119.732E-03     118.248E-03
            6009            5981     113.625E-03     111.624E-03
            6009            5982     120.315E-03     120.144E-03
            6009            5996     119.732E-03     118.248E-03
            6009            5997     125.982E-03     126.070E-03
            6010            5982     120.315E-03     120.144E-03
            6010            5983     129.896E-03     131.033E-03
            6010            5997     125.982E-03     126.070E-03
            6010            5998     134.982E-03     135.508E-03
            6011            5983     129.896E-03     131.033E-03
            6011            5984     141.743E-03     143.481E-03
            6011            5998     134.982E-03     135.508E-03
            6011            5999     146.371E-03     146.382E-03
            6012            5984     141.743E-03     143.481E-03
            6012            5985     155.290E-03     157.270E-03
            6012            5999     146.371E-03     146.382E-03
            6012            6000     159.152E-03     158.806E-03
            6013            5985     155.290E-03     157.270E-03
            6013            5986     169.859E-03     172.109E-03
            6013            6000     159.152E-03     158.806E-03
            6013            6001     172.819E-03     172.323E-03
            6014            5986     169.859E-03     172.109E-03
            6014            5987     185.056E-03     187.675E-03
            6014            6001     172.819E-03     172.323E-03
            6014            6002     186.815E-03     186.419E-03
            6015            5987     185.056E-03     187.675E-03
            6015            5988     200.161E-03     203.418E-03
            6015            6002     186.815E-03     186.419E-03
            6015            6003     200.645E-03     200.566E-03
            6016            5988     200.161E-03     203.418E-03
            6016            5989     214.775E-03     218.784E-03
            6016            6003     200.645E-03     200.566E-03
            6016            6004     213.143E-03     213.850E-03
            6017            5989     214.775E-03     218.784E-03
            6017            5990     227.562E-03     232.765E-03
            6017            6004     213.143E-03     213.850E-03
            6017            6005     223.266E-03     225.073E-03
            6018            5990     227.562E-03     232.765E-03
            6018            5991     237.829E-03     244.056E-03
            6018            6005     223.266E-03     225.073E-03
            6018            6006     228.998E-03     232.529E-03
            6019            5991     237.829E-03     244.056E-03
            6019            5992     246.188E-03     252.402E-03
            6019            6006     228.998E-03     232.529E-03
            6019            6007     229.460E-03     234.679E-03
            6020            5992     246.188E-03     252.402E-03
            6020            5993     254.989E-03     260.190E-03
            6020            6007     229.460E-03     234.679E-03
            6020            6008     229.514E-03     233.663E-03
            6021            5993     254.989E-03     260.190E-03
            6021            5994     271.777E-03     273.470E-03
            6021            6008     229.514E-03     233.663E-03
            6021            6009     237.651E-03     238.956E-03
            6022             683     283.393E-03     282.404E-03
            6022             684     244.992E-03     244.963E-03
            6022            5994     271.777E-03     273.470E-03
            6022            6009     237.651E-03     238.956E-03
            6023             774     116.199E-03     112.070E-03
            6023             775     122.426E-03     118.716E-03
            6023            5995     116.737E-03     113.489E-03
            6023            6010     123.256E-03     120.830E-03
            6024            5995     116.737E-03     113.489E-03
            6024            5996     119.732E-03     118.248E-03
            6024            6010     123.256E-03     120.830E-03
            6024            6011     125.642E-03     126.205E-03
            6025            5996     119.732E-03     118.248E-03
            6025            5997     125.982E-03     126.070E-03
            6025            6011     125.642E-03     126.205E-03
            6025            6012     130.998E-03     132.384E-03
            6026            5997     125.982E-03     126.070E-03
            6026            5998     134.982E-03     135.508E-03
            6026            6012     130.998E-03     132.384E-03
            6026            6013     139.895E-03     139.418E-03
            6027            5998     134.982E-03     135.508E-03
            6027            5999     146.371E-03     146.382E-03
            6027            6013     139.895E-03     139.418E-03
            6027            6014     150.452E-03     148.571E-03
            6028            5999     146.371E-03     146.382E-03
            6028            6000     159.152E-03     158.806E-03
            6028            6014     150.452E-03     148.571E-03
            6028            6015     161.984E-03     159.246E-03
            6029            6000     159.152E-03     158.806E-03
            6029            6001     172.819E-03     172.323E-03
            6029            6015     161.984E-03     159.246E-03
            6029            6016     174.205E-03     170.894E-03
            6030            6001     172.819E-03     172.323E-03
            6030            6002     186.815E-03     186.419E-03
            6030            6016     174.205E-03     170.894E-03
            6030            6017     186.647E-03     183.037E-03
            6031            6002     186.815E-03     186.419E-03
            6031            6003     200.645E-03     200.566E-03
            6031            6017     186.647E-03     183.037E-03
            6031            6018     198.600E-03     194.961E-03
            6032            6003     200.645E-03     200.566E-03
            6032            6004     213.143E-03     213.850E-03
            6032            6018     198.600E-03     194.961E-03
            6032            6019     209.239E-03     205.837E-03
            6033            6004     213.143E-03     213.850E-03
            6033            6005     223.266E-03     225.073E-03
            6033            6019     209.239E-03     205.837E-03
            6033            6020     216.906E-03     214.322E-03
            6034            6005     223.266E-03     225.073E-03
            6034            6006     228.998E-03     232.529E-03
            6034            6020     216.906E-03     214.322E-03
            6034            6021     219.793E-03     218.733E-03
            6035            6006     228.998E-03     232.529E-03
            6035            6007     229.460E-03     234.679E-03
            6035            6021     219.793E-03     218.733E-03
            6035            6022     214.608E-03     216.222E-03
            6036            6007     229.460E-03     234.679E-03
            6036            6008     229.514E-03     233.663E-03
            6036            6022     214.608E-03     216.222E-03
            6036            6023     202.980E-03     206.612E-03
            6037            6008     229.514E-03     233.663E-03
            6037            6009     237.651E-03     238.956E-03
            6037            6023     202.980E-03     206.612E-03
            6037            6024     202.159E-03     201.926E-03
            6038             684     244.992E-03     244.963E-03
            6038             685     207.581E-03     203.327E-03
            6038            6009     237.651E-03     238.956E-03
            6038            6024     202.159E-03     201.926E-03
            6039             775     122.426E-03     118.716E-03
            6039             776     131.256E-03     129.907E-03
            6039            6010     123.256E-03     120.830E-03
            6039            6025     129.644E-03     132.450E-03
            6040            6010     123.256E-03     120.830E-03
            6040            6011     125.642E-03     126.205E-03
            6040            6025     129.644E-03     132.450E-03
            6040            6026     130.481E-03     135.593E-03
            6041            6011     125.642E-03     126.205E-03
            6041            6012     130.998E-03     132.384E-03
            6041            6026     130.481E-03     135.593E-03
            6041            6027     137.082E-03     138.045E-03
            6042            6012     130.998E-03     132.384E-03
            6042            6013     139.895E-03     139.418E-03
            6042            6027     137.082E-03     138.045E-03
            6042            6028     145.471E-03     143.263E-03
            6043            6013     139.895E-03     139.418E-03
            6043            6014     150.452E-03     148.571E-03
            6043            6028     145.471E-03     143.263E-03
            6043            6029     154.521E-03     150.640E-03
            6044            6014     150.452E-03     148.571E-03
            6044            6015     161.984E-03     159.246E-03
            6044            6029     154.521E-03     150.640E-03
            6044            6030     164.357E-03     159.243E-03
            6045            6015     161.984E-03     159.246E-03
            6045            6016     174.205E-03     170.894E-03
            6045            6030     164.357E-03     159.243E-03
            6045            6031     174.595E-03     168.626E-03
            6046            6016     174.205E-03     170.894E-03
            6046            6017     186.647E-03     183.037E-03
            6046            6031     174.595E-03     168.626E-03
            6046            6032     184.844E-03     178.164E-03
            6047            6017     186.647E-03     183.037E-03
            6047            6018     198.600E-03     194.961E-03
            6047            6032     184.844E-03     178.164E-03
            6047            6033     194.531E-03     187.234E-03
            6048            6018     198.600E-03     194.961E-03
            6048            6019     209.239E-03     205.837E-03
            6048            6033     194.531E-03     187.234E-03
            6048            6034     202.766E-03     194.992E-03
            6049            6019     209.239E-03     205.837E-03
            6049            6020     216.906E-03     214.322E-03
            6049            6034     202.766E-03     194.992E-03
            6049            6035     208.253E-03     200.291E-03
            6050            6020     216.906E-03     214.322E-03
            6050            6021     219.793E-03     218.733E-03
            6050            6035     208.253E-03     200.291E-03
            6050            6036     208.943E-03     201.312E-03
            6051            6021     219.793E-03     218.733E-03
            6051            6022     214.608E-03     216.222E-03
            6051            6036     208.943E-03     201.312E-03
            6051            6037     201.927E-03     195.883E-03
            6052            6022     214.608E-03     216.222E-03
            6052            6023     202.980E-03     206.612E-03
            6052            6037     201.927E-03     195.883E-03
            6052            6038     180.897E-03     178.787E-03
            6053            6023     202.980E-03     206.612E-03
            6053            6024     202.159E-03     201.926E-03
            6053            6038     180.897E-03     178.787E-03
            6053            6039     164.100E-03     162.678E-03
            6054             685     207.581E-03     203.327E-03
            6054             686     162.533E-03     159.077E-03
            6054            6024     202.159E-03     201.926E-03
            6054            6039     164.100E-03     162.678E-03
            6055             776     131.256E-03     129.907E-03
            6055             777     131.867E-03     147.065E-03
            6055            6025     129.644E-03     132.450E-03
            6055            6040     133.648E-03     145.020E-03
            6056            6025     129.644E-03     132.450E-03
            6056            6026     130.481E-03     135.593E-03
            6056            6040     133.648E-03     145.020E-03
            6056            6041     138.794E-03     142.336E-03
            6057            6026     130.481E-03     135.593E-03
            6057            6027     137.082E-03     138.045E-03
            6057            6041     138.794E-03     142.336E-03
            6057            6042     145.479E-03     143.488E-03
            6058            6027     137.082E-03     138.045E-03
            6058            6028     145.471E-03     143.263E-03
            6058            6042     145.479E-03     143.488E-03
            6058            6043     152.146E-03     147.833E-03
            6059            6028     145.471E-03     143.263E-03
            6059            6029     154.521E-03     150.640E-03
            6059            6043     152.146E-03     147.833E-03
            6059            6044     159.353E-03     153.502E-03
            6060            6029     154.521E-03     150.640E-03
            6060            6030     164.357E-03     159.243E-03
            6060            6044     159.353E-03     153.502E-03
            6060            6045     167.080E-03     160.009E-03
            6061            6030     164.357E-03     159.243E-03
            6061            6031     174.595E-03     168.626E-03
            6061            6045     167.080E-03     160.009E-03
            6061            6046     174.916E-03     166.803E-03
            6062            6031     174.595E-03     168.626E-03
            6062            6032     184.844E-03     178.164E-03
            6062            6046     174.916E-03     166.803E-03
            6062            6047     182.518E-03     173.273E-03
            6063            6032     184.844E-03     178.164E-03
            6063            6033     194.531E-03     187.234E-03
            6063            6047     182.518E-03     173.273E-03
            6063            6048     189.284E-03     178.855E-03
            6064            6033     194.531E-03     187.234E-03
            6064            6034     202.766E-03     194.992E-03
            6064            6048     189.284E-03     178.855E-03
            6064            6049     194.436E-03     182.624E-03
            6065            6034     202.766E-03     194.992E-03
            6065            6035     208.253E-03     200.291E-03
            6065            6049     194.436E-03     182.624E-03
            6065            6050     197.080E-03     183.659E-03
            6066            6035     208.253E-03     200.291E-03
            6066            6036     208.943E-03     201.312E-03
            6066            6050     197.080E-03     183.659E-03
            6066            6051     195.370E-03     180.259E-03
            6067            6036     208.943E-03     201.312E-03
            6067            6037     201.927E-03     195.883E-03
            6067            6051     195.370E-03     180.259E-03
            6067            6052     187.419E-03     170.493E-03
            6068            6037     201.927E-03     195.883E-03
            6068            6038     180.897E-03     178.787E-03
            6068            6052     187.419E-03     170.493E-03
            6068            6053     166.882E-03     149.430E-03
            6069            6038     180.897E-03     178.787E-03
            6069            6039     164.100E-03     162.678E-03
            6069            6053     166.882E-03     149.430E-03
            6069            6054     133.318E-03     120.296E-03
            6070             686     162.533E-03     159.077E-03
            6070             687     114.673E-03     105.637E-03
            6070            6039     164.100E-03     162.678E-03
            6070            6054     133.318E-03     120.296E-03
            6071             777     131.867E-03     147.065E-03
            6071             778     100.554E-03     119.505E-03
            6071            6040     133.648E-03     145.020E-03
            6071            6055     105.469E-03     116.343E-03
            6072            6040     133.648E-03     145.020E-03
            6072            6041     138.794E-03     142.336E-03
            6072            6055     105.469E-03     116.343E-03
            6072            6056     111.829E-03     112.967E-03
            6073            6041     138.794E-03     142.336E-03
            6073            6042     145.479E-03     143.488E-03
            6073            6056     111.829E-03     112.967E-03
            6073            6057     114.249E-03     114.464E-03
            6074            6042     145.479E-03     143.488E-03
            6074            6043     152.146E-03     147.833E-03
            6074            6057     114.249E-03     114.464E-03
            6074            6058     116.808E-03     117.359E-03
            6075            6043     152.146E-03     147.833E-03
            6075            6044     159.353E-03     153.502E-03
            6075            6058     116.808E-03     117.359E-03
            6075            6059     120.054E-03     120.417E-03
            6076            6044     159.353E-03     153.502E-03
            6076            6045     167.080E-03     160.009E-03
            6076            6059     120.054E-03     120.417E-03
            6076            6060     123.519E-03     124.056E-03
            6077            6045     167.080E-03     160.009E-03
            6077            6046     174.916E-03     166.803E-03
            6077            6060     123.519E-03     124.056E-03
            6077            6061     127.042E-03     127.648E-03
            6078            6046     174.916E-03     166.803E-03
            6078            6047     182.518E-03     173.273E-03
            6078            6061     127.042E-03     127.648E-03
            6078            6062     130.609E-03     131.159E-03
            6079            6047     182.518E-03     173.273E-03
            6079            6048     189.284E-03     178.855E-03
            6079            6062     130.609E-03     131.159E-03
            6079            6063     133.568E-03     133.973E-03
            6080            6048     189.284E-03     178.855E-03
            6080            6049     194.436E-03     182.624E-03
            6080            6063     133.568E-03     133.973E-03
            6080            6064     136.200E-03     136.131E-03
            6081            6049     194.436E-03     182.624E-03
            6081            6050     197.080E-03     183.659E-03
            6081            6064     136.200E-03     136.131E-03
            6081            6065     137.093E-03     136.431E-03
            6082            6050     197.080E-03     183.659E-03
            6082            6051     195.370E-03     180.259E-03
            6082            6065     137.093E-03     136.431E-03
            6082            6066     137.034E-03     134.904E-03
            6083            6051     195.370E-03     180.259E-03
            6083            6052     187.419E-03     170.493E-03
            6083            6066     137.034E-03     134.904E-03
            6083            6067     131.638E-03     128.774E-03
            6084            6052     187.419E-03     170.493E-03
            6084            6053     166.882E-03     149.430E-03
            6084            6067     131.638E-03     128.774E-03
            6084            6068     122.899E-03     118.866E-03
            6085            6053     166.882E-03     149.430E-03
            6085            6054     133.318E-03     120.296E-03
            6085            6068     122.899E-03     118.866E-03
            6085            6069     118.409E-03     120.605E-03
            6086             687     114.673E-03     105.637E-03
            6086             688     116.694E-03     126.919E-03
            6086            6054     133.318E-03     120.296E-03
            6086            6069     118.409E-03     120.605E-03
            6087             778     100.554E-03     119.505E-03
            6087             779     82.1701E-03     81.9841E-03
            6087            6055     105.469E-03     116.343E-03
            6087            6070     81.0287E-03     81.8082E-03
            6088            6055     105.469E-03     116.343E-03
            6088            6056     111.829E-03     112.967E-03
            6088            6070     81.0287E-03     81.8082E-03
            6088            6071     79.6777E-03     81.9332E-03
            6089            6056     111.829E-03     112.967E-03
            6089            6057     114.249E-03     114.464E-03
            6089            6071     79.6777E-03     81.9332E-03
            6089            6072     79.3896E-03     82.6122E-03
            6090            6057     114.249E-03     114.464E-03
            6090            6058     116.808E-03     117.359E-03
            6090            6072     79.3896E-03     82.6122E-03
            6090            6073     79.4606E-03     83.6568E-03
            6091            6058     116.808E-03     117.359E-03
            6091            6059     120.054E-03     120.417E-03
            6091            6073     79.4606E-03     83.6568E-03
            6091            6074     79.8126E-03     84.9594E-03
            6092            6059     120.054E-03     120.417E-03
            6092            6060     123.519E-03     124.056E-03
            6092            6074     79.8126E-03     84.9594E-03
            6092            6075     80.3898E-03     86.4324E-03
            6093            6060     123.519E-03     124.056E-03
            6093            6061     127.042E-03     127.648E-03
            6093            6075     80.3898E-03     86.4324E-03
            6093            6076     81.1240E-03     88.0280E-03
            6094            6061     127.042E-03     127.648E-03
            6094            6062     130.609E-03     131.159E-03
            6094            6076     81.1240E-03     88.0280E-03
            6094            6077     82.1391E-03     89.8665E-03
            6095            6062     130.609E-03     131.159E-03
            6095            6063     133.568E-03     133.973E-03
            6095            6077     82.1391E-03     89.8665E-03
            6095            6078     83.2508E-03     91.7467E-03
            6096            6063     133.568E-03     133.973E-03
            6096            6064     136.200E-03     136.131E-03
            6096            6078     83.2508E-03     91.7467E-03
            6096            6079     84.8840E-03     94.0422E-03
            6097            6064     136.200E-03     136.131E-03
            6097            6065     137.093E-03     136.431E-03
            6097            6079     84.8840E-03     94.0422E-03
            6097            6080     86.4329E-03     96.2889E-03
            6098            6065     137.093E-03     136.431E-03
            6098            6066     137.034E-03     134.904E-03
            6098            6080     86.4329E-03     96.2889E-03
            6098            6081     89.1741E-03     99.2623E-03
            6099            6066     137.034E-03     134.904E-03
            6099            6067     131.638E-03     128.774E-03
            6099            6081     89.1741E-03     99.2623E-03
            6099            6082     90.4189E-03     101.399E-03
            6100            6067     131.638E-03     128.774E-03
            6100            6068     122.899E-03     118.866E-03
            6100            6082     90.4189E-03     101.399E-03
            6100            6083     91.1229E-03     104.530E-03
            6101            6068     122.899E-03     118.866E-03
            6101            6069     118.409E-03     120.605E-03
            6101            6083     91.1229E-03     104.530E-03
            6101            6084     107.422E-03     119.599E-03
            6102             688     116.694E-03     126.919E-03
            6102             689     121.892E-03     131.452E-03
            6102            6069     118.409E-03     120.605E-03
            6102            6084     107.422E-03     119.599E-03
            6103             779     82.1701E-03     81.9841E-03
            6103             780     92.0034E-03     79.2014E-03
            6103            6070     81.0287E-03     81.8082E-03
            6103            6085     87.6337E-03     81.2360E-03
            6104            6070     81.0287E-03     81.8082E-03
            6104            6071     79.6777E-03     81.9332E-03
            6104            6085     87.6337E-03     81.2360E-03
            6104            6086     82.4028E-03     83.2781E-03
            6105            6071     79.6777E-03     81.9332E-03
            6105            6072     79.3896E-03     82.6122E-03
            6105            6086     82.4028E-03     83.2781E-03
            6105            6087     82.3467E-03     82.9988E-03
            6106            6072     79.3896E-03     82.6122E-03
            6106            6073     79.4606E-03     83.6568E-03
            6106            6087     82.3467E-03     82.9988E-03
            6106            6088     83.2793E-03     83.2394E-03
            6107            6073     79.4606E-03     83.6568E-03
            6107            6074     79.8126E-03     84.9594E-03
            6107            6088     83.2793E-03     83.2394E-03
            6107            6089     83.9202E-03     84.2581E-03
            6108            6074     79.8126E-03     84.9594E-03
            6108            6075     80.3898E-03     86.4324E-03
            6108            6089     83.9202E-03     84.2581E-03
            6108            6090     84.9028E-03     85.2198E-03
            6109            6075     80.3898E-03     86.4324E-03
            6109            6076     81.1240E-03     88.0280E-03
            6109            6090     84.9028E-03     85.2198E-03
            6109            6091     86.0644E-03     86.3933E-03
            6110            6076     81.1240E-03     88.0280E-03
            6110            6077     82.1391E-03     89.8665E-03
            6110            6091     86.0644E-03     86.3933E-03
            6110            6092     87.2865E-03     87.6648E-03
            6111            6077     82.1391E-03     89.8665E-03
            6111            6078     83.2508E-03     91.7467E-03
            6111            6092     87.2865E-03     87.6648E-03
            6111            6093     88.7999E-03     89.1982E-03
            6112            6078     83.2508E-03     91.7467E-03
            6112            6079     84.8840E-03     94.0422E-03
            6112            6093     88.7999E-03     89.1982E-03
            6112            6094     90.2999E-03     90.7101E-03
            6113            6079     84.8840E-03     94.0422E-03
            6113            6080     86.4329E-03     96.2889E-03
            6113            6094     90.2999E-03     90.7101E-03
            6113            6095     92.5670E-03     92.8953E-03
            6114            6080     86.4329E-03     96.2889E-03
            6114            6081     89.1741E-03     99.2623E-03
            6114            6095     92.5670E-03     92.8953E-03
            6114            6096     94.8197E-03     95.6085E-03
            6115            6081     89.1741E-03     99.2623E-03
            6115            6082     90.4189E-03     101.399E-03
            6115            6096     94.8197E-03     95.6085E-03
            6115            6097     100.173E-03     99.4053E-03
            6116            6082     90.4189E-03     101.399E-03
            6116            6083     91.1229E-03     104.530E-03
            6116            6097     100.173E-03     99.4053E-03
            6116            6098     98.4004E-03     99.6987E-03
            6117            6083     91.1229E-03     104.530E-03
            6117            6084     107.422E-03     119.599E-03
            6117            6098     98.4004E-03     99.6987E-03
            6117            6099     78.1000E-03     79.1743E-03
            6118             689     121.892E-03     131.452E-03
            6118             690     64.4226E-03     61.0783E-03
            6118            6084     107.422E-03     119.599E-03
            6118            6099     78.1000E-03     79.1743E-03
            6119             780     92.0034E-03     79.2014E-03
            6119             781     86.8785E-03     87.2810E-03
            6119            6085     87.6337E-03     81.2360E-03
            6119            6100     86.4700E-03     86.1693E-03
            6120            6085     87.6337E-03     81.2360E-03
            6120            6086     82.4028E-03     83.2781E-03
            6120            6100     86.4700E-03     86.1693E-03
            6120            6101     86.3306E-03     84.6944E-03
            6121            6086     82.4028E-03     83.2781E-03
            6121            6087     82.3467E-03     82.9988E-03
            6121            6101     86.3306E-03     84.6944E-03
            6121            6102     86.9719E-03     84.2978E-03
            6122            6087     82.3467E-03     82.9988E-03
            6122            6088     83.2793E-03     83.2394E-03
            6122            6102     86.9719E-03     84.2978E-03
            6122            6103     87.9435E-03     84.3896E-03
            6123            6088     83.2793E-03     83.2394E-03
            6123            6089     83.9202E-03     84.2581E-03
            6123            6103     87.9435E-03     84.3896E-03
            6123            6104     89.1048E-03     84.7111E-03
            6124            6089     83.9202E-03     84.2581E-03
            6124            6090     84.9028E-03     85.2198E-03
            6124            6104     89.1048E-03     84.7111E-03
            6124            6105     90.4042E-03     85.2220E-03
            6125            6090     84.9028E-03     85.2198E-03
            6125            6091     86.0644E-03     86.3933E-03
            6125            6105     90.4042E-03     85.2220E-03
            6125            6106     91.8157E-03     85.8648E-03
            6126            6091     86.0644E-03     86.3933E-03
            6126            6092     87.2865E-03     87.6648E-03
            6126            6106     91.8157E-03     85.8648E-03
            6126            6107     93.3653E-03     86.6603E-03
            6127            6092     87.2865E-03     87.6648E-03
            6127            6093     88.7999E-03     89.1982E-03
            6127            6107     93.3653E-03     86.6603E-03
            6127            6108     94.9329E-03     87.5232E-03
            6128            6093     88.7999E-03     89.1982E-03
            6128            6094     90.2999E-03     90.7101E-03
            6128            6108     94.9329E-03     87.5232E-03
            6128            6109     96.6756E-03     88.5762E-03
            6129            6094     90.2999E-03     90.7101E-03
            6129            6095     92.5670E-03     92.8953E-03
            6129            6109     96.6756E-03     88.5762E-03
            6129            6110     98.4601E-03     89.6141E-03
            6130            6095     92.5670E-03     92.8953E-03
            6130            6096     94.8197E-03     95.6085E-03
            6130            6110     98.4601E-03     89.6141E-03
            6130            6111     100.528E-03     91.0784E-03
            6131            6096     94.8197E-03     95.6085E-03
            6131            6097     100.173E-03     99.4053E-03
            6131            6111     100.528E-03     91.0784E-03
            6131            6112     101.823E-03     91.0491E-03
            6132            6097     100.173E-03     99.4053E-03
            6132            6098     98.4004E-03     99.6987E-03
            6132            6112     101.823E-03     91.0491E-03
            6132            6113     93.4804E-03     82.5374E-03
            6133            6098     98.4004E-03     99.6987E-03
            6133            6099     78.1000E-03     79.1743E-03
            6133            6113     93.4804E-03     82.5374E-03
            6133            6114     54.2360E-03     61.9967E-03
            6134             690     64.4226E-03     61.0783E-03
            6134             691     23.2947E-03     48.8544E-03
            6134            6099     78.1000E-03     79.1743E-03
            6134            6114     54.2360E-03     61.9967E-03
            6135              30     40.3174E-03     46.6350E-03
            6135             781     86.8785E-03     87.2810E-03
            6135             797     42.0066E-03     44.8512E-03
            6135            6100     86.4700E-03     86.1693E-03
            6136             797     42.0066E-03     44.8512E-03
            6136             798     44.3033E-03     42.7734E-03
            6136            6100     86.4700E-03     86.1693E-03
            6136            6101     86.3306E-03     84.6944E-03
            6137             798     44.3033E-03     42.7734E-03
            6137             799     44.8669E-03     42.6075E-03
            6137            6101     86.3306E-03     84.6944E-03
            6137            6102     86.9719E-03     84.2978E-03
            6138             799     44.8669E-03     42.6075E-03
            6138             800     45.2667E-03     42.6993E-03
            6138            6102     86.9719E-03     84.2978E-03
            6138            6103     87.9435E-03     84.3896E-03
            6139             800     45.2667E-03     42.6993E-03
            6139             801     45.9919E-03     42.6461E-03
            6139            6103     87.9435E-03     84.3896E-03
            6139            6104     89.1048E-03     84.7111E-03
            6140             801     45.9919E-03     42.6461E-03
            6140             802     46.7223E-03     42.8042E-03
            6140            6104     89.1048E-03     84.7111E-03
            6140            6105     90.4042E-03     85.2220E-03
            6141             802     46.7223E-03     42.8042E-03
            6141             803     47.4643E-03     42.9654E-03
            6141            6105     90.4042E-03     85.2220E-03
            6141            6106     91.8157E-03     85.8648E-03
            6142             803     47.4643E-03     42.9654E-03
            6142             804     48.3517E-03     43.2933E-03
            6142            6106     91.8157E-03     85.8648E-03
            6142            6107     93.3653E-03     86.6603E-03
            6143             804     48.3517E-03     43.2933E-03
            6143             805     49.0846E-03     43.4745E-03
            6143            6107     93.3653E-03     86.6603E-03
            6143            6108     94.9329E-03     87.5232E-03
            6144             805     49.0846E-03     43.4745E-03
            6144             806     50.1294E-03     44.0150E-03
            6144            6108     94.9329E-03     87.5232E-03
            6144            6109     96.6756E-03     88.5762E-03
            6145             806     50.1294E-03     44.0150E-03
            6145             807     50.6201E-03     44.0121E-03
            6145            6109     96.6756E-03     88.5762E-03
            6145            6110     98.4601E-03     89.6141E-03
            6146             807     50.6201E-03     44.0121E-03
            6146             808     51.9189E-03     44.3844E-03
            6146            6110     98.4601E-03     89.6141E-03
            6146            6111     100.528E-03     91.0784E-03
            6147             808     51.9189E-03     44.3844E-03
            6147             809     49.8720E-03     42.3610E-03
            6147            6111     100.528E-03     91.0784E-03
            6147            6112     101.823E-03     91.0491E-03
            6148             809     49.8720E-03     42.3610E-03
            6148             810     44.1306E-03     35.6635E-03
            6148            6112     101.823E-03     91.0491E-03
            6148            6113     93.4804E-03     82.5374E-03
            6149             810     44.1306E-03     35.6635E-03
            6149             811     26.5526E-03     30.7902E-03
            6149            6113     93.4804E-03     82.5374E-03
            6149            6114     54.2360E-03     61.9967E-03
            6150              28     10.9545E-03     29.5146E-03
            6150             691     23.2947E-03     48.8544E-03
            6150             811     26.5526E-03     30.7902E-03
            6150            6114     54.2360E-03     61.9967E-03


  Minimum                            22.9802E-06     29.2239E-06
      At Element                            4897            4881
            Node                             817             816

  Maximum                                1.04364         1.04982
      At Element                            2936            2936
            Node                             528             528

           Total                     1.69921E+03     1.73512E+03


Field Output reported at element nodes for region: DO228-1.Region_4
   Computation algorithm: EXTRAPOLATE_COMPUTE_AVERAGE
   Averaged at nodes
   Averaging regions: ODB_REGIONS

   Element Label      Node Label         S.Mises         S.Mises
                                          @Loc 1          @Loc 2
-----------------------------------------------------------------
             833               1     24.7428E-03     28.2753E-03
             833             168     25.8582E-03     27.4590E-03
             833             209     52.1602E-06     55.8001E-06
             833            1670     52.2523E-06     55.7615E-06
             834             168     25.8582E-03     27.4590E-03
             834             169     27.3310E-03     26.4918E-03
             834            1670     52.2523E-06     55.7615E-06
             834            1671     52.8299E-06     55.8149E-06
             835             169     27.3310E-03     26.4918E-03
             835             170     27.6993E-03     26.4715E-03
             835            1671     52.8299E-06     55.8149E-06
             835            1672     53.8239E-06     56.6232E-06
             836             170     27.6993E-03     26.4715E-03
             836             171     27.9479E-03     26.5632E-03
             836            1672     53.8239E-06     56.6232E-06
             836            1673     54.7922E-06     58.2253E-06
             837             171     27.9479E-03     26.5632E-03
             837             172     28.3489E-03     26.5218E-03
             837            1673     54.7922E-06     58.2253E-06
             837            1674     55.9847E-06     60.1366E-06
             838             172     28.3489E-03     26.5218E-03
             838             173     28.7567E-03     26.6082E-03
             838            1674     55.9847E-06     60.1366E-06
             838            1675     57.4939E-06     62.3358E-06
             839             173     28.7567E-03     26.6082E-03
             839             174     29.1614E-03     26.6852E-03
             839            1675     57.4939E-06     62.3358E-06
             839            1676     59.2890E-06     64.6816E-06
             840             174     29.1614E-03     26.6852E-03
             840             175     29.6548E-03     26.8608E-03
             840            1676     59.2890E-06     64.6816E-06
             840            1677     61.3187E-06     67.2358E-06
             841             175     29.6548E-03     26.8608E-03
             841             176     30.0522E-03     26.9447E-03
             841            1677     61.3187E-06     67.2358E-06
             841            1678     63.4732E-06     69.8205E-06
             842             176     30.0522E-03     26.9447E-03
             842             177     30.6364E-03     27.2397E-03
             842            1678     63.4732E-06     69.8205E-06
             842            1679     65.7718E-06     72.5785E-06
             843             177     30.6364E-03     27.2397E-03
             843             178     30.8857E-03     27.2051E-03
             843            1679     65.7718E-06     72.5785E-06
             843            1680     68.0212E-06     75.2990E-06
             844             178     30.8857E-03     27.2051E-03
             844             179     31.6077E-03     27.3874E-03
             844            1680     68.0212E-06     75.2990E-06
             844            1681     71.2091E-06     78.9284E-06
             845             179     31.6077E-03     27.3874E-03
             845             180     30.2825E-03     26.1058E-03
             845            1681     71.2091E-06     78.9284E-06
             845            1682     75.9738E-06     84.2485E-06
             846             180     30.2825E-03     26.1058E-03
             846             181     26.7890E-03     22.0649E-03
             846            1682     75.9738E-06     84.2485E-06
             846            1683     89.1237E-06     97.5639E-06
             847             181     26.7890E-03     22.0649E-03
             847             182     16.5701E-03     19.0974E-03
             847            1683     89.1237E-06     97.5639E-06
             847            1684     121.051E-06     128.298E-06
             848               5     7.52702E-03     18.2740E-03
             848             182     16.5701E-03     19.0974E-03
             848             183     142.500E-06     148.572E-06
             848            1684     121.051E-06     128.298E-06
             849             208     58.4977E-06     53.8839E-06
             849             209     52.1602E-06     55.8001E-06
             849            1670     52.2523E-06     55.7615E-06
             849            1685     57.6083E-06     55.3275E-06
             850            1670     52.2523E-06     55.7615E-06
             850            1671     52.8299E-06     55.8149E-06
             850            1685     57.6083E-06     55.3275E-06
             850            1686     56.5368E-06     57.3584E-06
             851            1671     52.8299E-06     55.8149E-06
             851            1672     53.8239E-06     56.6232E-06
             851            1686     56.5368E-06     57.3584E-06
             851            1687     56.8086E-06     58.4335E-06
             852            1672     53.8239E-06     56.6232E-06
             852            1673     54.7922E-06     58.2253E-06
             852            1687     56.8086E-06     58.4335E-06
             852            1688     57.7695E-06     59.8163E-06
             853            1673     54.7922E-06     58.2253E-06
             853            1674     55.9847E-06     60.1366E-06
             853            1688     57.7695E-06     59.8163E-06
             853            1689     58.9446E-06     61.6086E-06
             854            1674     55.9847E-06     60.1366E-06
             854            1675     57.4939E-06     62.3358E-06
             854            1689     58.9446E-06     61.6086E-06
             854            1690     60.5322E-06     63.5730E-06
             855            1675     57.4939E-06     62.3358E-06
             855            1676     59.2890E-06     64.6816E-06
             855            1690     60.5322E-06     63.5730E-06
             855            1691     62.4655E-06     65.8808E-06
             856            1676     59.2890E-06     64.6816E-06
             856            1677     61.3187E-06     67.2358E-06
             856            1691     62.4655E-06     65.8808E-06
             856            1692     64.6755E-06     68.4069E-06
             857            1677     61.3187E-06     67.2358E-06
             857            1678     63.4732E-06     69.8205E-06
             857            1692     64.6755E-06     68.4069E-06
             857            1693     67.1914E-06     71.2322E-06
             858            1678     63.4732E-06     69.8205E-06
             858            1679     65.7718E-06     72.5785E-06
             858            1693     67.1914E-06     71.2322E-06
             858            1694     69.8173E-06     74.1934E-06
             859            1679     65.7718E-06     72.5785E-06
             859            1680     68.0212E-06     75.2990E-06
             859            1694     69.8173E-06     74.1934E-06
             859            1695     72.7203E-06     77.4192E-06
             860            1680     68.0212E-06     75.2990E-06
             860            1681     71.2091E-06     78.9284E-06
             860            1695     72.7203E-06     77.4192E-06
             860            1696     75.3373E-06     80.6142E-06
             861            1681     71.2091E-06     78.9284E-06
             861            1682     75.9738E-06     84.2485E-06
             861            1696     75.3373E-06     80.6142E-06
             861            1697     79.3579E-06     84.4343E-06
             862            1682     75.9738E-06     84.2485E-06
             862            1683     89.1237E-06     97.5639E-06
             862            1697     79.3579E-06     84.4343E-06
             862            1698     88.7179E-06     92.3167E-06
             863            1683     89.1237E-06     97.5639E-06
             863            1684     121.051E-06     128.298E-06
             863            1698     88.7179E-06     92.3167E-06
             863            1699     104.493E-06     104.745E-06
             864             183     142.500E-06     148.572E-06
             864             184     113.908E-06     111.721E-06
             864            1684     121.051E-06     128.298E-06
             864            1699     104.493E-06     104.745E-06
             865             207     60.7627E-06     55.9424E-06
             865             208     58.4977E-06     53.8839E-06
             865            1685     57.6083E-06     55.3275E-06
             865            1700     60.6525E-06     56.4710E-06
             866            1685     57.6083E-06     55.3275E-06
             866            1686     56.5368E-06     57.3584E-06
             866            1700     60.6525E-06     56.4710E-06
             866            1701     60.2548E-06     58.1193E-06
             867            1686     56.5368E-06     57.3584E-06
             867            1687     56.8086E-06     58.4335E-06
             867            1701     60.2548E-06     58.1193E-06
             867            1702     59.9885E-06     60.0739E-06
             868            1687     56.8086E-06     58.4335E-06
             868            1688     57.7695E-06     59.8163E-06
             868            1702     59.9885E-06     60.0739E-06
             868            1703     60.5211E-06     61.5102E-06
             869            1688     57.7695E-06     59.8163E-06
             869            1689     58.9446E-06     61.6086E-06
             869            1703     60.5211E-06     61.5102E-06
             869            1704     61.7721E-06     62.9411E-06
             870            1689     58.9446E-06     61.6086E-06
             870            1690     60.5322E-06     63.5730E-06
             870            1704     61.7721E-06     62.9411E-06
             870            1705     63.4017E-06     64.7453E-06
             871            1690     60.5322E-06     63.5730E-06
             871            1691     62.4655E-06     65.8808E-06
             871            1705     63.4017E-06     64.7453E-06
             871            1706     65.3809E-06     66.8592E-06
             872            1691     62.4655E-06     65.8808E-06
             872            1692     64.6755E-06     68.4069E-06
             872            1706     65.3809E-06     66.8592E-06
             872            1707     67.7448E-06     69.3540E-06
             873            1692     64.6755E-06     68.4069E-06
             873            1693     67.1914E-06     71.2322E-06
             873            1707     67.7448E-06     69.3540E-06
             873            1708     70.4281E-06     72.1947E-06
             874            1693     67.1914E-06     71.2322E-06
             874            1694     69.8173E-06     74.1934E-06
             874            1708     70.4281E-06     72.1947E-06
             874            1709     73.4127E-06     75.3243E-06
             875            1694     69.8173E-06     74.1934E-06
             875            1695     72.7203E-06     77.4192E-06
             875            1709     73.4127E-06     75.3243E-06
             875            1710     76.3552E-06     78.5519E-06
             876            1695     72.7203E-06     77.4192E-06
             876            1696     75.3373E-06     80.6142E-06
             876            1710     76.3552E-06     78.5519E-06
             876            1711     78.5715E-06     81.1257E-06
             877            1696     75.3373E-06     80.6142E-06
             877            1697     79.3579E-06     84.4343E-06
             877            1711     78.5715E-06     81.1257E-06
             877            1712     79.0930E-06     82.1793E-06
             878            1697     79.3579E-06     84.4343E-06
             878            1698     88.7179E-06     92.3167E-06
             878            1712     79.0930E-06     82.1793E-06
             878            1713     77.0420E-06     79.8974E-06
             879            1698     88.7179E-06     92.3167E-06
             879            1699     104.493E-06     104.745E-06
             879            1713     77.0420E-06     79.8974E-06
             879            1714     78.9619E-06     81.4875E-06
             880             184     113.908E-06     111.721E-06
             880             185     82.6044E-06     85.4224E-06
             880            1699     104.493E-06     104.745E-06
             880            1714     78.9619E-06     81.4875E-06
             881             206     63.1077E-06     58.2021E-06
             881             207     60.7627E-06     55.9424E-06
             881            1700     60.6525E-06     56.4710E-06
             881            1715     63.0378E-06     58.8735E-06
             882            1700     60.6525E-06     56.4710E-06
             882            1701     60.2548E-06     58.1193E-06
             882            1715     63.0378E-06     58.8735E-06
             882            1716     62.6839E-06     60.5250E-06
             883            1701     60.2548E-06     58.1193E-06
             883            1702     59.9885E-06     60.0739E-06
             883            1716     62.6839E-06     60.5250E-06
             883            1717     62.5213E-06     62.0621E-06
             884            1702     59.9885E-06     60.0739E-06
             884            1703     60.5211E-06     61.5102E-06
             884            1717     62.5213E-06     62.0621E-06
             884            1718     63.2082E-06     63.0941E-06
             885            1703     60.5211E-06     61.5102E-06
             885            1704     61.7721E-06     62.9411E-06
             885            1718     63.2082E-06     63.0941E-06
             885            1719     64.4907E-06     64.2484E-06
             886            1704     61.7721E-06     62.9411E-06
             886            1705     63.4017E-06     64.7453E-06
             886            1719     64.4907E-06     64.2484E-06
             886            1720     66.0725E-06     65.7442E-06
             887            1705     63.4017E-06     64.7453E-06
             887            1706     65.3809E-06     66.8592E-06
             887            1720     66.0725E-06     65.7442E-06
             887            1721     67.9905E-06     67.5655E-06
             888            1706     65.3809E-06     66.8592E-06
             888            1707     67.7448E-06     69.3540E-06
             888            1721     67.9905E-06     67.5655E-06
             888            1722     70.2354E-06     69.7496E-06
             889            1707     67.7448E-06     69.3540E-06
             889            1708     70.4281E-06     72.1947E-06
             889            1722     70.2354E-06     69.7496E-06
             889            1723     72.7933E-06     72.2403E-06
             890            1708     70.4281E-06     72.1947E-06
             890            1709     73.4127E-06     75.3243E-06
             890            1723     72.7933E-06     72.2403E-06
             890            1724     75.6000E-06     75.0188E-06
             891            1709     73.4127E-06     75.3243E-06
             891            1710     76.3552E-06     78.5519E-06
             891            1724     75.6000E-06     75.0188E-06
             891            1725     78.0275E-06     77.5083E-06
             892            1710     76.3552E-06     78.5519E-06
             892            1711     78.5715E-06     81.1257E-06
             892            1725     78.0275E-06     77.5083E-06
             892            1726     79.4785E-06     79.0747E-06
             893            1711     78.5715E-06     81.1257E-06
             893            1712     79.0930E-06     82.1793E-06
             893            1726     79.4785E-06     79.0747E-06
             893            1727     75.6583E-06     76.6253E-06
             894            1712     79.0930E-06     82.1793E-06
             894            1713     77.0420E-06     79.8974E-06
             894            1727     75.6583E-06     76.6253E-06
             894            1728     63.4626E-06     66.2815E-06
             895            1713     77.0420E-06     79.8974E-06
             895            1714     78.9619E-06     81.4875E-06
             895            1728     63.4626E-06     66.2815E-06
             895            1729     56.8397E-06     56.9526E-06
             896             185     82.6044E-06     85.4224E-06
             896             186     58.1283E-06     54.9742E-06
             896            1714     78.9619E-06     81.4875E-06
             896            1729     56.8397E-06     56.9526E-06
             897             205     65.7760E-06     61.7440E-06
             897             206     63.1077E-06     58.2021E-06
             897            1715     63.0378E-06     58.8735E-06
             897            1730     64.8118E-06     63.0202E-06
             898            1715     63.0378E-06     58.8735E-06
             898            1716     62.6839E-06     60.5250E-06
             898            1730     64.8118E-06     63.0202E-06
             898            1731     63.9169E-06     64.2851E-06
             899            1716     62.6839E-06     60.5250E-06
             899            1717     62.5213E-06     62.0621E-06
             899            1731     63.9169E-06     64.2851E-06
             899            1732     64.6724E-06     64.2282E-06
             900            1717     62.5213E-06     62.0621E-06
             900            1718     63.2082E-06     63.0941E-06
             900            1732     64.6724E-06     64.2282E-06
             900            1733     65.9329E-06     64.6489E-06
             901            1718     63.2082E-06     63.0941E-06
             901            1719     64.4907E-06     64.2484E-06
             901            1733     65.9329E-06     64.6489E-06
             901            1734     67.1585E-06     65.5746E-06
             902            1719     64.4907E-06     64.2484E-06
             902            1720     66.0725E-06     65.7442E-06
             902            1734     67.1585E-06     65.5746E-06
             902            1735     68.6406E-06     66.6753E-06
             903            1720     66.0725E-06     65.7442E-06
             903            1721     67.9905E-06     67.5655E-06
             903            1735     68.6406E-06     66.6753E-06
             903            1736     70.3227E-06     68.0657E-06
             904            1721     67.9905E-06     67.5655E-06
             904            1722     70.2354E-06     69.7496E-06
             904            1736     70.3227E-06     68.0657E-06
             904            1737     72.1858E-06     69.6308E-06
             905            1722     70.2354E-06     69.7496E-06
             905            1723     72.7933E-06     72.2403E-06
             905            1737     72.1858E-06     69.6308E-06
             905            1738     74.2175E-06     71.3744E-06
             906            1723     72.7933E-06     72.2403E-06
             906            1724     75.6000E-06     75.0188E-06
             906            1738     74.2175E-06     71.3744E-06
             906            1739     76.1204E-06     72.9929E-06
             907            1724     75.6000E-06     75.0188E-06
             907            1725     78.0275E-06     77.5083E-06
             907            1739     76.1204E-06     72.9929E-06
             907            1740     77.6486E-06     74.2092E-06
             908            1725     78.0275E-06     77.5083E-06
             908            1726     79.4785E-06     79.0747E-06
             908            1740     77.6486E-06     74.2092E-06
             908            1741     76.9513E-06     73.5071E-06
             909            1726     79.4785E-06     79.0747E-06
             909            1727     75.6583E-06     76.6253E-06
             909            1741     76.9513E-06     73.5071E-06
             909            1742     72.1696E-06     68.8501E-06
             910            1727     75.6583E-06     76.6253E-06
             910            1728     63.4626E-06     66.2815E-06
             910            1742     72.1696E-06     68.8501E-06
             910            1743     56.0679E-06     54.6502E-06
             911            1728     63.4626E-06     66.2815E-06
             911            1729     56.8397E-06     56.9526E-06
             911            1743     56.0679E-06     54.6502E-06
             911            1744     38.4674E-06     37.3373E-06
             912             186     58.1283E-06     54.9742E-06
             912             187     33.5291E-06     30.7950E-06
             912            1729     56.8397E-06     56.9526E-06
             912            1744     38.4674E-06     37.3373E-06
             913             204     63.8424E-06     69.1411E-06
             913             205     65.7760E-06     61.7440E-06
             913            1730     64.8118E-06     63.0202E-06
             913            1745     64.3809E-06     68.2721E-06
             914            1730     64.8118E-06     63.0202E-06
             914            1731     63.9169E-06     64.2851E-06
             914            1745     64.3809E-06     68.2721E-06
             914            1746     65.8052E-06     66.6963E-06
             915            1731     63.9169E-06     64.2851E-06
             915            1732     64.6724E-06     64.2282E-06
             915            1746     65.8052E-06     66.6963E-06
             915            1747     67.4233E-06     66.1080E-06
             916            1732     64.6724E-06     64.2282E-06
             916            1733     65.9329E-06     64.6489E-06
             916            1747     67.4233E-06     66.1080E-06
             916            1748     68.6747E-06     66.4265E-06
             917            1733     65.9329E-06     64.6489E-06
             917            1734     67.1585E-06     65.5746E-06
             917            1748     68.6747E-06     66.4265E-06
             917            1749     69.9154E-06     66.9912E-06
             918            1734     67.1585E-06     65.5746E-06
             918            1735     68.6406E-06     66.6753E-06
             918            1749     69.9154E-06     66.9912E-06
             918            1750     71.2408E-06     67.7859E-06
             919            1735     68.6406E-06     66.6753E-06
             919            1736     70.3227E-06     68.0657E-06
             919            1750     71.2408E-06     67.7859E-06
             919            1751     72.6041E-06     68.6267E-06
             920            1736     70.3227E-06     68.0657E-06
             920            1737     72.1858E-06     69.6308E-06
             920            1751     72.6041E-06     68.6267E-06
             920            1752     73.9673E-06     69.4801E-06
             921            1737     72.1858E-06     69.6308E-06
             921            1738     74.2175E-06     71.3744E-06
             921            1752     73.9673E-06     69.4801E-06
             921            1753     75.1119E-06     70.1249E-06
             922            1738     74.2175E-06     71.3744E-06
             922            1739     76.1204E-06     72.9929E-06
             922            1753     75.1119E-06     70.1249E-06
             922            1754     75.8132E-06     70.2498E-06
             923            1739     76.1204E-06     72.9929E-06
             923            1740     77.6486E-06     74.2092E-06
             923            1754     75.8132E-06     70.2498E-06
             923            1755     75.3261E-06     69.2162E-06
             924            1740     77.6486E-06     74.2092E-06
             924            1741     76.9513E-06     73.5071E-06
             924            1755     75.3261E-06     69.2162E-06
             924            1756     72.6520E-06     65.8434E-06
             925            1741     76.9513E-06     73.5071E-06
             925            1742     72.1696E-06     68.8501E-06
             925            1756     72.6520E-06     65.8434E-06
             925            1757     65.7181E-06     58.0142E-06
             926            1742     72.1696E-06     68.8501E-06
             926            1743     56.0679E-06     54.6502E-06
             926            1757     65.7181E-06     58.0142E-06
             926            1758     50.9695E-06     42.8093E-06
             927            1743     56.0679E-06     54.6502E-06
             927            1744     38.4674E-06     37.3373E-06
             927            1758     50.9695E-06     42.8093E-06
             927            1759     32.4301E-06     33.5845E-06
             928             187     33.5291E-06     30.7950E-06
             928             188     23.7323E-06     34.1518E-06
             928            1744     38.4674E-06     37.3373E-06
             928            1759     32.4301E-06     33.5845E-06
             929               7     60.4767E-06     70.6691E-06
             929             203     63.7278E-06     69.6545E-06
             929             204     63.8424E-06     69.1411E-06
             929            1745     64.3809E-06     68.2721E-06
             930             202     67.5147E-06     67.4662E-06
             930             203     63.7278E-06     69.6545E-06
             930            1745     64.3809E-06     68.2721E-06
             930            1746     65.8052E-06     66.6963E-06
             931             201     68.8577E-06     66.9070E-06
             931             202     67.5147E-06     67.4662E-06
             931            1746     65.8052E-06     66.6963E-06
             931            1747     67.4233E-06     66.1080E-06
             932             200     70.1335E-06     67.3901E-06
             932             201     68.8577E-06     66.9070E-06
             932            1747     67.4233E-06     66.1080E-06
             932            1748     68.6747E-06     66.4265E-06
             933             199     71.3006E-06     67.7574E-06
             933             200     70.1335E-06     67.3901E-06
             933            1748     68.6747E-06     66.4265E-06
             933            1749     69.9154E-06     66.9912E-06
             934             198     72.5747E-06     68.3948E-06
             934             199     71.3006E-06     67.7574E-06
             934            1749     69.9154E-06     66.9912E-06
             934            1750     71.2408E-06     67.7859E-06
             935             197     73.7770E-06     68.9971E-06
             935             198     72.5747E-06     68.3948E-06
             935            1750     71.2408E-06     67.7859E-06
             935            1751     72.6041E-06     68.6267E-06
             936             196     74.8613E-06     69.4486E-06
             936             197     73.7770E-06     68.9971E-06
             936            1751     72.6041E-06     68.6267E-06
             936            1752     73.9673E-06     69.4801E-06
             937             195     75.5577E-06     69.5457E-06
             937             196     74.8613E-06     69.4486E-06
             937            1752     73.9673E-06     69.4801E-06
             937            1753     75.1119E-06     70.1249E-06
             938             194     75.5401E-06     68.8659E-06
             938             195     75.5577E-06     69.5457E-06
             938            1753     75.1119E-06     70.1249E-06
             938            1754     75.8132E-06     70.2498E-06
             939             193     73.8745E-06     66.4686E-06
             939             194     75.5401E-06     68.8659E-06
             939            1754     75.8132E-06     70.2498E-06
             939            1755     75.3261E-06     69.2162E-06
             940             192     70.2288E-06     61.8097E-06
             940             193     73.8745E-06     66.4686E-06
             940            1755     75.3261E-06     69.2162E-06
             940            1756     72.6520E-06     65.8434E-06
             941             191     61.1915E-06     51.6043E-06
             941             192     70.2288E-06     61.8097E-06
             941            1756     72.6520E-06     65.8434E-06
             941            1757     65.7181E-06     58.0142E-06
             942             190     47.7901E-06     36.2001E-06
             942             191     61.1915E-06     51.6043E-06
             942            1757     65.7181E-06     58.0142E-06
             942            1758     50.9695E-06     42.8093E-06
             943             189     33.3507E-06     37.8175E-06
             943             190     47.7901E-06     36.2001E-06
             943            1758     50.9695E-06     42.8093E-06
             943            1759     32.4301E-06     33.5845E-06
             944               6     25.5116E-06     47.6845E-06
             944             188     23.7323E-06     34.1518E-06
             944             189     33.3507E-06     37.8175E-06
             944            1759     32.4301E-06     33.5845E-06
            1873               5     7.52702E-03     18.2740E-03
            1873             182     16.5701E-03     19.0974E-03
            1873             243     13.7585E-03     29.1640E-03
            1873            2506     32.7530E-03     37.6993E-03
            1874             181     26.7890E-03     22.0649E-03
            1874             182     16.5701E-03     19.0974E-03
            1874            2506     32.7530E-03     37.6993E-03
            1874            2507     56.7669E-03     50.6899E-03
            1875             180     30.2825E-03     26.1058E-03
            1875             181     26.7890E-03     22.0649E-03
            1875            2507     56.7669E-03     50.6899E-03
            1875            2508     61.9454E-03     55.9037E-03
            1876             179     31.6077E-03     27.3874E-03
            1876             180     30.2825E-03     26.1058E-03
            1876            2508     61.9454E-03     55.9037E-03
            1876            2509     61.3339E-03     56.0514E-03
            1877             178     30.8857E-03     27.2051E-03
            1877             179     31.6077E-03     27.3874E-03
            1877            2509     61.3339E-03     56.0514E-03
            1877            2510     60.1788E-03     55.2529E-03
            1878             177     30.6364E-03     27.2397E-03
            1878             178     30.8857E-03     27.2051E-03
            1878            2510     60.1788E-03     55.2529E-03
            1878            2511     59.2020E-03     54.7029E-03
            1879             176     30.0522E-03     26.9447E-03
            1879             177     30.6364E-03     27.2397E-03
            1879            2511     59.2020E-03     54.7029E-03
            1879            2512     58.2379E-03     54.1357E-03
            1880             175     29.6548E-03     26.8608E-03
            1880             176     30.0522E-03     26.9447E-03
            1880            2512     58.2379E-03     54.1357E-03
            1880            2513     57.3823E-03     53.6807E-03
            1881             174     29.1614E-03     26.6852E-03
            1881             175     29.6548E-03     26.8608E-03
            1881            2513     57.3823E-03     53.6807E-03
            1881            2514     56.5297E-03     53.2564E-03
            1882             173     28.7567E-03     26.6082E-03
            1882             174     29.1614E-03     26.6852E-03
            1882            2514     56.5297E-03     53.2564E-03
            1882            2515     55.7598E-03     52.9202E-03
            1883             172     28.3489E-03     26.5218E-03
            1883             173     28.7567E-03     26.6082E-03
            1883            2515     55.7598E-03     52.9202E-03
            1883            2516     55.0454E-03     52.6500E-03
            1884             171     27.9479E-03     26.5632E-03
            1884             172     28.3489E-03     26.5218E-03
            1884            2516     55.0454E-03     52.6500E-03
            1884            2517     54.4161E-03     52.4922E-03
            1885             170     27.6993E-03     26.4715E-03
            1885             171     27.9479E-03     26.5632E-03
            1885            2517     54.4161E-03     52.4922E-03
            1885            2518     53.8664E-03     52.4355E-03
            1886             169     27.3310E-03     26.4918E-03
            1886             170     27.6993E-03     26.4715E-03
            1886            2518     53.8664E-03     52.4355E-03
            1886            2519     53.4266E-03     52.5577E-03
            1887             168     25.8582E-03     27.4590E-03
            1887             169     27.3310E-03     26.4918E-03
            1887            2519     53.4266E-03     52.5577E-03
            1887            2520     53.0756E-03     52.8270E-03
            1888               1     24.7428E-03     28.2753E-03
            1888             167     52.9306E-03     52.9671E-03
            1888             168     25.8582E-03     27.4590E-03
            1888            2520     53.0756E-03     52.8270E-03
            1889             243     13.7585E-03     29.1640E-03
            1889             244     36.7736E-03     35.3950E-03
            1889            2506     32.7530E-03     37.6993E-03
            1889            2521     46.2479E-03     47.2400E-03
            1890            2506     32.7530E-03     37.6993E-03
            1890            2507     56.7669E-03     50.6899E-03
            1890            2521     46.2479E-03     47.2400E-03
            1890            2522     59.9232E-03     60.7254E-03
            1891            2507     56.7669E-03     50.6899E-03
            1891            2508     61.9454E-03     55.9037E-03
            1891            2522     59.9232E-03     60.7254E-03
            1891            2523     61.2599E-03     60.7796E-03
            1892            2508     61.9454E-03     55.9037E-03
            1892            2509     61.3339E-03     56.0514E-03
            1892            2523     61.2599E-03     60.7796E-03
            1892            2524     58.1322E-03     58.5929E-03
            1893            2509     61.3339E-03     56.0514E-03
            1893            2510     60.1788E-03     55.2529E-03
            1893            2524     58.1322E-03     58.5929E-03
            1893            2525     56.8589E-03     57.0464E-03
            1894            2510     60.1788E-03     55.2529E-03
            1894            2511     59.2020E-03     54.7029E-03
            1894            2525     56.8589E-03     57.0464E-03
            1894            2526     55.5788E-03     55.8119E-03
            1895            2511     59.2020E-03     54.7029E-03
            1895            2512     58.2379E-03     54.1357E-03
            1895            2526     55.5788E-03     55.8119E-03
            1895            2527     54.7605E-03     54.9870E-03
            1896            2512     58.2379E-03     54.1357E-03
            1896            2513     57.3823E-03     53.6807E-03
            1896            2527     54.7605E-03     54.9870E-03
            1896            2528     53.9297E-03     54.1443E-03
            1897            2513     57.3823E-03     53.6807E-03
            1897            2514     56.5297E-03     53.2564E-03
            1897            2528     53.9297E-03     54.1443E-03
            1897            2529     53.2703E-03     53.4559E-03
            1898            2514     56.5297E-03     53.2564E-03
            1898            2515     55.7598E-03     52.9202E-03
            1898            2529     53.2703E-03     53.4559E-03
            1898            2530     52.6382E-03     52.8174E-03
            1899            2515     55.7598E-03     52.9202E-03
            1899            2516     55.0454E-03     52.6500E-03
            1899            2530     52.6382E-03     52.8174E-03
            1899            2531     52.1163E-03     52.3078E-03
            1900            2516     55.0454E-03     52.6500E-03
            1900            2517     54.4161E-03     52.4922E-03
            1900            2531     52.1163E-03     52.3078E-03
            1900            2532     51.7906E-03     51.7609E-03
            1901            2517     54.4161E-03     52.4922E-03
            1901            2518     53.8664E-03     52.4355E-03
            1901            2532     51.7906E-03     51.7609E-03
            1901            2533     51.3116E-03     51.7008E-03
            1902            2518     53.8664E-03     52.4355E-03
            1902            2519     53.4266E-03     52.5577E-03
            1902            2533     51.3116E-03     51.7008E-03
            1902            2534     51.3113E-03     51.8080E-03
            1903            2519     53.4266E-03     52.5577E-03
            1903            2520     53.0756E-03     52.8270E-03
            1903            2534     51.3113E-03     51.8080E-03
            1903            2535     53.7147E-03     49.9231E-03
            1904             166     55.6985E-03     48.1646E-03
            1904             167     52.9306E-03     52.9671E-03
            1904            2520     53.0756E-03     52.8270E-03
            1904            2535     53.7147E-03     49.9231E-03
            1905             244     36.7736E-03     35.3950E-03
            1905             245     72.0095E-03     77.6417E-03
            1905            2521     46.2479E-03     47.2400E-03
            1905            2536     64.2968E-03     71.3362E-03
            1906            2521     46.2479E-03     47.2400E-03
            1906            2522     59.9232E-03     60.7254E-03
            1906            2536     64.2968E-03     71.3362E-03
            1906            2537     55.7158E-03     63.3298E-03
            1907            2522     59.9232E-03     60.7254E-03
            1907            2523     61.2599E-03     60.7796E-03
            1907            2537     55.7158E-03     63.3298E-03
            1907            2538     55.5713E-03     61.7428E-03
            1908            2523     61.2599E-03     60.7796E-03
            1908            2524     58.1322E-03     58.5929E-03
            1908            2538     55.5713E-03     61.7428E-03
            1908            2539     54.9349E-03     60.5716E-03
            1909            2524     58.1322E-03     58.5929E-03
            1909            2525     56.8589E-03     57.0464E-03
            1909            2539     54.9349E-03     60.5716E-03
            1909            2540     53.3824E-03     58.8754E-03
            1910            2525     56.8589E-03     57.0464E-03
            1910            2526     55.5788E-03     55.8119E-03
            1910            2540     53.3824E-03     58.8754E-03
            1910            2541     52.5282E-03     57.6175E-03
            1911            2526     55.5788E-03     55.8119E-03
            1911            2527     54.7605E-03     54.9870E-03
            1911            2541     52.5282E-03     57.6175E-03
            1911            2542     51.6247E-03     56.3316E-03
            1912            2527     54.7605E-03     54.9870E-03
            1912            2528     53.9297E-03     54.1443E-03
            1912            2542     51.6247E-03     56.3316E-03
            1912            2543     51.0255E-03     55.2925E-03
            1913            2528     53.9297E-03     54.1443E-03
            1913            2529     53.2703E-03     53.4559E-03
            1913            2543     51.0255E-03     55.2925E-03
            1913            2544     50.4778E-03     54.2763E-03
            1914            2529     53.2703E-03     53.4559E-03
            1914            2530     52.6382E-03     52.8174E-03
            1914            2544     50.4778E-03     54.2763E-03
            1914            2545     50.0926E-03     53.4040E-03
            1915            2530     52.6382E-03     52.8174E-03
            1915            2531     52.1163E-03     52.3078E-03
            1915            2545     50.0926E-03     53.4040E-03
            1915            2546     49.7927E-03     52.6007E-03
            1916            2531     52.1163E-03     52.3078E-03
            1916            2532     51.7906E-03     51.7609E-03
            1916            2546     49.7927E-03     52.6007E-03
            1916            2547     49.6280E-03     51.9056E-03
            1917            2532     51.7906E-03     51.7609E-03
            1917            2533     51.3116E-03     51.7008E-03
            1917            2547     49.6280E-03     51.9056E-03
            1917            2548     49.5985E-03     51.3342E-03
            1918            2533     51.3116E-03     51.7008E-03
            1918            2534     51.3113E-03     51.8080E-03
            1918            2548     49.5985E-03     51.3342E-03
            1918            2549     49.7162E-03     50.8753E-03
            1919            2534     51.3113E-03     51.8080E-03
            1919            2535     53.7147E-03     49.9231E-03
            1919            2549     49.7162E-03     50.8753E-03
            1919            2550     50.0195E-03     50.2089E-03
            1920             165     50.2358E-03     49.7782E-03
            1920             166     55.6985E-03     48.1646E-03
            1920            2535     53.7147E-03     49.9231E-03
            1920            2550     50.0195E-03     50.2089E-03
            1921             245     72.0095E-03     77.6417E-03
            1921             246     67.8356E-03     73.1218E-03
            1921            2536     64.2968E-03     71.3362E-03
            1921            2551     69.9912E-03     70.7493E-03
            1922            2536     64.2968E-03     71.3362E-03
            1922            2537     55.7158E-03     63.3298E-03
            1922            2551     69.9912E-03     70.7493E-03
            1922            2552     73.9028E-03     71.2805E-03
            1923            2537     55.7158E-03     63.3298E-03
            1923            2538     55.5713E-03     61.7428E-03
            1923            2552     73.9028E-03     71.2805E-03
            1923            2553     79.2833E-03     77.4092E-03
            1924            2538     55.5713E-03     61.7428E-03
            1924            2539     54.9349E-03     60.5716E-03
            1924            2553     79.2833E-03     77.4092E-03
            1924            2554     82.4957E-03     81.0576E-03
            1925            2539     54.9349E-03     60.5716E-03
            1925            2540     53.3824E-03     58.8754E-03
            1925            2554     82.4957E-03     81.0576E-03
            1925            2555     82.4720E-03     81.8727E-03
            1926            2540     53.3824E-03     58.8754E-03
            1926            2541     52.5282E-03     57.6175E-03
            1926            2555     82.4720E-03     81.8727E-03
            1926            2556     81.7763E-03     81.4931E-03
            1927            2541     52.5282E-03     57.6175E-03
            1927            2542     51.6247E-03     56.3316E-03
            1927            2556     81.7763E-03     81.4931E-03
            1927            2557     80.0963E-03     80.0867E-03
            1928            2542     51.6247E-03     56.3316E-03
            1928            2543     51.0255E-03     55.2925E-03
            1928            2557     80.0963E-03     80.0867E-03
            1928            2558     78.2018E-03     78.2496E-03
            1929            2543     51.0255E-03     55.2925E-03
            1929            2544     50.4778E-03     54.2763E-03
            1929            2558     78.2018E-03     78.2496E-03
            1929            2559     75.9778E-03     76.0732E-03
            1930            2544     50.4778E-03     54.2763E-03
            1930            2545     50.0926E-03     53.4040E-03
            1930            2559     75.9778E-03     76.0732E-03
            1930            2560     73.8093E-03     73.8719E-03
            1931            2545     50.0926E-03     53.4040E-03
            1931            2546     49.7927E-03     52.6007E-03
            1931            2560     73.8093E-03     73.8719E-03
            1931            2561     71.6694E-03     71.6660E-03
            1932            2546     49.7927E-03     52.6007E-03
            1932            2547     49.6280E-03     51.9056E-03
            1932            2561     71.6694E-03     71.6660E-03
            1932            2562     69.7105E-03     69.8527E-03
            1933            2547     49.6280E-03     51.9056E-03
            1933            2548     49.5985E-03     51.3342E-03
            1933            2562     69.7105E-03     69.8527E-03
            1933            2563     68.0802E-03     68.0714E-03
            1934            2548     49.5985E-03     51.3342E-03
            1934            2549     49.7162E-03     50.8753E-03
            1934            2563     68.0802E-03     68.0714E-03
            1934            2564     66.5786E-03     67.1130E-03
            1935            2549     49.7162E-03     50.8753E-03
            1935            2550     50.0195E-03     50.2089E-03
            1935            2564     66.5786E-03     67.1130E-03
            1935            2565     62.6388E-03     68.6199E-03
            1936             164     59.6325E-03     70.1381E-03
            1936             165     50.2358E-03     49.7782E-03
            1936            2550     50.0195E-03     50.2089E-03
            1936            2565     62.6388E-03     68.6199E-03
            1937             246     67.8356E-03     73.1218E-03
            1937             247     65.3605E-03     59.9080E-03
            1937            2551     69.9912E-03     70.7493E-03
            1937            2566     78.0985E-03     70.2448E-03
            1938            2551     69.9912E-03     70.7493E-03
            1938            2552     73.9028E-03     71.2805E-03
            1938            2566     78.0985E-03     70.2448E-03
            1938            2567     99.5584E-03     89.1813E-03
            1939            2552     73.9028E-03     71.2805E-03
            1939            2553     79.2833E-03     77.4092E-03
            1939            2567     99.5584E-03     89.1813E-03
            1939            2568     111.595E-03     101.721E-03
            1940            2553     79.2833E-03     77.4092E-03
            1940            2554     82.4957E-03     81.0576E-03
            1940            2568     111.595E-03     101.721E-03
            1940            2569     116.060E-03     107.198E-03
            1941            2554     82.4957E-03     81.0576E-03
            1941            2555     82.4720E-03     81.8727E-03
            1941            2569     116.060E-03     107.198E-03
            1941            2570     116.600E-03     108.761E-03
            1942            2555     82.4720E-03     81.8727E-03
            1942            2556     81.7763E-03     81.4931E-03
            1942            2570     116.600E-03     108.761E-03
            1942            2571     114.632E-03     107.711E-03
            1943            2556     81.7763E-03     81.4931E-03
            1943            2557     80.0963E-03     80.0867E-03
            1943            2571     114.632E-03     107.711E-03
            1943            2572     111.199E-03     105.031E-03
            1944            2557     80.0963E-03     80.0867E-03
            1944            2558     78.2018E-03     78.2496E-03
            1944            2572     111.199E-03     105.031E-03
            1944            2573     106.880E-03     101.419E-03
            1945            2558     78.2018E-03     78.2496E-03
            1945            2559     75.9778E-03     76.0732E-03
            1945            2573     106.880E-03     101.419E-03
            1945            2574     102.171E-03     97.3204E-03
            1946            2559     75.9778E-03     76.0732E-03
            1946            2560     73.8093E-03     73.8719E-03
            1946            2574     102.171E-03     97.3204E-03
            1946            2575     97.3733E-03     93.1527E-03
            1947            2560     73.8093E-03     73.8719E-03
            1947            2561     71.6694E-03     71.6660E-03
            1947            2575     97.3733E-03     93.1527E-03
            1947            2576     92.7189E-03     89.1945E-03
            1948            2561     71.6694E-03     71.6660E-03
            1948            2562     69.7105E-03     69.8527E-03
            1948            2576     92.7189E-03     89.1945E-03
            1948            2577     88.4036E-03     85.7979E-03
            1949            2562     69.7105E-03     69.8527E-03
            1949            2563     68.0802E-03     68.0714E-03
            1949            2577     88.4036E-03     85.7979E-03
            1949            2578     84.4369E-03     83.1659E-03
            1950            2563     68.0802E-03     68.0714E-03
            1950            2564     66.5786E-03     67.1130E-03
            1950            2578     84.4369E-03     83.1659E-03
            1950            2579     80.4766E-03     82.3903E-03
            1951            2564     66.5786E-03     67.1130E-03
            1951            2565     62.6388E-03     68.6199E-03
            1951            2579     80.4766E-03     82.3903E-03
            1951            2580     77.3202E-03     83.5750E-03
            1952             163     76.1487E-03     84.4202E-03
            1952             164     59.6325E-03     70.1381E-03
            1952            2565     62.6388E-03     68.6199E-03
            1952            2580     77.3202E-03     83.5750E-03
            1953             247     65.3605E-03     59.9080E-03
            1953             248     95.0968E-03     93.4072E-03
            1953            2566     78.0985E-03     70.2448E-03
            1953            2581     96.8566E-03     96.4452E-03
            1954            2566     78.0985E-03     70.2448E-03
            1954            2567     99.5584E-03     89.1813E-03
            1954            2581     96.8566E-03     96.4452E-03
            1954            2582     107.878E-03     106.871E-03
            1955            2567     99.5584E-03     89.1813E-03
            1955            2568     111.595E-03     101.721E-03
            1955            2582     107.878E-03     106.871E-03
            1955            2583     120.192E-03     116.631E-03
            1956            2568     111.595E-03     101.721E-03
            1956            2569     116.060E-03     107.198E-03
            1956            2583     120.192E-03     116.631E-03
            1956            2584     123.590E-03     119.229E-03
            1957            2569     116.060E-03     107.198E-03
            1957            2570     116.600E-03     108.761E-03
            1957            2584     123.590E-03     119.229E-03
            1957            2585     122.549E-03     117.960E-03
            1958            2570     116.600E-03     108.761E-03
            1958            2571     114.632E-03     107.711E-03
            1958            2585     122.549E-03     117.960E-03
            1958            2586     118.682E-03     114.211E-03
            1959            2571     114.632E-03     107.711E-03
            1959            2572     111.199E-03     105.031E-03
            1959            2586     118.682E-03     114.211E-03
            1959            2587     113.349E-03     109.187E-03
            1960            2572     111.199E-03     105.031E-03
            1960            2573     106.880E-03     101.419E-03
            1960            2587     113.349E-03     109.187E-03
            1960            2588     107.353E-03     103.508E-03
            1961            2573     106.880E-03     101.419E-03
            1961            2574     102.171E-03     97.3204E-03
            1961            2588     107.353E-03     103.508E-03
            1961            2589     101.133E-03     97.7113E-03
            1962            2574     102.171E-03     97.3204E-03
            1962            2575     97.3733E-03     93.1527E-03
            1962            2589     101.133E-03     97.7113E-03
            1962            2590     95.0781E-03     92.1064E-03
            1963            2575     97.3733E-03     93.1527E-03
            1963            2576     92.7189E-03     89.1945E-03
            1963            2590     95.0781E-03     92.1064E-03
            1963            2591     89.3321E-03     87.0417E-03
            1964            2576     92.7189E-03     89.1945E-03
            1964            2577     88.4036E-03     85.7979E-03
            1964            2591     89.3321E-03     87.0417E-03
            1964            2592     84.1153E-03     82.7265E-03
            1965            2577     88.4036E-03     85.7979E-03
            1965            2578     84.4369E-03     83.1659E-03
            1965            2592     84.1153E-03     82.7265E-03
            1965            2593     79.3204E-03     79.6886E-03
            1966            2578     84.4369E-03     83.1659E-03
            1966            2579     80.4766E-03     82.3903E-03
            1966            2593     79.3204E-03     79.6886E-03
            1966            2594     75.5576E-03     78.1310E-03
            1967            2579     80.4766E-03     82.3903E-03
            1967            2580     77.3202E-03     83.5750E-03
            1967            2594     75.5576E-03     78.1310E-03
            1967            2595     74.7977E-03     75.9692E-03
            1968             162     75.4541E-03     74.2964E-03
            1968             163     76.1487E-03     84.4202E-03
            1968            2580     77.3202E-03     83.5750E-03
            1968            2595     74.7977E-03     75.9692E-03
            1969             248     95.0968E-03     93.4072E-03
            1969             249     122.439E-03     120.842E-03
            1969            2581     96.8566E-03     96.4452E-03
            1969            2596     119.919E-03     120.246E-03
            1970            2581     96.8566E-03     96.4452E-03
            1970            2582     107.878E-03     106.871E-03
            1970            2596     119.919E-03     120.246E-03
            1970            2597     120.886E-03     123.236E-03
            1971            2582     107.878E-03     106.871E-03
            1971            2583     120.192E-03     116.631E-03
            1971            2597     120.886E-03     123.236E-03
            1971            2598     127.219E-03     128.494E-03
            1972            2583     120.192E-03     116.631E-03
            1972            2584     123.590E-03     119.229E-03
            1972            2598     127.219E-03     128.494E-03
            1972            2599     129.562E-03     129.078E-03
            1973            2584     123.590E-03     119.229E-03
            1973            2585     122.549E-03     117.960E-03
            1973            2599     129.562E-03     129.078E-03
            1973            2600     126.891E-03     125.568E-03
            1974            2585     122.549E-03     117.960E-03
            1974            2586     118.682E-03     114.211E-03
            1974            2600     126.891E-03     125.568E-03
            1974            2601     121.602E-03     119.848E-03
            1975            2586     118.682E-03     114.211E-03
            1975            2587     113.349E-03     109.187E-03
            1975            2601     121.602E-03     119.848E-03
            1975            2602     114.839E-03     112.913E-03
            1976            2587     113.349E-03     109.187E-03
            1976            2588     107.353E-03     103.508E-03
            1976            2602     114.839E-03     112.913E-03
            1976            2603     107.467E-03     105.593E-03
            1977            2588     107.353E-03     103.508E-03
            1977            2589     101.133E-03     97.7113E-03
            1977            2603     107.467E-03     105.593E-03
            1977            2604     100.085E-03     98.3352E-03
            1978            2589     101.133E-03     97.7113E-03
            1978            2590     95.0781E-03     92.1064E-03
            1978            2604     100.085E-03     98.3352E-03
            1978            2605     92.9409E-03     91.4804E-03
            1979            2590     95.0781E-03     92.1064E-03
            1979            2591     89.3321E-03     87.0417E-03
            1979            2605     92.9409E-03     91.4804E-03
            1979            2606     86.3371E-03     85.2925E-03
            1980            2591     89.3321E-03     87.0417E-03
            1980            2592     84.1153E-03     82.7265E-03
            1980            2606     86.3371E-03     85.2925E-03
            1980            2607     80.3769E-03     80.0136E-03
            1981            2592     84.1153E-03     82.7265E-03
            1981            2593     79.3204E-03     79.6886E-03
            1981            2607     80.3769E-03     80.0136E-03
            1981            2608     75.3992E-03     75.9223E-03
            1982            2593     79.3204E-03     79.6886E-03
            1982            2594     75.5576E-03     78.1310E-03
            1982            2608     75.3992E-03     75.9223E-03
            1982            2609     72.3543E-03     72.2426E-03
            1983            2594     75.5576E-03     78.1310E-03
            1983            2595     74.7977E-03     75.9692E-03
            1983            2609     72.3543E-03     72.2426E-03
            1983            2610     70.7800E-03     68.8003E-03
            1984             161     70.1193E-03     67.3175E-03
            1984             162     75.4541E-03     74.2964E-03
            1984            2595     74.7977E-03     75.9692E-03
            1984            2610     70.7800E-03     68.8003E-03
            1985             249     122.439E-03     120.842E-03
            1985             250     146.299E-03     145.866E-03
            1985            2596     119.919E-03     120.246E-03
            1985            2611     141.508E-03     142.571E-03
            1986            2596     119.919E-03     120.246E-03
            1986            2597     120.886E-03     123.236E-03
            1986            2611     141.508E-03     142.571E-03
            1986            2612     136.220E-03     139.288E-03
            1987            2597     120.886E-03     123.236E-03
            1987            2598     127.219E-03     128.494E-03
            1987            2612     136.220E-03     139.288E-03
            1987            2613     135.718E-03     138.996E-03
            1988            2598     127.219E-03     128.494E-03
            1988            2599     129.562E-03     129.078E-03
            1988            2613     135.718E-03     138.996E-03
            1988            2614     134.188E-03     136.601E-03
            1989            2599     129.562E-03     129.078E-03
            1989            2600     126.891E-03     125.568E-03
            1989            2614     134.188E-03     136.601E-03
            1989            2615     129.712E-03     131.129E-03
            1990            2600     126.891E-03     125.568E-03
            1990            2601     121.602E-03     119.848E-03
            1990            2615     129.712E-03     131.129E-03
            1990            2616     122.933E-03     123.664E-03
            1991            2601     121.602E-03     119.848E-03
            1991            2602     114.839E-03     112.913E-03
            1991            2616     122.933E-03     123.664E-03
            1991            2617     114.970E-03     115.326E-03
            1992            2602     114.839E-03     112.913E-03
            1992            2603     107.467E-03     105.593E-03
            1992            2617     114.970E-03     115.326E-03
            1992            2618     106.665E-03     106.795E-03
            1993            2603     107.467E-03     105.593E-03
            1993            2604     100.085E-03     98.3352E-03
            1993            2618     106.665E-03     106.795E-03
            1993            2619     98.3979E-03     98.4559E-03
            1994            2604     100.085E-03     98.3352E-03
            1994            2605     92.9409E-03     91.4804E-03
            1994            2619     98.3979E-03     98.4559E-03
            1994            2620     90.5425E-03     90.6266E-03
            1995            2605     92.9409E-03     91.4804E-03
            1995            2606     86.3371E-03     85.2925E-03
            1995            2620     90.5425E-03     90.6266E-03
            1995            2621     83.3007E-03     83.4631E-03
            1996            2606     86.3371E-03     85.2925E-03
            1996            2607     80.3769E-03     80.0136E-03
            1996            2621     83.3007E-03     83.4631E-03
            1996            2622     76.9239E-03     77.2392E-03
            1997            2607     80.3769E-03     80.0136E-03
            1997            2608     75.3992E-03     75.9223E-03
            1997            2622     76.9239E-03     77.2392E-03
            1997            2623     71.9521E-03     71.7771E-03
            1998            2608     75.3992E-03     75.9223E-03
            1998            2609     72.3543E-03     72.2426E-03
            1998            2623     71.9521E-03     71.7771E-03
            1998            2624     68.4165E-03     67.1073E-03
            1999            2609     72.3543E-03     72.2426E-03
            1999            2610     70.7800E-03     68.8003E-03
            1999            2624     68.4165E-03     67.1073E-03
            1999            2625     66.4893E-03     64.1284E-03
            2000             160     66.0196E-03     63.1856E-03
            2000             161     70.1193E-03     67.3175E-03
            2000            2610     70.7800E-03     68.8003E-03
            2000            2625     66.4893E-03     64.1284E-03
            2001             250     146.299E-03     145.866E-03
            2001             251     168.427E-03     169.717E-03
            2001            2611     141.508E-03     142.571E-03
            2001            2626     161.907E-03     163.685E-03
            2002            2611     141.508E-03     142.571E-03
            2002            2612     136.220E-03     139.288E-03
            2002            2626     161.907E-03     163.685E-03
            2002            2627     151.629E-03     154.767E-03
            2003            2612     136.220E-03     139.288E-03
            2003            2613     135.718E-03     138.996E-03
            2003            2627     151.629E-03     154.767E-03
            2003            2628     144.721E-03     148.956E-03
            2004            2613     135.718E-03     138.996E-03
            2004            2614     134.188E-03     136.601E-03
            2004            2628     144.721E-03     148.956E-03
            2004            2629     138.383E-03     142.515E-03
            2005            2614     134.188E-03     136.601E-03
            2005            2615     129.712E-03     131.129E-03
            2005            2629     138.383E-03     142.515E-03
            2005            2630     131.061E-03     134.518E-03
            2006            2615     129.712E-03     131.129E-03
            2006            2616     122.933E-03     123.664E-03
            2006            2630     131.061E-03     134.518E-03
            2006            2631     122.529E-03     125.446E-03
            2007            2616     122.933E-03     123.664E-03
            2007            2617     114.970E-03     115.326E-03
            2007            2631     122.529E-03     125.446E-03
            2007            2632     113.638E-03     116.077E-03
            2008            2617     114.970E-03     115.326E-03
            2008            2618     106.665E-03     106.795E-03
            2008            2632     113.638E-03     116.077E-03
            2008            2633     104.616E-03     106.697E-03
            2009            2618     106.665E-03     106.795E-03
            2009            2619     98.3979E-03     98.4559E-03
            2009            2633     104.616E-03     106.697E-03
            2009            2634     95.8402E-03     97.6823E-03
            2010            2619     98.3979E-03     98.4559E-03
            2010            2620     90.5425E-03     90.6266E-03
            2010            2634     95.8402E-03     97.6823E-03
            2010            2635     87.5279E-03     89.1499E-03
            2011            2620     90.5425E-03     90.6266E-03
            2011            2621     83.3007E-03     83.4631E-03
            2011            2635     87.5279E-03     89.1499E-03
            2011            2636     79.9071E-03     81.3138E-03
            2012            2621     83.3007E-03     83.4631E-03
            2012            2622     76.9239E-03     77.2392E-03
            2012            2636     79.9071E-03     81.3138E-03
            2012            2637     73.3452E-03     74.1687E-03
            2013            2622     76.9239E-03     77.2392E-03
            2013            2623     71.9521E-03     71.7771E-03
            2013            2637     73.3452E-03     74.1687E-03
            2013            2638     67.9981E-03     67.8864E-03
            2014            2623     71.9521E-03     71.7771E-03
            2014            2624     68.4165E-03     67.1073E-03
            2014            2638     67.9981E-03     67.8864E-03
            2014            2639     64.2790E-03     62.8619E-03
            2015            2624     68.4165E-03     67.1073E-03
            2015            2625     66.4893E-03     64.1284E-03
            2015            2639     64.2790E-03     62.8619E-03
            2015            2640     62.2085E-03     59.0655E-03
            2016             159     61.5175E-03     57.4392E-03
            2016             160     66.0196E-03     63.1856E-03
            2016            2625     66.4893E-03     64.1284E-03
            2016            2640     62.2085E-03     59.0655E-03
            2017             251     168.427E-03     169.717E-03
            2017             252     191.952E-03     191.767E-03
            2017            2626     161.907E-03     163.685E-03
            2017            2641     182.577E-03     184.049E-03
            2018            2626     161.907E-03     163.685E-03
            2018            2627     151.629E-03     154.767E-03
            2018            2641     182.577E-03     184.049E-03
            2018            2642     166.004E-03     169.871E-03
            2019            2627     151.629E-03     154.767E-03
            2019            2628     144.721E-03     148.956E-03
            2019            2642     166.004E-03     169.871E-03
            2019            2643     153.119E-03     157.892E-03
            2020            2628     144.721E-03     148.956E-03
            2020            2629     138.383E-03     142.515E-03
            2020            2643     153.119E-03     157.892E-03
            2020            2644     141.538E-03     146.602E-03
            2021            2629     138.383E-03     142.515E-03
            2021            2630     131.061E-03     134.518E-03
            2021            2644     141.538E-03     146.602E-03
            2021            2645     130.570E-03     135.705E-03
            2022            2630     131.061E-03     134.518E-03
            2022            2631     122.529E-03     125.446E-03
            2022            2645     130.570E-03     135.705E-03
            2022            2646     120.600E-03     125.331E-03
            2023            2631     122.529E-03     125.446E-03
            2023            2632     113.638E-03     116.077E-03
            2023            2646     120.600E-03     125.331E-03
            2023            2647     110.824E-03     115.108E-03
            2024            2632     113.638E-03     116.077E-03
            2024            2633     104.616E-03     106.697E-03
            2024            2647     110.824E-03     115.108E-03
            2024            2648     101.378E-03     105.306E-03
            2025            2633     104.616E-03     106.697E-03
            2025            2634     95.8402E-03     97.6823E-03
            2025            2648     101.378E-03     105.306E-03
            2025            2649     92.3318E-03     95.8856E-03
            2026            2634     95.8402E-03     97.6823E-03
            2026            2635     87.5279E-03     89.1499E-03
            2026            2649     92.3318E-03     95.8856E-03
            2026            2650     83.7839E-03     86.9895E-03
            2027            2635     87.5279E-03     89.1499E-03
            2027            2636     79.9071E-03     81.3138E-03
            2027            2650     83.7839E-03     86.9895E-03
            2027            2651     75.9758E-03     78.6751E-03
            2028            2636     79.9071E-03     81.3138E-03
            2028            2637     73.3452E-03     74.1687E-03
            2028            2651     75.9758E-03     78.6751E-03
            2028            2652     69.1313E-03     71.0368E-03
            2029            2637     73.3452E-03     74.1687E-03
            2029            2638     67.9981E-03     67.8864E-03
            2029            2652     69.1313E-03     71.0368E-03
            2029            2653     63.6804E-03     64.2044E-03
            2030            2638     67.9981E-03     67.8864E-03
            2030            2639     64.2790E-03     62.8619E-03
            2030            2653     63.6804E-03     64.2044E-03
            2030            2654     59.6954E-03     58.4905E-03
            2031            2639     64.2790E-03     62.8619E-03
            2031            2640     62.2085E-03     59.0655E-03
            2031            2654     59.6954E-03     58.4905E-03
            2031            2655     57.3815E-03     54.7057E-03
            2032             158     56.7035E-03     53.4284E-03
            2032             159     61.5175E-03     57.4392E-03
            2032            2640     62.2085E-03     59.0655E-03
            2032            2655     57.3815E-03     54.7057E-03
            2033             252     191.952E-03     191.767E-03
            2033             253     213.735E-03     218.060E-03
            2033            2641     182.577E-03     184.049E-03
            2033            2656     202.188E-03     205.791E-03
            2034            2641     182.577E-03     184.049E-03
            2034            2642     166.004E-03     169.871E-03
            2034            2656     202.188E-03     205.791E-03
            2034            2657     179.978E-03     183.523E-03
            2035            2642     166.004E-03     169.871E-03
            2035            2643     153.119E-03     157.892E-03
            2035            2657     179.978E-03     183.523E-03
            2035            2658     159.039E-03     164.121E-03
            2036            2643     153.119E-03     157.892E-03
            2036            2644     141.538E-03     146.602E-03
            2036            2658     159.039E-03     164.121E-03
            2036            2659     141.581E-03     147.918E-03
            2037            2644     141.538E-03     146.602E-03
            2037            2645     130.570E-03     135.705E-03
            2037            2659     141.581E-03     147.918E-03
            2037            2660     128.512E-03     134.987E-03
            2038            2645     130.570E-03     135.705E-03
            2038            2646     120.600E-03     125.331E-03
            2038            2660     128.512E-03     134.987E-03
            2038            2661     117.152E-03     123.396E-03
            2039            2646     120.600E-03     125.331E-03
            2039            2647     110.824E-03     115.108E-03
            2039            2661     117.152E-03     123.396E-03
            2039            2662     106.822E-03     112.811E-03
            2040            2647     110.824E-03     115.108E-03
            2040            2648     101.378E-03     105.306E-03
            2040            2662     106.822E-03     112.811E-03
            2040            2663     97.1757E-03     102.787E-03
            2041            2648     101.378E-03     105.306E-03
            2041            2649     92.3318E-03     95.8856E-03
            2041            2663     97.1757E-03     102.787E-03
            2041            2664     87.9913E-03     93.2642E-03
            2042            2649     92.3318E-03     95.8856E-03
            2042            2650     83.7839E-03     86.9895E-03
            2042            2664     87.9913E-03     93.2642E-03
            2042            2665     79.3797E-03     84.2120E-03
            2043            2650     83.7839E-03     86.9895E-03
            2043            2651     75.9758E-03     78.6751E-03
            2043            2665     79.3797E-03     84.2120E-03
            2043            2666     71.4142E-03     75.6499E-03
            2044            2651     75.9758E-03     78.6751E-03
            2044            2652     69.1313E-03     71.0368E-03
            2044            2666     71.4142E-03     75.6499E-03
            2044            2667     64.3527E-03     67.7812E-03
            2045            2652     69.1313E-03     71.0368E-03
            2045            2653     63.6804E-03     64.2044E-03
            2045            2667     64.3527E-03     67.7812E-03
            2045            2668     58.5686E-03     60.6695E-03
            2046            2653     63.6804E-03     64.2044E-03
            2046            2654     59.6954E-03     58.4905E-03
            2046            2668     58.5686E-03     60.6695E-03
            2046            2669     54.6136E-03     54.4780E-03
            2047            2654     59.6954E-03     58.4905E-03
            2047            2655     57.3815E-03     54.7057E-03
            2047            2669     54.6136E-03     54.4780E-03
            2047            2670     52.3141E-03     49.9022E-03
            2048             157     51.4959E-03     48.1418E-03
            2048             158     56.7035E-03     53.4284E-03
            2048            2655     57.3815E-03     54.7057E-03
            2048            2670     52.3141E-03     49.9022E-03
            2049             253     213.735E-03     218.060E-03
            2049             254     241.213E-03     239.672E-03
            2049            2656     202.188E-03     205.791E-03
            2049            2671     224.200E-03     224.662E-03
            2050            2656     202.188E-03     205.791E-03
            2050            2657     179.978E-03     183.523E-03
            2050            2671     224.200E-03     224.662E-03
            2050            2672     188.553E-03     192.854E-03
            2051            2657     179.978E-03     183.523E-03
            2051            2658     159.039E-03     164.121E-03
            2051            2672     188.553E-03     192.854E-03
            2051            2673     158.491E-03     165.353E-03
            2052            2658     159.039E-03     164.121E-03
            2052            2659     141.581E-03     147.918E-03
            2052            2673     158.491E-03     165.353E-03
            2052            2674     139.267E-03     146.788E-03
            2053            2659     141.581E-03     147.918E-03
            2053            2660     128.512E-03     134.987E-03
            2053            2674     139.267E-03     146.788E-03
            2053            2675     124.779E-03     132.383E-03
            2054            2660     128.512E-03     134.987E-03
            2054            2661     117.152E-03     123.396E-03
            2054            2675     124.779E-03     132.383E-03
            2054            2676     112.682E-03     120.333E-03
            2055            2661     117.152E-03     123.396E-03
            2055            2662     106.822E-03     112.811E-03
            2055            2676     112.682E-03     120.333E-03
            2055            2677     102.134E-03     109.616E-03
            2056            2662     106.822E-03     112.811E-03
            2056            2663     97.1757E-03     102.787E-03
            2056            2677     102.134E-03     109.616E-03
            2056            2678     92.3267E-03     99.6214E-03
            2057            2663     97.1757E-03     102.787E-03
            2057            2664     87.9913E-03     93.2642E-03
            2057            2678     92.3267E-03     99.6214E-03
            2057            2679     83.1524E-03     90.1444E-03
            2058            2664     87.9913E-03     93.2642E-03
            2058            2665     79.3797E-03     84.2120E-03
            2058            2679     83.1524E-03     90.1444E-03
            2058            2680     74.4561E-03     81.0411E-03
            2059            2665     79.3797E-03     84.2120E-03
            2059            2666     71.4142E-03     75.6499E-03
            2059            2680     74.4561E-03     81.0411E-03
            2059            2681     66.3798E-03     72.4165E-03
            2060            2666     71.4142E-03     75.6499E-03
            2060            2667     64.3527E-03     67.7812E-03
            2060            2681     66.3798E-03     72.4165E-03
            2060            2682     59.0987E-03     64.2957E-03
            2061            2667     64.3527E-03     67.7812E-03
            2061            2668     58.5686E-03     60.6695E-03
            2061            2682     59.0987E-03     64.2957E-03
            2061            2683     52.8511E-03     57.1459E-03
            2062            2668     58.5686E-03     60.6695E-03
            2062            2669     54.6136E-03     54.4780E-03
            2062            2683     52.8511E-03     57.1459E-03
            2062            2684     48.3308E-03     51.0355E-03
            2063            2669     54.6136E-03     54.4780E-03
            2063            2670     52.3141E-03     49.9022E-03
            2063            2684     48.3308E-03     51.0355E-03
            2063            2685     46.4259E-03     45.9297E-03
            2064             156     46.1823E-03     43.6897E-03
            2064             157     51.4959E-03     48.1418E-03
            2064            2670     52.3141E-03     49.9022E-03
            2064            2685     46.4259E-03     45.9297E-03
            2065             254     241.213E-03     239.672E-03
            2065             255     266.416E-03     271.247E-03
            2065            2671     224.200E-03     224.662E-03
            2065            2686     234.970E-03     242.016E-03
            2066            2671     224.200E-03     224.662E-03
            2066            2672     188.553E-03     192.854E-03
            2066            2686     234.970E-03     242.016E-03
            2066            2687     184.338E-03     193.096E-03
            2067            2672     188.553E-03     192.854E-03
            2067            2673     158.491E-03     165.353E-03
            2067            2687     184.338E-03     193.096E-03
            2067            2688     154.652E-03     162.949E-03
            2068            2673     158.491E-03     165.353E-03
            2068            2674     139.267E-03     146.788E-03
            2068            2688     154.652E-03     162.949E-03
            2068            2689     135.440E-03     143.781E-03
            2069            2674     139.267E-03     146.788E-03
            2069            2675     124.779E-03     132.383E-03
            2069            2689     135.440E-03     143.781E-03
            2069            2690     120.291E-03     128.893E-03
            2070            2675     124.779E-03     132.383E-03
            2070            2676     112.682E-03     120.333E-03
            2070            2690     120.291E-03     128.893E-03
            2070            2691     108.084E-03     116.939E-03
            2071            2676     112.682E-03     120.333E-03
            2071            2677     102.134E-03     109.616E-03
            2071            2691     108.084E-03     116.939E-03
            2071            2692     97.2473E-03     106.229E-03
            2072            2677     102.134E-03     109.616E-03
            2072            2678     92.3267E-03     99.6214E-03
            2072            2692     97.2473E-03     106.229E-03
            2072            2693     87.3865E-03     96.3877E-03
            2073            2678     92.3267E-03     99.6214E-03
            2073            2679     83.1524E-03     90.1444E-03
            2073            2693     87.3865E-03     96.3877E-03
            2073            2694     78.0841E-03     86.9286E-03
            2074            2679     83.1524E-03     90.1444E-03
            2074            2680     74.4561E-03     81.0411E-03
            2074            2694     78.0841E-03     86.9286E-03
            2074            2695     69.3042E-03     77.8395E-03
            2075            2680     74.4561E-03     81.0411E-03
            2075            2681     66.3798E-03     72.4165E-03
            2075            2695     69.3042E-03     77.8395E-03
            2075            2696     61.0526E-03     69.0570E-03
            2076            2681     66.3798E-03     72.4165E-03
            2076            2682     59.0987E-03     64.2957E-03
            2076            2696     61.0526E-03     69.0570E-03
            2076            2697     53.5087E-03     60.8000E-03
            2077            2682     59.0987E-03     64.2957E-03
            2077            2683     52.8511E-03     57.1459E-03
            2077            2697     53.5087E-03     60.8000E-03
            2077            2698     46.9562E-03     53.2451E-03
            2078            2683     52.8511E-03     57.1459E-03
            2078            2684     48.3308E-03     51.0355E-03
            2078            2698     46.9562E-03     53.2451E-03
            2078            2699     41.6452E-03     47.2192E-03
            2079            2684     48.3308E-03     51.0355E-03
            2079            2685     46.4259E-03     45.9297E-03
            2079            2699     41.6452E-03     47.2192E-03
            2079            2700     38.6571E-03     42.7929E-03
            2080             155     37.9905E-03     40.8489E-03
            2080             156     46.1823E-03     43.6897E-03
            2080            2685     46.4259E-03     45.9297E-03
            2080            2700     38.6571E-03     42.7929E-03
            2081             255     266.416E-03     271.247E-03
            2081             256     247.629E-03     252.238E-03
            2081            2686     234.970E-03     242.016E-03
            2081            2701     233.709E-03     234.090E-03
            2082            2686     234.970E-03     242.016E-03
            2082            2687     184.338E-03     193.096E-03
            2082            2701     233.709E-03     234.090E-03
            2082            2702     212.605E-03     208.332E-03
            2083            2687     184.338E-03     193.096E-03
            2083            2688     154.652E-03     162.949E-03
            2083            2702     212.605E-03     208.332E-03
            2083            2703     198.353E-03     194.681E-03
            2084            2688     154.652E-03     162.949E-03
            2084            2689     135.440E-03     143.781E-03
            2084            2703     198.353E-03     194.681E-03
            2084            2704     185.185E-03     183.005E-03
            2085            2689     135.440E-03     143.781E-03
            2085            2690     120.291E-03     128.893E-03
            2085            2704     185.185E-03     183.005E-03
            2085            2705     173.038E-03     172.187E-03
            2086            2690     120.291E-03     128.893E-03
            2086            2691     108.084E-03     116.939E-03
            2086            2705     173.038E-03     172.187E-03
            2086            2706     161.129E-03     161.564E-03
            2087            2691     108.084E-03     116.939E-03
            2087            2692     97.2473E-03     106.229E-03
            2087            2706     161.129E-03     161.564E-03
            2087            2707     149.403E-03     150.723E-03
            2088            2692     97.2473E-03     106.229E-03
            2088            2693     87.3865E-03     96.3877E-03
            2088            2707     149.403E-03     150.723E-03
            2088            2708     137.762E-03     139.789E-03
            2089            2693     87.3865E-03     96.3877E-03
            2089            2694     78.0841E-03     86.9286E-03
            2089            2708     137.762E-03     139.789E-03
            2089            2709     126.307E-03     128.717E-03
            2090            2694     78.0841E-03     86.9286E-03
            2090            2695     69.3042E-03     77.8395E-03
            2090            2709     126.307E-03     128.717E-03
            2090            2710     115.167E-03     117.810E-03
            2091            2695     69.3042E-03     77.8395E-03
            2091            2696     61.0526E-03     69.0570E-03
            2091            2710     115.167E-03     117.810E-03
            2091            2711     104.598E-03     107.199E-03
            2092            2696     61.0526E-03     69.0570E-03
            2092            2697     53.5087E-03     60.8000E-03
            2092            2711     104.598E-03     107.199E-03
            2092            2712     94.8761E-03     97.4088E-03
            2093            2697     53.5087E-03     60.8000E-03
            2093            2698     46.9562E-03     53.2451E-03
            2093            2712     94.8761E-03     97.4088E-03
            2093            2713     86.2897E-03     88.6106E-03
            2094            2698     46.9562E-03     53.2451E-03
            2094            2699     41.6452E-03     47.2192E-03
            2094            2713     86.2897E-03     88.6106E-03
            2094            2714     79.2944E-03     82.2182E-03
            2095            2699     41.6452E-03     47.2192E-03
            2095            2700     38.6571E-03     42.7929E-03
            2095            2714     79.2944E-03     82.2182E-03
            2095            2715     71.5395E-03     80.0222E-03
            2096             154     66.8087E-03     79.9672E-03
            2096             155     37.9905E-03     40.8489E-03
            2096            2700     38.6571E-03     42.7929E-03
            2096            2715     71.5395E-03     80.0222E-03
            2097             256     247.629E-03     252.238E-03
            2097             257     239.229E-03     228.253E-03
            2097            2701     233.709E-03     234.090E-03
            2097            2716     245.323E-03     234.771E-03
            2098            2701     233.709E-03     234.090E-03
            2098            2702     212.605E-03     208.332E-03
            2098            2716     245.323E-03     234.771E-03
            2098            2717     252.752E-03     242.108E-03
            2099            2702     212.605E-03     208.332E-03
            2099            2703     198.353E-03     194.681E-03
            2099            2717     252.752E-03     242.108E-03
            2099            2718     251.336E-03     240.655E-03
            2100            2703     198.353E-03     194.681E-03
            2100            2704     185.185E-03     183.005E-03
            2100            2718     251.336E-03     240.655E-03
            2100            2719     243.939E-03     234.447E-03
            2101            2704     185.185E-03     183.005E-03
            2101            2705     173.038E-03     172.187E-03
            2101            2719     243.939E-03     234.447E-03
            2101            2720     233.325E-03     225.126E-03
            2102            2705     173.038E-03     172.187E-03
            2102            2706     161.129E-03     161.564E-03
            2102            2720     233.325E-03     225.126E-03
            2102            2721     220.563E-03     213.632E-03
            2103            2706     161.129E-03     161.564E-03
            2103            2707     149.403E-03     150.723E-03
            2103            2721     220.563E-03     213.632E-03
            2103            2722     206.552E-03     200.716E-03
            2104            2707     149.403E-03     150.723E-03
            2104            2708     137.762E-03     139.789E-03
            2104            2722     206.552E-03     200.716E-03
            2104            2723     191.862E-03     186.889E-03
            2105            2708     137.762E-03     139.789E-03
            2105            2709     126.307E-03     128.717E-03
            2105            2723     191.862E-03     186.889E-03
            2105            2724     176.947E-03     172.718E-03
            2106            2709     126.307E-03     128.717E-03
            2106            2710     115.167E-03     117.810E-03
            2106            2724     176.947E-03     172.718E-03
            2106            2725     162.296E-03     158.620E-03
            2107            2710     115.167E-03     117.810E-03
            2107            2711     104.598E-03     107.199E-03
            2107            2725     162.296E-03     158.620E-03
            2107            2726     148.221E-03     145.135E-03
            2108            2711     104.598E-03     107.199E-03
            2108            2712     94.8761E-03     97.4088E-03
            2108            2726     148.221E-03     145.135E-03
            2108            2727     135.239E-03     132.876E-03
            2109            2712     94.8761E-03     97.4088E-03
            2109            2713     86.2897E-03     88.6106E-03
            2109            2727     135.239E-03     132.876E-03
            2109            2728     123.573E-03     122.547E-03
            2110            2713     86.2897E-03     88.6106E-03
            2110            2714     79.2944E-03     82.2182E-03
            2110            2728     123.573E-03     122.547E-03
            2110            2729     113.185E-03     116.071E-03
            2111            2714     79.2944E-03     82.2182E-03
            2111            2715     71.5395E-03     80.0222E-03
            2111            2729     113.185E-03     116.071E-03
            2111            2730     105.298E-03     114.617E-03
            2112             153     102.251E-03     115.032E-03
            2112             154     66.8087E-03     79.9672E-03
            2112            2715     71.5395E-03     80.0222E-03
            2112            2730     105.298E-03     114.617E-03
            2113             257     239.229E-03     228.253E-03
            2113             258     270.418E-03     269.332E-03
            2113            2716     245.323E-03     234.771E-03
            2113            2731     268.936E-03     269.487E-03
            2114            2716     245.323E-03     234.771E-03
            2114            2717     252.752E-03     242.108E-03
            2114            2731     268.936E-03     269.487E-03
            2114            2732     267.960E-03     268.883E-03
            2115            2717     252.752E-03     242.108E-03
            2115            2718     251.336E-03     240.655E-03
            2115            2732     267.960E-03     268.883E-03
            2115            2733     265.197E-03     263.878E-03
            2116            2718     251.336E-03     240.655E-03
            2116            2719     243.939E-03     234.447E-03
            2116            2733     265.197E-03     263.878E-03
            2116            2734     256.290E-03     253.513E-03
            2117            2719     243.939E-03     234.447E-03
            2117            2720     233.325E-03     225.126E-03
            2117            2734     256.290E-03     253.513E-03
            2117            2735     243.441E-03     240.187E-03
            2118            2720     233.325E-03     225.126E-03
            2118            2721     220.563E-03     213.632E-03
            2118            2735     243.441E-03     240.187E-03
            2118            2736     228.234E-03     224.933E-03
            2119            2721     220.563E-03     213.632E-03
            2119            2722     206.552E-03     200.716E-03
            2119            2736     228.234E-03     224.933E-03
            2119            2737     211.642E-03     208.520E-03
            2120            2722     206.552E-03     200.716E-03
            2120            2723     191.862E-03     186.889E-03
            2120            2737     211.642E-03     208.520E-03
            2120            2738     194.395E-03     191.582E-03
            2121            2723     191.862E-03     186.889E-03
            2121            2724     176.947E-03     172.718E-03
            2121            2738     194.395E-03     191.582E-03
            2121            2739     177.042E-03     174.560E-03
            2122            2724     176.947E-03     172.718E-03
            2122            2725     162.296E-03     158.620E-03
            2122            2739     177.042E-03     174.560E-03
            2122            2740     159.977E-03     157.920E-03
            2123            2725     162.296E-03     158.620E-03
            2123            2726     148.221E-03     145.135E-03
            2123            2740     159.977E-03     157.920E-03
            2123            2741     143.585E-03     142.166E-03
            2124            2726     148.221E-03     145.135E-03
            2124            2727     135.239E-03     132.876E-03
            2124            2741     143.585E-03     142.166E-03
            2124            2742     128.285E-03     127.887E-03
            2125            2727     135.239E-03     132.876E-03
            2125            2728     123.573E-03     122.547E-03
            2125            2742     128.285E-03     127.887E-03
            2125            2743     114.321E-03     116.133E-03
            2126            2728     123.573E-03     122.547E-03
            2126            2729     113.185E-03     116.071E-03
            2126            2743     114.321E-03     116.133E-03
            2126            2744     102.832E-03     108.128E-03
            2127            2729     113.185E-03     116.071E-03
            2127            2730     105.298E-03     114.617E-03
            2127            2744     102.832E-03     108.128E-03
            2127            2745     97.5288E-03     101.435E-03
            2128             152     97.0205E-03     97.7105E-03
            2128             153     102.251E-03     115.032E-03
            2128            2730     105.298E-03     114.617E-03
            2128            2745     97.5288E-03     101.435E-03
            2129             258     270.418E-03     269.332E-03
            2129             259     300.561E-03     300.274E-03
            2129            2731     268.936E-03     269.487E-03
            2129            2746     294.541E-03     296.908E-03
            2130            2731     268.936E-03     269.487E-03
            2130            2732     267.960E-03     268.883E-03
            2130            2746     294.541E-03     296.908E-03
            2130            2747     285.465E-03     290.547E-03
            2131            2732     267.960E-03     268.883E-03
            2131            2733     265.197E-03     263.878E-03
            2131            2747     285.465E-03     290.547E-03
            2131            2748     277.905E-03     282.151E-03
            2132            2733     265.197E-03     263.878E-03
            2132            2734     256.290E-03     253.513E-03
            2132            2748     277.905E-03     282.151E-03
            2132            2749     266.641E-03     269.250E-03
            2133            2734     256.290E-03     253.513E-03
            2133            2735     243.441E-03     240.187E-03
            2133            2749     266.641E-03     269.250E-03
            2133            2750     251.770E-03     253.000E-03
            2134            2735     243.441E-03     240.187E-03
            2134            2736     228.234E-03     224.933E-03
            2134            2750     251.770E-03     253.000E-03
            2134            2751     234.454E-03     234.855E-03
            2135            2736     228.234E-03     224.933E-03
            2135            2737     211.642E-03     208.520E-03
            2135            2751     234.454E-03     234.855E-03
            2135            2752     215.773E-03     215.726E-03
            2136            2737     211.642E-03     208.520E-03
            2136            2738     194.395E-03     191.582E-03
            2136            2752     215.773E-03     215.726E-03
            2136            2753     196.503E-03     196.233E-03
            2137            2738     194.395E-03     191.582E-03
            2137            2739     177.042E-03     174.560E-03
            2137            2753     196.503E-03     196.233E-03
            2137            2754     177.134E-03     176.881E-03
            2138            2739     177.042E-03     174.560E-03
            2138            2740     159.977E-03     157.920E-03
            2138            2754     177.134E-03     176.881E-03
            2138            2755     158.108E-03     158.071E-03
            2139            2740     159.977E-03     157.920E-03
            2139            2741     143.585E-03     142.166E-03
            2139            2755     158.108E-03     158.071E-03
            2139            2756     139.781E-03     140.261E-03
            2140            2741     143.585E-03     142.166E-03
            2140            2742     128.285E-03     127.887E-03
            2140            2756     139.781E-03     140.261E-03
            2140            2757     122.542E-03     123.990E-03
            2141            2742     128.285E-03     127.887E-03
            2141            2743     114.321E-03     116.133E-03
            2141            2757     122.542E-03     123.990E-03
            2141            2758     107.119E-03     110.187E-03
            2142            2743     114.321E-03     116.133E-03
            2142            2744     102.832E-03     108.128E-03
            2142            2758     107.119E-03     110.187E-03
            2142            2759     95.5790E-03     98.4010E-03
            2143            2744     102.832E-03     108.128E-03
            2143            2745     97.5288E-03     101.435E-03
            2143            2759     95.5790E-03     98.4010E-03
            2143            2760     88.5960E-03     88.7703E-03
            2144             151     86.0949E-03     84.7992E-03
            2144             152     97.0205E-03     97.7105E-03
            2144            2745     97.5288E-03     101.435E-03
            2144            2760     88.5960E-03     88.7703E-03
            2145             259     300.561E-03     300.274E-03
            2145             260     325.151E-03     325.937E-03
            2145            2746     294.541E-03     296.908E-03
            2145            2761     317.703E-03     320.252E-03
            2146            2746     294.541E-03     296.908E-03
            2146            2747     285.465E-03     290.547E-03
            2146            2761     317.703E-03     320.252E-03
            2146            2762     303.513E-03     309.169E-03
            2147            2747     285.465E-03     290.547E-03
            2147            2748     277.905E-03     282.151E-03
            2147            2762     303.513E-03     309.169E-03
            2147            2763     290.067E-03     296.855E-03
            2148            2748     277.905E-03     282.151E-03
            2148            2749     266.641E-03     269.250E-03
            2148            2763     290.067E-03     296.855E-03
            2148            2764     275.369E-03     281.244E-03
            2149            2749     266.641E-03     269.250E-03
            2149            2750     251.770E-03     253.000E-03
            2149            2764     275.369E-03     281.244E-03
            2149            2765     257.943E-03     262.638E-03
            2150            2750     251.770E-03     253.000E-03
            2150            2751     234.454E-03     234.855E-03
            2150            2765     257.943E-03     262.638E-03
            2150            2766     238.605E-03     242.238E-03
            2151            2751     234.454E-03     234.855E-03
            2151            2752     215.773E-03     215.726E-03
            2151            2766     238.605E-03     242.238E-03
            2151            2767     218.193E-03     221.003E-03
            2152            2752     215.773E-03     215.726E-03
            2152            2753     196.503E-03     196.233E-03
            2152            2767     218.193E-03     221.003E-03
            2152            2768     197.289E-03     199.606E-03
            2153            2753     196.503E-03     196.233E-03
            2153            2754     177.134E-03     176.881E-03
            2153            2768     197.289E-03     199.606E-03
            2153            2769     176.449E-03     178.485E-03
            2154            2754     177.134E-03     176.881E-03
            2154            2755     158.108E-03     158.071E-03
            2154            2769     176.449E-03     178.485E-03
            2154            2770     155.944E-03     157.988E-03
            2155            2755     158.108E-03     158.071E-03
            2155            2756     139.781E-03     140.261E-03
            2155            2770     155.944E-03     157.988E-03
            2155            2771     136.166E-03     138.445E-03
            2156            2756     139.781E-03     140.261E-03
            2156            2757     122.542E-03     123.990E-03
            2156            2771     136.166E-03     138.445E-03
            2156            2772     117.535E-03     120.381E-03
            2157            2757     122.542E-03     123.990E-03
            2157            2758     107.119E-03     110.187E-03
            2157            2772     117.535E-03     120.381E-03
            2157            2773     101.157E-03     104.019E-03
            2158            2758     107.119E-03     110.187E-03
            2158            2759     95.5790E-03     98.4010E-03
            2158            2773     101.157E-03     104.019E-03
            2158            2774     88.1202E-03     89.7928E-03
            2159            2759     95.5790E-03     98.4010E-03
            2159            2760     88.5960E-03     88.7703E-03
            2159            2774     88.1202E-03     89.7928E-03
            2159            2775     79.9864E-03     79.7902E-03
            2160             150     77.4303E-03     76.1991E-03
            2160             151     86.0949E-03     84.7992E-03
            2160            2760     88.5960E-03     88.7703E-03
            2160            2775     79.9864E-03     79.7902E-03
            2161             260     325.151E-03     325.937E-03
            2161             261     349.302E-03     350.037E-03
            2161            2761     317.703E-03     320.252E-03
            2161            2776     339.022E-03     341.981E-03
            2162            2761     317.703E-03     320.252E-03
            2162            2762     303.513E-03     309.169E-03
            2162            2776     339.022E-03     341.981E-03
            2162            2777     319.858E-03     325.972E-03
            2163            2762     303.513E-03     309.169E-03
            2163            2763     290.067E-03     296.855E-03
            2163            2777     319.858E-03     325.972E-03
            2163            2778     301.720E-03     309.167E-03
            2164            2763     290.067E-03     296.855E-03
            2164            2764     275.369E-03     281.244E-03
            2164            2778     301.720E-03     309.167E-03
            2164            2779     282.404E-03     290.156E-03
            2165            2764     275.369E-03     281.244E-03
            2165            2765     257.943E-03     262.638E-03
            2165            2779     282.404E-03     290.156E-03
            2165            2780     261.977E-03     269.036E-03
            2166            2765     257.943E-03     262.638E-03
            2166            2766     238.605E-03     242.238E-03
            2166            2780     261.977E-03     269.036E-03
            2166            2781     240.525E-03     246.605E-03
            2167            2766     238.605E-03     242.238E-03
            2167            2767     218.193E-03     221.003E-03
            2167            2781     240.525E-03     246.605E-03
            2167            2782     218.475E-03     223.755E-03
            2168            2767     218.193E-03     221.003E-03
            2168            2768     197.289E-03     199.606E-03
            2168            2782     218.475E-03     223.755E-03
            2168            2783     196.427E-03     201.022E-03
            2169            2768     197.289E-03     199.606E-03
            2169            2769     176.449E-03     178.485E-03
            2169            2783     196.427E-03     201.022E-03
            2169            2784     174.498E-03     178.669E-03
            2170            2769     176.449E-03     178.485E-03
            2170            2770     155.944E-03     157.988E-03
            2170            2784     174.498E-03     178.669E-03
            2170            2785     153.035E-03     156.963E-03
            2171            2770     155.944E-03     157.988E-03
            2171            2771     136.166E-03     138.445E-03
            2171            2785     153.035E-03     156.963E-03
            2171            2786     132.246E-03     136.134E-03
            2172            2771     136.166E-03     138.445E-03
            2172            2772     117.535E-03     120.381E-03
            2172            2786     132.246E-03     136.134E-03
            2172            2787     112.704E-03     116.442E-03
            2173            2772     117.535E-03     120.381E-03
            2173            2773     101.157E-03     104.019E-03
            2173            2787     112.704E-03     116.442E-03
            2173            2788     95.1328E-03     98.1987E-03
            2174            2773     101.157E-03     104.019E-03
            2174            2774     88.1202E-03     89.7928E-03
            2174            2788     95.1328E-03     98.1987E-03
            2174            2789     80.8562E-03     82.5692E-03
            2175            2774     88.1202E-03     89.7928E-03
            2175            2775     79.9864E-03     79.7902E-03
            2175            2789     80.8562E-03     82.5692E-03
            2175            2790     71.6442E-03     70.6974E-03
            2176             149     68.5116E-03     65.7817E-03
            2176             150     77.4303E-03     76.1991E-03
            2176            2775     79.9864E-03     79.7902E-03
            2176            2790     71.6442E-03     70.6974E-03
            2177             261     349.302E-03     350.037E-03
            2177             262     370.424E-03     373.765E-03
            2177            2776     339.022E-03     341.981E-03
            2177            2791     358.821E-03     362.708E-03
            2178            2776     339.022E-03     341.981E-03
            2178            2777     319.858E-03     325.972E-03
            2178            2791     358.821E-03     362.708E-03
            2178            2792     335.366E-03     341.262E-03
            2179            2777     319.858E-03     325.972E-03
            2179            2778     301.720E-03     309.167E-03
            2179            2792     335.366E-03     341.262E-03
            2179            2793     311.393E-03     319.518E-03
            2180            2778     301.720E-03     309.167E-03
            2180            2779     282.404E-03     290.156E-03
            2180            2793     311.393E-03     319.518E-03
            2180            2794     287.563E-03     296.316E-03
            2181            2779     282.404E-03     290.156E-03
            2181            2780     261.977E-03     269.036E-03
            2181            2794     287.563E-03     296.316E-03
            2181            2795     263.684E-03     272.150E-03
            2182            2780     261.977E-03     269.036E-03
            2182            2781     240.525E-03     246.605E-03
            2182            2795     263.684E-03     272.150E-03
            2182            2796     239.909E-03     247.844E-03
            2183            2781     240.525E-03     246.605E-03
            2183            2782     218.475E-03     223.755E-03
            2183            2796     239.909E-03     247.844E-03
            2183            2797     216.691E-03     223.848E-03
            2184            2782     218.475E-03     223.755E-03
            2184            2783     196.427E-03     201.022E-03
            2184            2797     216.691E-03     223.848E-03
            2184            2798     193.716E-03     200.222E-03
            2185            2783     196.427E-03     201.022E-03
            2185            2784     174.498E-03     178.669E-03
            2185            2798     193.716E-03     200.222E-03
            2185            2799     171.188E-03     177.178E-03
            2186            2784     174.498E-03     178.669E-03
            2186            2785     153.035E-03     156.963E-03
            2186            2799     171.188E-03     177.178E-03
            2186            2800     149.116E-03     154.721E-03
            2187            2785     153.035E-03     156.963E-03
            2187            2786     132.246E-03     136.134E-03
            2187            2800     149.116E-03     154.721E-03
            2187            2801     127.758E-03     133.011E-03
            2188            2786     132.246E-03     136.134E-03
            2188            2787     112.704E-03     116.442E-03
            2188            2801     127.758E-03     133.011E-03
            2188            2802     107.457E-03     112.156E-03
            2189            2787     112.704E-03     116.442E-03
            2189            2788     95.1328E-03     98.1987E-03
            2189            2802     107.457E-03     112.156E-03
            2189            2803     88.9324E-03     92.7135E-03
            2190            2788     95.1328E-03     98.1987E-03
            2190            2789     80.8562E-03     82.5692E-03
            2190            2803     88.9324E-03     92.7135E-03
            2190            2804     73.4816E-03     75.3712E-03
            2191            2789     80.8562E-03     82.5692E-03
            2191            2790     71.6442E-03     70.6974E-03
            2191            2804     73.4816E-03     75.3712E-03
            2191            2805     63.0410E-03     62.3667E-03
            2192             148     59.3782E-03     57.4365E-03
            2192             149     68.5116E-03     65.7817E-03
            2192            2790     71.6442E-03     70.6974E-03
            2192            2805     63.0410E-03     62.3667E-03
            2193             262     370.424E-03     373.765E-03
            2193             263     394.004E-03     394.454E-03
            2193            2791     358.821E-03     362.708E-03
            2193            2806     378.939E-03     382.126E-03
            2194            2791     358.821E-03     362.708E-03
            2194            2792     335.366E-03     341.262E-03
            2194            2806     378.939E-03     382.126E-03
            2194            2807     348.661E-03     355.648E-03
            2195            2792     335.366E-03     341.262E-03
            2195            2793     311.393E-03     319.518E-03
            2195            2807     348.661E-03     355.648E-03
            2195            2808     318.961E-03     327.348E-03
            2196            2793     311.393E-03     319.518E-03
            2196            2794     287.563E-03     296.316E-03
            2196            2808     318.961E-03     327.348E-03
            2196            2809     289.802E-03     298.975E-03
            2197            2794     287.563E-03     296.316E-03
            2197            2795     263.684E-03     272.150E-03
            2197            2809     289.802E-03     298.975E-03
            2197            2810     262.258E-03     271.796E-03
            2198            2795     263.684E-03     272.150E-03
            2198            2796     239.909E-03     247.844E-03
            2198            2810     262.258E-03     271.796E-03
            2198            2811     237.027E-03     246.120E-03
            2199            2796     239.909E-03     247.844E-03
            2199            2797     216.691E-03     223.848E-03
            2199            2811     237.027E-03     246.120E-03
            2199            2812     212.781E-03     221.321E-03
            2200            2797     216.691E-03     223.848E-03
            2200            2798     193.716E-03     200.222E-03
            2200            2812     212.781E-03     221.321E-03
            2200            2813     189.385E-03     197.397E-03
            2201            2798     193.716E-03     200.222E-03
            2201            2799     171.188E-03     177.178E-03
            2201            2813     189.385E-03     197.397E-03
            2201            2814     166.547E-03     174.059E-03
            2202            2799     171.188E-03     177.178E-03
            2202            2800     149.116E-03     154.721E-03
            2202            2814     166.547E-03     174.059E-03
            2202            2815     144.231E-03     151.324E-03
            2203            2800     149.116E-03     154.721E-03
            2203            2801     127.758E-03     133.011E-03
            2203            2815     144.231E-03     151.324E-03
            2203            2816     122.532E-03     129.116E-03
            2204            2801     127.758E-03     133.011E-03
            2204            2802     107.457E-03     112.156E-03
            2204            2816     122.532E-03     129.116E-03
            2204            2817     101.720E-03     107.631E-03
            2205            2802     107.457E-03     112.156E-03
            2205            2803     88.9324E-03     92.7135E-03
            2205            2817     101.720E-03     107.631E-03
            2205            2818     82.4103E-03     87.0943E-03
            2206            2803     88.9324E-03     92.7135E-03
            2206            2804     73.4816E-03     75.3712E-03
            2206            2818     82.4103E-03     87.0943E-03
            2206            2819     65.7450E-03     68.5573E-03
            2207            2804     73.4816E-03     75.3712E-03
            2207            2805     63.0410E-03     62.3667E-03
            2207            2819     65.7450E-03     68.5573E-03
            2207            2820     54.2059E-03     53.9192E-03
            2208             147     50.1203E-03     47.8017E-03
            2208             148     59.3782E-03     57.4365E-03
            2208            2805     63.0410E-03     62.3667E-03
            2208            2820     54.2059E-03     53.9192E-03
            2209             263     394.004E-03     394.454E-03
            2209             264     414.470E-03     421.262E-03
            2209            2806     378.939E-03     382.126E-03
            2209            2821     397.059E-03     403.216E-03
            2210            2806     378.939E-03     382.126E-03
            2210            2807     348.661E-03     355.648E-03
            2210            2821     397.059E-03     403.216E-03
            2210            2822     360.673E-03     367.005E-03
            2211            2807     348.661E-03     355.648E-03
            2211            2808     318.961E-03     327.348E-03
            2211            2822     360.673E-03     367.005E-03
            2211            2823     322.102E-03     330.421E-03
            2212            2808     318.961E-03     327.348E-03
            2212            2809     289.802E-03     298.975E-03
            2212            2823     322.102E-03     330.421E-03
            2212            2824     287.170E-03     297.015E-03
            2213            2809     289.802E-03     298.975E-03
            2213            2810     262.258E-03     271.796E-03
            2213            2824     287.170E-03     297.015E-03
            2213            2825     258.182E-03     268.131E-03
            2214            2810     262.258E-03     271.796E-03
            2214            2811     237.027E-03     246.120E-03
            2214            2825     258.182E-03     268.131E-03
            2214            2826     231.807E-03     241.553E-03
            2215            2811     237.027E-03     246.120E-03
            2215            2812     212.781E-03     221.321E-03
            2215            2826     231.807E-03     241.553E-03
            2215            2827     207.230E-03     216.733E-03
            2216            2812     212.781E-03     221.321E-03
            2216            2813     189.385E-03     197.397E-03
            2216            2827     207.230E-03     216.733E-03
            2216            2828     183.737E-03     192.881E-03
            2217            2813     189.385E-03     197.397E-03
            2217            2814     166.547E-03     174.059E-03
            2217            2828     183.737E-03     192.881E-03
            2217            2829     160.879E-03     169.739E-03
            2218            2814     166.547E-03     174.059E-03
            2218            2815     144.231E-03     151.324E-03
            2218            2829     160.879E-03     169.739E-03
            2218            2830     138.561E-03     147.047E-03
            2219            2815     144.231E-03     151.324E-03
            2219            2816     122.532E-03     129.116E-03
            2219            2830     138.561E-03     147.047E-03
            2219            2831     116.718E-03     124.773E-03
            2220            2816     122.532E-03     129.116E-03
            2220            2817     101.720E-03     107.631E-03
            2220            2831     116.718E-03     124.773E-03
            2220            2832     95.5705E-03     102.898E-03
            2221            2817     101.720E-03     107.631E-03
            2221            2818     82.4103E-03     87.0943E-03
            2221            2832     95.5705E-03     102.898E-03
            2221            2833     75.5398E-03     81.7133E-03
            2222            2818     82.4103E-03     87.0943E-03
            2222            2819     65.7450E-03     68.5573E-03
            2222            2833     75.5398E-03     81.7133E-03
            2222            2834     57.7833E-03     61.8700E-03
            2223            2819     65.7450E-03     68.5573E-03
            2223            2820     54.2059E-03     53.9192E-03
            2223            2834     57.7833E-03     61.8700E-03
            2223            2835     44.7574E-03     45.5300E-03
            2224             146     39.8599E-03     38.7119E-03
            2224             147     50.1203E-03     47.8017E-03
            2224            2820     54.2059E-03     53.9192E-03
            2224            2835     44.7574E-03     45.5300E-03
            2225             264     414.470E-03     421.262E-03
            2225             265     441.289E-03     439.449E-03
            2225            2821     397.059E-03     403.216E-03
            2225            2836     417.457E-03     418.626E-03
            2226            2821     397.059E-03     403.216E-03
            2226            2822     360.673E-03     367.005E-03
            2226            2836     417.457E-03     418.626E-03
            2226            2837     364.975E-03     371.322E-03
            2227            2822     360.673E-03     367.005E-03
            2227            2823     322.102E-03     330.421E-03
            2227            2837     364.975E-03     371.322E-03
            2227            2838     316.550E-03     325.707E-03
            2228            2823     322.102E-03     330.421E-03
            2228            2824     287.170E-03     297.015E-03
            2228            2838     316.550E-03     325.707E-03
            2228            2839     281.222E-03     290.830E-03
            2229            2824     287.170E-03     297.015E-03
            2229            2825     258.182E-03     268.131E-03
            2229            2839     281.222E-03     290.830E-03
            2229            2840     251.556E-03     261.289E-03
            2230            2825     258.182E-03     268.131E-03
            2230            2826     231.807E-03     241.553E-03
            2230            2840     251.556E-03     261.289E-03
            2230            2841     225.063E-03     235.049E-03
            2231            2826     231.807E-03     241.553E-03
            2231            2827     207.230E-03     216.733E-03
            2231            2841     225.063E-03     235.049E-03
            2231            2842     200.661E-03     210.711E-03
            2232            2827     207.230E-03     216.733E-03
            2232            2828     183.737E-03     192.881E-03
            2232            2842     200.661E-03     210.711E-03
            2232            2843     177.285E-03     187.433E-03
            2233            2828     183.737E-03     192.881E-03
            2233            2829     160.879E-03     169.739E-03
            2233            2843     177.285E-03     187.433E-03
            2233            2844     154.672E-03     164.778E-03
            2234            2829     160.879E-03     169.739E-03
            2234            2830     138.561E-03     147.047E-03
            2234            2844     154.672E-03     164.778E-03
            2234            2845     132.460E-03     142.456E-03
            2235            2830     138.561E-03     147.047E-03
            2235            2831     116.718E-03     124.773E-03
            2235            2845     132.460E-03     142.456E-03
            2235            2846     110.665E-03     120.346E-03
            2236            2831     116.718E-03     124.773E-03
            2236            2832     95.5705E-03     102.898E-03
            2236            2846     110.665E-03     120.346E-03
            2236            2847     89.2778E-03     98.4331E-03
            2237            2832     95.5705E-03     102.898E-03
            2237            2833     75.5398E-03     81.7133E-03
            2237            2847     89.2778E-03     98.4331E-03
            2237            2848     68.6518E-03     76.8161E-03
            2238            2833     75.5398E-03     81.7133E-03
            2238            2834     57.7833E-03     61.8700E-03
            2238            2848     68.6518E-03     76.8161E-03
            2238            2849     49.6127E-03     55.9075E-03
            2239            2834     57.7833E-03     61.8700E-03
            2239            2835     44.7574E-03     45.5300E-03
            2239            2849     49.6127E-03     55.9075E-03
            2239            2850     34.8889E-03     37.3901E-03
            2240             145     29.1225E-03     29.0160E-03
            2240             146     39.8599E-03     38.7119E-03
            2240            2835     44.7574E-03     45.5300E-03
            2240            2850     34.8889E-03     37.3901E-03
            2241             265     441.289E-03     439.449E-03
            2241             266     464.798E-03     467.428E-03
            2241            2836     417.457E-03     418.626E-03
            2241            2851     423.136E-03     429.114E-03
            2242            2836     417.457E-03     418.626E-03
            2242            2837     364.975E-03     371.322E-03
            2242            2851     423.136E-03     429.114E-03
            2242            2852     353.242E-03     361.753E-03
            2243            2837     364.975E-03     371.322E-03
            2243            2838     316.550E-03     325.707E-03
            2243            2852     353.242E-03     361.753E-03
            2243            2853     307.189E-03     314.923E-03
            2244            2838     316.550E-03     325.707E-03
            2244            2839     281.222E-03     290.830E-03
            2244            2853     307.189E-03     314.923E-03
            2244            2854     273.214E-03     281.309E-03
            2245            2839     281.222E-03     290.830E-03
            2245            2840     251.556E-03     261.289E-03
            2245            2854     273.214E-03     281.309E-03
            2245            2855     243.823E-03     252.728E-03
            2246            2840     251.556E-03     261.289E-03
            2246            2841     225.063E-03     235.049E-03
            2246            2855     243.823E-03     252.728E-03
            2246            2856     217.969E-03     227.748E-03
            2247            2841     225.063E-03     235.049E-03
            2247            2842     200.661E-03     210.711E-03
            2247            2856     217.969E-03     227.748E-03
            2247            2857     193.760E-03     204.310E-03
            2248            2842     200.661E-03     210.711E-03
            2248            2843     177.285E-03     187.433E-03
            2248            2857     193.760E-03     204.310E-03
            2248            2858     170.782E-03     181.935E-03
            2249            2843     177.285E-03     187.433E-03
            2249            2844     154.672E-03     164.778E-03
            2249            2858     170.782E-03     181.935E-03
            2249            2859     148.404E-03     159.941E-03
            2250            2844     154.672E-03     164.778E-03
            2250            2845     132.460E-03     142.456E-03
            2250            2859     148.404E-03     159.941E-03
            2250            2860     126.483E-03     138.185E-03
            2251            2845     132.460E-03     142.456E-03
            2251            2846     110.665E-03     120.346E-03
            2251            2860     126.483E-03     138.185E-03
            2251            2861     104.811E-03     116.451E-03
            2252            2846     110.665E-03     120.346E-03
            2252            2847     89.2778E-03     98.4331E-03
            2252            2861     104.811E-03     116.451E-03
            2252            2862     83.4266E-03     94.7275E-03
            2253            2847     89.2778E-03     98.4331E-03
            2253            2848     68.6518E-03     76.8161E-03
            2253            2862     83.4266E-03     94.7275E-03
            2253            2863     62.3486E-03     73.0132E-03
            2254            2848     68.6518E-03     76.8161E-03
            2254            2849     49.6127E-03     55.9075E-03
            2254            2863     62.3486E-03     73.0132E-03
            2254            2864     42.0642E-03     51.4841E-03
            2255            2849     49.6127E-03     55.9075E-03
            2255            2850     34.8889E-03     37.3901E-03
            2255            2864     42.0642E-03     51.4841E-03
            2255            2865     24.5748E-03     30.8058E-03
            2256             144     16.9310E-03     20.8588E-03
            2256             145     29.1225E-03     29.0160E-03
            2256            2850     34.8889E-03     37.3901E-03
            2256            2865     24.5748E-03     30.8058E-03
            2257             266     464.798E-03     467.428E-03
            2257             267     441.818E-03     449.349E-03
            2257            2851     423.136E-03     429.114E-03
            2257            2866     416.774E-03     417.391E-03
            2258            2851     423.136E-03     429.114E-03
            2258            2852     353.242E-03     361.753E-03
            2258            2866     416.774E-03     417.391E-03
            2258            2867     378.101E-03     370.881E-03
            2259            2852     353.242E-03     361.753E-03
            2259            2853     307.189E-03     314.923E-03
            2259            2867     378.101E-03     370.881E-03
            2259            2868     349.888E-03     343.638E-03
            2260            2853     307.189E-03     314.923E-03
            2260            2854     273.214E-03     281.309E-03
            2260            2868     349.888E-03     343.638E-03
            2260            2869     323.214E-03     319.372E-03
            2261            2854     273.214E-03     281.309E-03
            2261            2855     243.823E-03     252.728E-03
            2261            2869     323.214E-03     319.372E-03
            2261            2870     298.378E-03     296.709E-03
            2262            2855     243.823E-03     252.728E-03
            2262            2856     217.969E-03     227.748E-03
            2262            2870     298.378E-03     296.709E-03
            2262            2871     273.904E-03     274.478E-03
            2263            2856     217.969E-03     227.748E-03
            2263            2857     193.760E-03     204.310E-03
            2263            2871     273.904E-03     274.478E-03
            2263            2872     249.986E-03     252.140E-03
            2264            2857     193.760E-03     204.310E-03
            2264            2858     170.782E-03     181.935E-03
            2264            2872     249.986E-03     252.140E-03
            2264            2873     226.234E-03     229.742E-03
            2265            2858     170.782E-03     181.935E-03
            2265            2859     148.404E-03     159.941E-03
            2265            2873     226.234E-03     229.742E-03
            2265            2874     202.855E-03     207.173E-03
            2266            2859     148.404E-03     159.941E-03
            2266            2860     126.483E-03     138.185E-03
            2266            2874     202.855E-03     207.173E-03
            2266            2875     179.842E-03     184.721E-03
            2267            2860     126.483E-03     138.185E-03
            2267            2861     104.811E-03     116.451E-03
            2267            2875     179.842E-03     184.721E-03
            2267            2876     157.508E-03     162.529E-03
            2268            2861     104.811E-03     116.451E-03
            2268            2862     83.4266E-03     94.7275E-03
            2268            2876     157.508E-03     162.529E-03
            2268            2877     136.079E-03     141.115E-03
            2269            2862     83.4266E-03     94.7275E-03
            2269            2863     62.3486E-03     73.0132E-03
            2269            2877     136.079E-03     141.115E-03
            2269            2878     115.977E-03     120.780E-03
            2270            2863     62.3486E-03     73.0132E-03
            2270            2864     42.0642E-03     51.4841E-03
            2270            2878     115.977E-03     120.780E-03
            2270            2879     97.5968E-03     103.025E-03
            2271            2864     42.0642E-03     51.4841E-03
            2271            2865     24.5748E-03     30.8058E-03
            2271            2879     97.5968E-03     103.025E-03
            2271            2880     79.3393E-03     90.0888E-03
            2272             143     69.6530E-03     84.8816E-03
            2272             144     16.9310E-03     20.8588E-03
            2272            2865     24.5748E-03     30.8058E-03
            2272            2880     79.3393E-03     90.0888E-03
            2273             267     441.818E-03     449.349E-03
            2273             268     435.978E-03     422.421E-03
            2273            2866     416.774E-03     417.391E-03
            2273            2881     432.983E-03     421.074E-03
            2274            2866     416.774E-03     417.391E-03
            2274            2867     378.101E-03     370.881E-03
            2274            2881     432.983E-03     421.074E-03
            2274            2882     423.285E-03     412.199E-03
            2275            2867     378.101E-03     370.881E-03
            2275            2868     349.888E-03     343.638E-03
            2275            2882     423.285E-03     412.199E-03
            2275            2883     407.444E-03     396.075E-03
            2276            2868     349.888E-03     343.638E-03
            2276            2869     323.214E-03     319.372E-03
            2276            2883     407.444E-03     396.075E-03
            2276            2884     387.223E-03     377.378E-03
            2277            2869     323.214E-03     319.372E-03
            2277            2870     298.378E-03     296.709E-03
            2277            2884     387.223E-03     377.378E-03
            2277            2885     364.189E-03     356.115E-03
            2278            2870     298.378E-03     296.709E-03
            2278            2871     273.904E-03     274.478E-03
            2278            2885     364.189E-03     356.115E-03
            2278            2886     339.408E-03     333.087E-03
            2279            2871     273.904E-03     274.478E-03
            2279            2872     249.986E-03     252.140E-03
            2279            2886     339.408E-03     333.087E-03
            2279            2887     313.522E-03     308.711E-03
            2280            2872     249.986E-03     252.140E-03
            2280            2873     226.234E-03     229.742E-03
            2280            2887     313.522E-03     308.711E-03
            2280            2888     287.140E-03     283.476E-03
            2281            2873     226.234E-03     229.742E-03
            2281            2874     202.855E-03     207.173E-03
            2281            2888     287.140E-03     283.476E-03
            2281            2889     260.676E-03     257.920E-03
            2282            2874     202.855E-03     207.173E-03
            2282            2875     179.842E-03     184.721E-03
            2282            2889     260.676E-03     257.920E-03
            2282            2890     234.723E-03     232.522E-03
            2283            2875     179.842E-03     184.721E-03
            2283            2876     157.508E-03     162.529E-03
            2283            2890     234.723E-03     232.522E-03
            2283            2891     209.682E-03     207.943E-03
            2284            2876     157.508E-03     162.529E-03
            2284            2877     136.079E-03     141.115E-03
            2284            2891     209.682E-03     207.943E-03
            2284            2892     186.339E-03     185.059E-03
            2285            2877     136.079E-03     141.115E-03
            2285            2878     115.977E-03     120.780E-03
            2285            2892     186.339E-03     185.059E-03
            2285            2893     165.206E-03     165.034E-03
            2286            2878     115.977E-03     120.780E-03
            2286            2879     97.5968E-03     103.025E-03
            2286            2893     165.206E-03     165.034E-03
            2286            2894     146.709E-03     150.835E-03
            2287            2879     97.5968E-03     103.025E-03
            2287            2880     79.3393E-03     90.0888E-03
            2287            2894     146.709E-03     150.835E-03
            2287            2895     132.821E-03     145.153E-03
            2288             142     127.415E-03     144.513E-03
            2288             143     69.6530E-03     84.8816E-03
            2288            2880     79.3393E-03     90.0888E-03
            2288            2895     132.821E-03     145.153E-03
            2289             268     435.978E-03     422.421E-03
            2289             269     468.856E-03     467.467E-03
            2289            2881     432.983E-03     421.074E-03
            2289            2896     461.539E-03     462.859E-03
            2290            2881     432.983E-03     421.074E-03
            2290            2882     423.285E-03     412.199E-03
            2290            2896     461.539E-03     462.859E-03
            2290            2897     445.988E-03     449.104E-03
            2291            2882     423.285E-03     412.199E-03
            2291            2883     407.444E-03     396.075E-03
            2291            2897     445.988E-03     449.104E-03
            2291            2898     427.372E-03     428.451E-03
            2292            2883     407.444E-03     396.075E-03
            2292            2884     387.223E-03     377.378E-03
            2292            2898     427.372E-03     428.451E-03
            2292            2899     404.673E-03     403.930E-03
            2293            2884     387.223E-03     377.378E-03
            2293            2885     364.189E-03     356.115E-03
            2293            2899     404.673E-03     403.930E-03
            2293            2900     378.596E-03     377.211E-03
            2294            2885     364.189E-03     356.115E-03
            2294            2886     339.408E-03     333.087E-03
            2294            2900     378.596E-03     377.211E-03
            2294            2901     350.537E-03     349.067E-03
            2295            2886     339.408E-03     333.087E-03
            2295            2887     313.522E-03     308.711E-03
            2295            2901     350.537E-03     349.067E-03
            2295            2902     321.304E-03     320.002E-03
            2296            2887     313.522E-03     308.711E-03
            2296            2888     287.140E-03     283.476E-03
            2296            2902     321.304E-03     320.002E-03
            2296            2903     291.535E-03     290.570E-03
            2297            2888     287.140E-03     283.476E-03
            2297            2889     260.676E-03     257.920E-03
            2297            2903     291.535E-03     290.570E-03
            2297            2904     261.790E-03     261.140E-03
            2298            2889     260.676E-03     257.920E-03
            2298            2890     234.723E-03     232.522E-03
            2298            2904     261.790E-03     261.140E-03
            2298            2905     232.463E-03     232.206E-03
            2299            2890     234.723E-03     232.522E-03
            2299            2891     209.682E-03     207.943E-03
            2299            2905     232.463E-03     232.206E-03
            2299            2906     204.037E-03     204.337E-03
            2300            2891     209.682E-03     207.943E-03
            2300            2892     186.339E-03     185.059E-03
            2300            2906     204.037E-03     204.337E-03
            2300            2907     177.070E-03     178.367E-03
            2301            2892     186.339E-03     185.059E-03
            2301            2893     165.206E-03     165.034E-03
            2301            2907     177.070E-03     178.367E-03
            2301            2908     152.117E-03     155.821E-03
            2302            2893     165.206E-03     165.034E-03
            2302            2894     146.709E-03     150.835E-03
            2302            2908     152.117E-03     155.821E-03
            2302            2909     130.928E-03     139.109E-03
            2303            2894     146.709E-03     150.835E-03
            2303            2895     132.821E-03     145.153E-03
            2303            2909     130.928E-03     139.109E-03
            2303            2910     119.376E-03     126.056E-03
            2304             141     117.023E-03     119.583E-03
            2304             142     127.415E-03     144.513E-03
            2304            2895     132.821E-03     145.153E-03
            2304            2910     119.376E-03     126.056E-03
            2305             269     468.856E-03     467.467E-03
            2305             270     500.174E-03     502.006E-03
            2305            2896     461.539E-03     462.859E-03
            2305            2911     488.879E-03     493.791E-03
            2306            2896     461.539E-03     462.859E-03
            2306            2897     445.988E-03     449.104E-03
            2306            2911     488.879E-03     493.791E-03
            2306            2912     467.644E-03     475.912E-03
            2307            2897     445.988E-03     449.104E-03
            2307            2898     427.372E-03     428.451E-03
            2307            2912     467.644E-03     475.912E-03
            2307            2913     445.396E-03     453.226E-03
            2308            2898     427.372E-03     428.451E-03
            2308            2899     404.673E-03     403.930E-03
            2308            2913     445.396E-03     453.226E-03
            2308            2914     419.367E-03     425.572E-03
            2309            2899     404.673E-03     403.930E-03
            2309            2900     378.596E-03     377.211E-03
            2309            2914     419.367E-03     425.572E-03
            2309            2915     390.674E-03     395.105E-03
            2310            2900     378.596E-03     377.211E-03
            2310            2901     350.537E-03     349.067E-03
            2310            2915     390.674E-03     395.105E-03
            2310            2916     359.776E-03     363.082E-03
            2311            2901     350.537E-03     349.067E-03
            2311            2902     321.304E-03     320.002E-03
            2311            2916     359.776E-03     363.082E-03
            2311            2917     327.795E-03     330.408E-03
            2312            2902     321.304E-03     320.002E-03
            2312            2903     291.535E-03     290.570E-03
            2312            2917     327.795E-03     330.408E-03
            2312            2918     295.355E-03     297.550E-03
            2313            2903     291.535E-03     290.570E-03
            2313            2904     261.790E-03     261.140E-03
            2313            2918     295.355E-03     297.550E-03
            2313            2919     262.909E-03     265.007E-03
            2314            2904     261.790E-03     261.140E-03
            2314            2905     232.463E-03     232.206E-03
            2314            2919     262.909E-03     265.007E-03
            2314            2920     230.887E-03     233.114E-03
            2315            2905     232.463E-03     232.206E-03
            2315            2906     204.037E-03     204.337E-03
            2315            2920     230.887E-03     233.114E-03
            2315            2921     199.643E-03     202.413E-03
            2316            2906     204.037E-03     204.337E-03
            2316            2907     177.070E-03     178.367E-03
            2316            2921     199.643E-03     202.413E-03
            2316            2922     169.684E-03     173.536E-03
            2317            2907     177.070E-03     178.367E-03
            2317            2908     152.117E-03     155.821E-03
            2317            2922     169.684E-03     173.536E-03
            2317            2923     141.938E-03     147.944E-03
            2318            2908     152.117E-03     155.821E-03
            2318            2909     130.928E-03     139.109E-03
            2318            2923     141.938E-03     147.944E-03
            2318            2924     119.592E-03     125.689E-03
            2319            2909     130.928E-03     139.109E-03
            2319            2910     119.376E-03     126.056E-03
            2319            2924     119.592E-03     125.689E-03
            2319            2925     105.158E-03     107.573E-03
            2320             140     99.9994E-03     100.024E-03
            2320             141     117.023E-03     119.583E-03
            2320            2910     119.376E-03     126.056E-03
            2320            2925     105.158E-03     107.573E-03
            2321             270     500.174E-03     502.006E-03
            2321             271     526.087E-03     527.437E-03
            2321            2911     488.879E-03     493.791E-03
            2321            2926     513.568E-03     517.863E-03
            2322            2911     488.879E-03     493.791E-03
            2322            2912     467.644E-03     475.912E-03
            2322            2926     513.568E-03     517.863E-03
            2322            2927     487.679E-03     496.855E-03
            2323            2912     467.644E-03     475.912E-03
            2323            2913     445.396E-03     453.226E-03
            2323            2927     487.679E-03     496.855E-03
            2323            2928     460.556E-03     471.498E-03
            2324            2913     445.396E-03     453.226E-03
            2324            2914     419.367E-03     425.572E-03
            2324            2928     460.556E-03     471.498E-03
            2324            2929     431.399E-03     441.490E-03
            2325            2914     419.367E-03     425.572E-03
            2325            2915     390.674E-03     395.105E-03
            2325            2929     431.399E-03     441.490E-03
            2325            2930     399.521E-03     408.276E-03
            2326            2915     390.674E-03     395.105E-03
            2326            2916     359.776E-03     363.082E-03
            2326            2930     399.521E-03     408.276E-03
            2326            2931     366.180E-03     373.474E-03
            2327            2916     359.776E-03     363.082E-03
            2327            2917     327.795E-03     330.408E-03
            2327            2931     366.180E-03     373.474E-03
            2327            2932     331.942E-03     338.055E-03
            2328            2917     327.795E-03     330.408E-03
            2328            2918     295.355E-03     297.550E-03
            2328            2932     331.942E-03     338.055E-03
            2328            2933     297.397E-03     302.735E-03
            2329            2918     295.355E-03     297.550E-03
            2329            2919     262.909E-03     265.007E-03
            2329            2933     297.397E-03     302.735E-03
            2329            2934     262.999E-03     267.852E-03
            2330            2919     262.909E-03     265.007E-03
            2330            2920     230.887E-03     233.114E-03
            2330            2934     262.999E-03     267.852E-03
            2330            2935     228.958E-03     233.759E-03
            2331            2920     230.887E-03     233.114E-03
            2331            2921     199.643E-03     202.413E-03
            2331            2935     228.958E-03     233.759E-03
            2331            2936     195.649E-03     200.728E-03
            2332            2921     199.643E-03     202.413E-03
            2332            2922     169.684E-03     173.536E-03
            2332            2936     195.649E-03     200.728E-03
            2332            2937     163.464E-03     169.422E-03
            2333            2922     169.684E-03     173.536E-03
            2333            2923     141.938E-03     147.944E-03
            2333            2937     163.464E-03     169.422E-03
            2333            2938     133.834E-03     140.222E-03
            2334            2923     141.938E-03     147.944E-03
            2334            2924     119.592E-03     125.689E-03
            2334            2938     133.834E-03     140.222E-03
            2334            2939     108.719E-03     113.855E-03
            2335            2924     119.592E-03     125.689E-03
            2335            2925     105.158E-03     107.573E-03
            2335            2939     108.719E-03     113.855E-03
            2335            2940     91.7758E-03     94.1301E-03
            2336             139     86.0102E-03     86.6365E-03
            2336             140     99.9994E-03     100.024E-03
            2336            2925     105.158E-03     107.573E-03
            2336            2940     91.7758E-03     94.1301E-03
            2337             271     526.087E-03     527.437E-03
            2337             272     550.613E-03     552.655E-03
            2337            2926     513.568E-03     517.863E-03
            2337            2941     535.361E-03     540.354E-03
            2338            2926     513.568E-03     517.863E-03
            2338            2927     487.679E-03     496.855E-03
            2338            2941     535.361E-03     540.354E-03
            2338            2942     505.019E-03     514.472E-03
            2339            2927     487.679E-03     496.855E-03
            2339            2928     460.556E-03     471.498E-03
            2339            2942     505.019E-03     514.472E-03
            2339            2943     473.609E-03     485.300E-03
            2340            2928     460.556E-03     471.498E-03
            2340            2929     431.399E-03     441.490E-03
            2340            2943     473.609E-03     485.300E-03
            2340            2944     439.989E-03     452.293E-03
            2341            2929     431.399E-03     441.490E-03
            2341            2930     399.521E-03     408.276E-03
            2341            2944     439.989E-03     452.293E-03
            2341            2945     405.063E-03     416.517E-03
            2342            2930     399.521E-03     408.276E-03
            2342            2931     366.180E-03     373.474E-03
            2342            2945     405.063E-03     416.517E-03
            2342            2946     369.252E-03     379.401E-03
            2343            2931     366.180E-03     373.474E-03
            2343            2932     331.942E-03     338.055E-03
            2343            2946     369.252E-03     379.401E-03
            2343            2947     333.121E-03     342.082E-03
            2344            2932     331.942E-03     338.055E-03
            2344            2933     297.397E-03     302.735E-03
            2344            2947     333.121E-03     342.082E-03
            2344            2948     297.155E-03     305.103E-03
            2345            2933     297.397E-03     302.735E-03
            2345            2934     262.999E-03     267.852E-03
            2345            2948     297.155E-03     305.103E-03
            2345            2949     261.390E-03     268.708E-03
            2346            2934     262.999E-03     267.852E-03
            2346            2935     228.958E-03     233.759E-03
            2346            2949     261.390E-03     268.708E-03
            2346            2950     226.087E-03     233.091E-03
            2347            2935     228.958E-03     233.759E-03
            2347            2936     195.649E-03     200.728E-03
            2347            2950     226.087E-03     233.091E-03
            2347            2951     191.363E-03     198.463E-03
            2348            2936     195.649E-03     200.728E-03
            2348            2937     163.464E-03     169.422E-03
            2348            2951     191.363E-03     198.463E-03
            2348            2952     157.783E-03     165.039E-03
            2349            2937     163.464E-03     169.422E-03
            2349            2938     133.834E-03     140.222E-03
            2349            2952     157.783E-03     165.039E-03
            2349            2953     126.177E-03     133.123E-03
            2350            2938     133.834E-03     140.222E-03
            2350            2939     108.719E-03     113.855E-03
            2350            2953     126.177E-03     133.123E-03
            2350            2954     98.5913E-03     104.292E-03
            2351            2939     108.719E-03     113.855E-03
            2351            2940     91.7758E-03     94.1301E-03
            2351            2954     98.5913E-03     104.292E-03
            2351            2955     79.1231E-03     80.8940E-03
            2352             138     72.0509E-03     70.8434E-03
            2352             139     86.0102E-03     86.6365E-03
            2352            2940     91.7758E-03     94.1301E-03
            2352            2955     79.1231E-03     80.8940E-03
            2353             272     550.613E-03     552.655E-03
            2353             273     571.917E-03     576.576E-03
            2353            2941     535.361E-03     540.354E-03
            2353            2956     555.291E-03     561.215E-03
            2354            2941     535.361E-03     540.354E-03
            2354            2942     505.019E-03     514.472E-03
            2354            2956     555.291E-03     561.215E-03
            2354            2957     520.604E-03     529.836E-03
            2355            2942     505.019E-03     514.472E-03
            2355            2943     473.609E-03     485.300E-03
            2355            2957     520.604E-03     529.836E-03
            2355            2958     483.352E-03     495.729E-03
            2356            2943     473.609E-03     485.300E-03
            2356            2944     439.989E-03     452.293E-03
            2356            2958     483.352E-03     495.729E-03
            2356            2959     445.210E-03     458.530E-03
            2357            2944     439.989E-03     452.293E-03
            2357            2945     405.063E-03     416.517E-03
            2357            2959     445.210E-03     458.530E-03
            2357            2960     406.798E-03     419.684E-03
            2358            2945     405.063E-03     416.517E-03
            2358            2946     369.252E-03     379.401E-03
            2358            2960     406.798E-03     419.684E-03
            2358            2961     368.620E-03     380.667E-03
            2359            2946     369.252E-03     379.401E-03
            2359            2947     333.121E-03     342.082E-03
            2359            2961     368.620E-03     380.667E-03
            2359            2962     331.282E-03     342.175E-03
            2360            2947     333.121E-03     342.082E-03
            2360            2948     297.155E-03     305.103E-03
            2360            2962     331.282E-03     342.175E-03
            2360            2963     294.341E-03     304.273E-03
            2361            2948     297.155E-03     305.103E-03
            2361            2949     261.390E-03     268.708E-03
            2361            2963     294.341E-03     304.273E-03
            2361            2964     257.922E-03     267.147E-03
            2362            2949     261.390E-03     268.708E-03
            2362            2950     226.087E-03     233.091E-03
            2362            2964     257.922E-03     267.147E-03
            2362            2965     221.926E-03     230.717E-03
            2363            2950     226.087E-03     233.091E-03
            2363            2951     191.363E-03     198.463E-03
            2363            2965     221.926E-03     230.717E-03
            2363            2966     186.498E-03     195.093E-03
            2364            2951     191.363E-03     198.463E-03
            2364            2952     157.783E-03     165.039E-03
            2364            2966     186.498E-03     195.093E-03
            2364            2967     151.891E-03     160.283E-03
            2365            2952     157.783E-03     165.039E-03
            2365            2953     126.177E-03     133.123E-03
            2365            2967     151.891E-03     160.283E-03
            2365            2968     118.809E-03     126.744E-03
            2366            2953     126.177E-03     133.123E-03
            2366            2954     98.5913E-03     104.292E-03
            2366            2968     118.809E-03     126.744E-03
            2366            2969     88.9192E-03     95.2103E-03
            2367            2954     98.5913E-03     104.292E-03
            2367            2955     79.1231E-03     80.8940E-03
            2367            2969     88.9192E-03     95.2103E-03
            2367            2970     66.4907E-03     69.1892E-03
            2368             137     57.9468E-03     58.3448E-03
            2368             138     72.0509E-03     70.8434E-03
            2368            2955     79.1231E-03     80.8940E-03
            2368            2970     66.4907E-03     69.1892E-03
            2369             273     571.917E-03     576.576E-03
            2369             274     595.527E-03     596.515E-03
            2369            2956     555.291E-03     561.215E-03
            2369            2971     575.210E-03     580.132E-03
            2370            2956     555.291E-03     561.215E-03
            2370            2957     520.604E-03     529.836E-03
            2370            2971     575.210E-03     580.132E-03
            2370            2972     533.048E-03     543.565E-03
            2371            2957     520.604E-03     529.836E-03
            2371            2958     483.352E-03     495.729E-03
            2371            2972     533.048E-03     543.565E-03
            2371            2973     489.674E-03     502.234E-03
            2372            2958     483.352E-03     495.729E-03
            2372            2959     445.210E-03     458.530E-03
            2372            2973     489.674E-03     502.234E-03
            2372            2974     446.010E-03     459.441E-03
            2373            2959     445.210E-03     458.530E-03
            2373            2960     406.798E-03     419.684E-03
            2373            2974     446.010E-03     459.441E-03
            2373            2975     403.907E-03     417.592E-03
            2374            2960     406.798E-03     419.684E-03
            2374            2961     368.620E-03     380.667E-03
            2374            2975     403.907E-03     417.592E-03
            2374            2976     364.557E-03     377.440E-03
            2375            2961     368.620E-03     380.667E-03
            2375            2962     331.282E-03     342.175E-03
            2375            2976     364.557E-03     377.440E-03
            2375            2977     326.363E-03     338.379E-03
            2376            2962     331.282E-03     342.175E-03
            2376            2963     294.341E-03     304.273E-03
            2376            2977     326.363E-03     338.379E-03
            2376            2978     289.196E-03     300.443E-03
            2377            2963     294.341E-03     304.273E-03
            2377            2964     257.922E-03     267.147E-03
            2377            2978     289.196E-03     300.443E-03
            2377            2979     252.631E-03     263.223E-03
            2378            2964     257.922E-03     267.147E-03
            2378            2965     221.926E-03     230.717E-03
            2378            2979     252.631E-03     263.223E-03
            2378            2980     216.529E-03     226.705E-03
            2379            2965     221.926E-03     230.717E-03
            2379            2966     186.498E-03     195.093E-03
            2379            2980     216.529E-03     226.705E-03
            2379            2981     180.889E-03     190.671E-03
            2380            2966     186.498E-03     195.093E-03
            2380            2967     151.891E-03     160.283E-03
            2380            2981     180.889E-03     190.671E-03
            2380            2982     145.774E-03     155.277E-03
            2381            2967     151.891E-03     160.283E-03
            2381            2968     118.809E-03     126.744E-03
            2381            2982     145.774E-03     155.277E-03
            2381            2983     111.633E-03     120.595E-03
            2382            2968     118.809E-03     126.744E-03
            2382            2969     88.9192E-03     95.2103E-03
            2382            2983     111.633E-03     120.595E-03
            2382            2984     79.6796E-03     87.2948E-03
            2383            2969     88.9192E-03     95.2103E-03
            2383            2970     66.4907E-03     69.1892E-03
            2383            2984     79.6796E-03     87.2948E-03
            2383            2985     54.1403E-03     57.8506E-03
            2384             136     43.7769E-03     44.5091E-03
            2384             137     57.9468E-03     58.3448E-03
            2384            2970     66.4907E-03     69.1892E-03
            2384            2985     54.1403E-03     57.8506E-03
            2385             274     595.527E-03     596.515E-03
            2385             275     615.054E-03     623.954E-03
            2385            2971     575.210E-03     580.132E-03
            2385            2986     592.071E-03     600.770E-03
            2386            2971     575.210E-03     580.132E-03
            2386            2972     533.048E-03     543.565E-03
            2386            2986     592.071E-03     600.770E-03
            2386            2987     543.247E-03     552.774E-03
            2387            2972     533.048E-03     543.565E-03
            2387            2973     489.674E-03     502.234E-03
            2387            2987     543.247E-03     552.774E-03
            2387            2988     489.965E-03     501.903E-03
            2388            2973     489.674E-03     502.234E-03
            2388            2974     446.010E-03     459.441E-03
            2388            2988     489.965E-03     501.903E-03
            2388            2989     440.157E-03     453.685E-03
            2389            2974     446.010E-03     459.441E-03
            2389            2975     403.907E-03     417.592E-03
            2389            2989     440.157E-03     453.685E-03
            2389            2990     397.189E-03     410.491E-03
            2390            2975     403.907E-03     417.592E-03
            2390            2976     364.557E-03     377.440E-03
            2390            2990     397.189E-03     410.491E-03
            2390            2991     357.059E-03     369.921E-03
            2391            2976     364.557E-03     377.440E-03
            2391            2977     326.363E-03     338.379E-03
            2391            2991     357.059E-03     369.921E-03
            2391            2992     318.998E-03     331.436E-03
            2392            2977     326.363E-03     338.379E-03
            2392            2978     289.196E-03     300.443E-03
            2392            2992     318.998E-03     331.436E-03
            2392            2993     282.124E-03     294.074E-03
            2393            2978     289.196E-03     300.443E-03
            2393            2979     252.631E-03     263.223E-03
            2393            2993     282.124E-03     294.074E-03
            2393            2994     245.909E-03     257.543E-03
            2394            2979     252.631E-03     263.223E-03
            2394            2980     216.529E-03     226.705E-03
            2394            2994     245.909E-03     257.543E-03
            2394            2995     210.184E-03     221.452E-03
            2395            2980     216.529E-03     226.705E-03
            2395            2981     180.889E-03     190.671E-03
            2395            2995     210.184E-03     221.452E-03
            2395            2996     174.747E-03     185.736E-03
            2396            2981     180.889E-03     190.671E-03
            2396            2982     145.774E-03     155.277E-03
            2396            2996     174.747E-03     185.736E-03
            2396            2997     139.697E-03     150.192E-03
            2397            2982     145.774E-03     155.277E-03
            2397            2983     111.633E-03     120.595E-03
            2397            2997     139.697E-03     150.192E-03
            2397            2998     105.016E-03     115.067E-03
            2398            2983     111.633E-03     120.595E-03
            2398            2984     79.6796E-03     87.2948E-03
            2398            2998     105.016E-03     115.067E-03
            2398            2999     71.3365E-03     80.7604E-03
            2399            2984     79.6796E-03     87.2948E-03
            2399            2985     54.1403E-03     57.8506E-03
            2399            2999     71.3365E-03     80.7604E-03
            2399            3000     42.0780E-03     48.1915E-03
            2400             135     29.2869E-03     32.6040E-03
            2400             136     43.7769E-03     44.5091E-03
            2400            2985     54.1403E-03     57.8506E-03
            2400            3000     42.0780E-03     48.1915E-03
            2401             275     615.054E-03     623.954E-03
            2401             276     641.182E-03     638.895E-03
            2401            2986     592.071E-03     600.770E-03
            2401            3001     611.077E-03     612.940E-03
            2402            2986     592.071E-03     600.770E-03
            2402            2987     543.247E-03     552.774E-03
            2402            3001     611.077E-03     612.940E-03
            2402            3002     543.558E-03     552.110E-03
            2403            2987     543.247E-03     552.774E-03
            2403            2988     489.965E-03     501.903E-03
            2403            3002     543.558E-03     552.110E-03
            2403            3003     479.183E-03     490.807E-03
            2404            2988     489.965E-03     501.903E-03
            2404            2989     440.157E-03     453.685E-03
            2404            3003     479.183E-03     490.807E-03
            2404            3004     429.910E-03     441.697E-03
            2405            2989     440.157E-03     453.685E-03
            2405            2990     397.189E-03     410.491E-03
            2405            3004     429.910E-03     441.697E-03
            2405            3005     386.837E-03     398.652E-03
            2406            2990     397.189E-03     410.491E-03
            2406            2991     357.059E-03     369.921E-03
            2406            3005     386.837E-03     398.652E-03
            2406            3006     347.285E-03     359.387E-03
            2407            2991     357.059E-03     369.921E-03
            2407            2992     318.998E-03     331.436E-03
            2407            3006     347.285E-03     359.387E-03
            2407            3007     310.011E-03     322.241E-03
            2408            2992     318.998E-03     331.436E-03
            2408            2993     282.124E-03     294.074E-03
            2408            3007     310.011E-03     322.241E-03
            2408            3008     273.826E-03     286.269E-03
            2409            2993     282.124E-03     294.074E-03
            2409            2994     245.909E-03     257.543E-03
            2409            3008     273.826E-03     286.269E-03
            2409            3009     238.435E-03     250.924E-03
            2410            2994     245.909E-03     257.543E-03
            2410            2995     210.184E-03     221.452E-03
            2410            3009     238.435E-03     250.924E-03
            2410            3010     203.391E-03     215.871E-03
            2411            2995     210.184E-03     221.452E-03
            2411            2996     174.747E-03     185.736E-03
            2411            3010     203.391E-03     215.871E-03
            2411            3011     168.661E-03     180.893E-03
            2412            2996     174.747E-03     185.736E-03
            2412            2997     139.697E-03     150.192E-03
            2412            3011     168.661E-03     180.893E-03
            2412            3012     134.077E-03     145.934E-03
            2413            2997     139.697E-03     150.192E-03
            2413            2998     105.016E-03     115.067E-03
            2413            3012     134.077E-03     145.934E-03
            2413            3013     99.7771E-03     110.848E-03
            2414            2998     105.016E-03     115.067E-03
            2414            2999     71.3365E-03     80.7604E-03
            2414            3013     99.7771E-03     110.848E-03
            2414            3014     65.5391E-03     76.0936E-03
            2415            2999     71.3365E-03     80.7604E-03
            2415            3000     42.0780E-03     48.1915E-03
            2415            3014     65.5391E-03     76.0936E-03
            2415            3015     32.2451E-03     42.8038E-03
            2416             134     16.0980E-03     26.6001E-03
            2416             135     29.2869E-03     32.6040E-03
            2416            3000     42.0780E-03     48.1915E-03
            2416            3015     32.2451E-03     42.8038E-03
            2417             276     641.182E-03     638.895E-03
            2417             277     663.217E-03     663.456E-03
            2417            3001     611.077E-03     612.940E-03
            2417            3016     611.950E-03     616.695E-03
            2418            3001     611.077E-03     612.940E-03
            2418            3002     543.558E-03     552.110E-03
            2418            3016     611.950E-03     616.695E-03
            2418            3017     524.338E-03     532.476E-03
            2419            3002     543.558E-03     552.110E-03
            2419            3003     479.183E-03     490.807E-03
            2419            3017     524.338E-03     532.476E-03
            2419            3018     463.746E-03     470.908E-03
            2420            3003     479.183E-03     490.807E-03
            2420            3004     429.910E-03     441.697E-03
            2420            3018     463.746E-03     470.908E-03
            2420            3019     416.820E-03     424.752E-03
            2421            3004     429.910E-03     441.697E-03
            2421            3005     386.837E-03     398.652E-03
            2421            3019     416.820E-03     424.752E-03
            2421            3020     374.833E-03     384.124E-03
            2422            3005     386.837E-03     398.652E-03
            2422            3006     347.285E-03     359.387E-03
            2422            3020     374.833E-03     384.124E-03
            2422            3021     336.744E-03     347.472E-03
            2423            3006     347.285E-03     359.387E-03
            2423            3007     310.011E-03     322.241E-03
            2423            3021     336.744E-03     347.472E-03
            2423            3022     300.384E-03     312.381E-03
            2424            3007     310.011E-03     322.241E-03
            2424            3008     273.826E-03     286.269E-03
            2424            3022     300.384E-03     312.381E-03
            2424            3023     265.354E-03     278.341E-03
            2425            3008     273.826E-03     286.269E-03
            2425            3009     238.435E-03     250.924E-03
            2425            3023     265.354E-03     278.341E-03
            2425            3024     230.936E-03     244.590E-03
            2426            3009     238.435E-03     250.924E-03
            2426            3010     203.391E-03     215.871E-03
            2426            3024     230.936E-03     244.590E-03
            2426            3025     197.005E-03     210.972E-03
            2427            3010     203.391E-03     215.871E-03
            2427            3011     168.661E-03     180.893E-03
            2427            3025     197.005E-03     210.972E-03
            2427            3026     163.308E-03     177.245E-03
            2428            3011     168.661E-03     180.893E-03
            2428            3012     134.077E-03     145.934E-03
            2428            3026     163.308E-03     177.245E-03
            2428            3027     129.910E-03     143.378E-03
            2429            3012     134.077E-03     145.934E-03
            2429            3013     99.7771E-03     110.848E-03
            2429            3027     129.910E-03     143.378E-03
            2429            3028     96.7510E-03     109.322E-03
            2430            3013     99.7771E-03     110.848E-03
            2430            3014     65.5391E-03     76.0936E-03
            2430            3028     96.7510E-03     109.322E-03
            2430            3029     64.2832E-03     75.1602E-03
            2431            3014     65.5391E-03     76.0936E-03
            2431            3015     32.2451E-03     42.8038E-03
            2431            3029     64.2832E-03     75.1602E-03
            2431            3030     32.2033E-03     43.0317E-03
            2432             133     16.0947E-03     28.0357E-03
            2432             134     16.0980E-03     26.6001E-03
            2432            3015     32.2451E-03     42.8038E-03
            2432            3030     32.2033E-03     43.0317E-03
            2433             277     663.217E-03     663.456E-03
            2433             278     636.437E-03     647.098E-03
            2433            3016     611.950E-03     616.695E-03
            2433            3031     600.670E-03     601.680E-03
            2434            3016     611.950E-03     616.695E-03
            2434            3017     524.338E-03     532.476E-03
            2434            3031     600.670E-03     601.680E-03
            2434            3032     545.366E-03     535.296E-03
            2435            3017     524.338E-03     532.476E-03
            2435            3018     463.746E-03     470.908E-03
            2435            3032     545.366E-03     535.296E-03
            2435            3033     504.191E-03     495.644E-03
            2436            3018     463.746E-03     470.908E-03
            2436            3019     416.820E-03     424.752E-03
            2436            3033     504.191E-03     495.644E-03
            2436            3034     464.839E-03     459.877E-03
            2437            3019     416.820E-03     424.752E-03
            2437            3020     374.833E-03     384.124E-03
            2437            3034     464.839E-03     459.877E-03
            2437            3035     428.101E-03     426.224E-03
            2438            3020     374.833E-03     384.124E-03
            2438            3021     336.744E-03     347.472E-03
            2438            3035     428.101E-03     426.224E-03
            2438            3036     391.589E-03     392.888E-03
            2439            3021     336.744E-03     347.472E-03
            2439            3022     300.384E-03     312.381E-03
            2439            3036     391.589E-03     392.888E-03
            2439            3037     355.972E-03     359.433E-03
            2440            3022     300.384E-03     312.381E-03
            2440            3023     265.354E-03     278.341E-03
            2440            3037     355.972E-03     359.433E-03
            2440            3038     320.424E-03     325.685E-03
            2441            3023     265.354E-03     278.341E-03
            2441            3024     230.936E-03     244.590E-03
            2441            3038     320.424E-03     325.685E-03
            2441            3039     285.419E-03     291.715E-03
            2442            3024     230.936E-03     244.590E-03
            2442            3025     197.005E-03     210.972E-03
            2442            3039     285.419E-03     291.715E-03
            2442            3040     250.821E-03     257.756E-03
            2443            3025     197.005E-03     210.972E-03
            2443            3026     163.308E-03     177.245E-03
            2443            3040     250.821E-03     257.756E-03
            2443            3041     217.088E-03     224.061E-03
            2444            3026     163.308E-03     177.245E-03
            2444            3027     129.910E-03     143.378E-03
            2444            3041     217.088E-03     224.061E-03
            2444            3042     184.587E-03     191.272E-03
            2445            3027     129.910E-03     143.378E-03
            2445            3028     96.7510E-03     109.322E-03
            2445            3042     184.587E-03     191.272E-03
            2445            3043     153.985E-03     159.844E-03
            2446            3028     96.7510E-03     109.322E-03
            2446            3029     64.2832E-03     75.1602E-03
            2446            3043     153.985E-03     159.844E-03
            2446            3044     126.250E-03     131.904E-03
            2447            3029     64.2832E-03     75.1602E-03
            2447            3030     32.2033E-03     43.0317E-03
            2447            3044     126.250E-03     131.904E-03
            2447            3045     99.7867E-03     111.292E-03
            2448             132     86.2405E-03     103.332E-03
            2448             133     16.0947E-03     28.0357E-03
            2448            3030     32.2033E-03     43.0317E-03
            2448            3045     99.7867E-03     111.292E-03
            2449             278     636.437E-03     647.098E-03
            2449             279     633.448E-03     618.075E-03
            2449            3031     600.670E-03     601.680E-03
            2449            3046     621.736E-03     608.878E-03
            2450            3031     600.670E-03     601.680E-03
            2450            3032     545.366E-03     535.296E-03
            2450            3046     621.736E-03     608.878E-03
            2450            3047     595.179E-03     584.062E-03
            2451            3032     545.366E-03     535.296E-03
            2451            3033     504.191E-03     495.644E-03
            2451            3047     595.179E-03     584.062E-03
            2451            3048     565.115E-03     553.827E-03
            2452            3033     504.191E-03     495.644E-03
            2452            3034     464.839E-03     459.877E-03
            2452            3048     565.115E-03     553.827E-03
            2452            3049     532.144E-03     522.698E-03
            2453            3034     464.839E-03     459.877E-03
            2453            3035     428.101E-03     426.224E-03
            2453            3049     532.144E-03     522.698E-03
            2453            3050     496.285E-03     489.298E-03
            2454            3035     428.101E-03     426.224E-03
            2454            3036     391.589E-03     392.888E-03
            2454            3050     496.285E-03     489.298E-03
            2454            3051     459.161E-03     454.340E-03
            2455            3036     391.589E-03     392.888E-03
            2455            3037     355.972E-03     359.433E-03
            2455            3051     459.161E-03     454.340E-03
            2455            3052     420.887E-03     417.894E-03
            2456            3037     355.972E-03     359.433E-03
            2456            3038     320.424E-03     325.685E-03
            2456            3052     420.887E-03     417.894E-03
            2456            3053     382.302E-03     380.683E-03
            2457            3038     320.424E-03     325.685E-03
            2457            3039     285.419E-03     291.715E-03
            2457            3053     382.302E-03     380.683E-03
            2457            3054     343.738E-03     343.018E-03
            2458            3039     285.419E-03     291.715E-03
            2458            3040     250.821E-03     257.756E-03
            2458            3054     343.738E-03     343.018E-03
            2458            3055     305.800E-03     305.635E-03
            2459            3040     250.821E-03     257.756E-03
            2459            3041     217.088E-03     224.061E-03
            2459            3055     305.800E-03     305.635E-03
            2459            3056     269.033E-03     269.106E-03
            2460            3041     217.088E-03     224.061E-03
            2460            3042     184.587E-03     191.272E-03
            2460            3056     269.033E-03     269.106E-03
            2460            3057     234.325E-03     234.584E-03
            2461            3042     184.587E-03     191.272E-03
            2461            3043     153.985E-03     159.844E-03
            2461            3057     234.325E-03     234.584E-03
            2461            3058     202.580E-03     203.587E-03
            2462            3043     153.985E-03     159.844E-03
            2462            3044     126.250E-03     131.904E-03
            2462            3058     202.580E-03     203.587E-03
            2462            3059     174.783E-03     180.011E-03
            2463            3044     126.250E-03     131.904E-03
            2463            3045     99.7867E-03     111.292E-03
            2463            3059     174.783E-03     180.011E-03
            2463            3060     153.840E-03     168.573E-03
            2464             131     145.591E-03     166.261E-03
            2464             132     86.2405E-03     103.332E-03
            2464            3045     99.7867E-03     111.292E-03
            2464            3060     153.840E-03     168.573E-03
            2465             279     633.448E-03     618.075E-03
            2465             280     668.982E-03     666.855E-03
            2465            3046     621.736E-03     608.878E-03
            2465            3061     655.139E-03     657.609E-03
            2466            3046     621.736E-03     608.878E-03
            2466            3047     595.179E-03     584.062E-03
            2466            3061     655.139E-03     657.609E-03
            2466            3062     624.864E-03     630.965E-03
            2467            3047     595.179E-03     584.062E-03
            2467            3048     565.115E-03     553.827E-03
            2467            3062     624.864E-03     630.965E-03
            2467            3063     590.579E-03     594.616E-03
            2468            3048     565.115E-03     553.827E-03
            2468            3049     532.144E-03     522.698E-03
            2468            3063     590.579E-03     594.616E-03
            2468            3064     553.525E-03     555.682E-03
            2469            3049     532.144E-03     522.698E-03
            2469            3050     496.285E-03     489.298E-03
            2469            3064     553.525E-03     555.682E-03
            2469            3065     513.848E-03     515.032E-03
            2470            3050     496.285E-03     489.298E-03
            2470            3051     459.161E-03     454.340E-03
            2470            3065     513.848E-03     515.032E-03
            2470            3066     472.299E-03     473.376E-03
            2471            3051     459.161E-03     454.340E-03
            2471            3052     420.887E-03     417.894E-03
            2471            3066     472.299E-03     473.376E-03
            2471            3067     429.932E-03     431.141E-03
            2472            3052     420.887E-03     417.894E-03
            2472            3053     382.302E-03     380.683E-03
            2472            3067     429.932E-03     431.141E-03
            2472            3068     387.231E-03     388.683E-03
            2473            3053     382.302E-03     380.683E-03
            2473            3054     343.738E-03     343.018E-03
            2473            3068     387.231E-03     388.683E-03
            2473            3069     344.683E-03     346.443E-03
            2474            3054     343.738E-03     343.018E-03
            2474            3055     305.800E-03     305.635E-03
            2474            3069     344.683E-03     346.443E-03
            2474            3070     302.754E-03     304.751E-03
            2475            3055     305.800E-03     305.635E-03
            2475            3056     269.033E-03     269.106E-03
            2475            3070     302.754E-03     304.751E-03
            2475            3071     261.793E-03     264.256E-03
            2476            3056     269.033E-03     269.106E-03
            2476            3057     234.325E-03     234.584E-03
            2476            3071     261.793E-03     264.256E-03
            2476            3072     222.547E-03     225.825E-03
            2477            3057     234.325E-03     234.584E-03
            2477            3058     202.580E-03     203.587E-03
            2477            3072     222.547E-03     225.825E-03
            2477            3073     185.664E-03     191.300E-03
            2478            3058     202.580E-03     203.587E-03
            2478            3059     174.783E-03     180.011E-03
            2478            3073     185.664E-03     191.300E-03
            2478            3074     153.466E-03     164.276E-03
            2479            3059     174.783E-03     180.011E-03
            2479            3060     153.840E-03     168.573E-03
            2479            3074     153.466E-03     164.276E-03
            2479            3075     134.179E-03     143.324E-03
            2480             130     129.276E-03     133.474E-03
            2480             131     145.591E-03     166.261E-03
            2480            3060     153.840E-03     168.573E-03
            2480            3075     134.179E-03     143.324E-03
            2481             280     668.982E-03     666.855E-03
            2481             281     700.167E-03     705.815E-03
            2481            3061     655.139E-03     657.609E-03
            2481            3076     683.889E-03     692.176E-03
            2482            3061     655.139E-03     657.609E-03
            2482            3062     624.864E-03     630.965E-03
            2482            3076     683.889E-03     692.176E-03
            2482            3077     650.111E-03     662.204E-03
            2483            3062     624.864E-03     630.965E-03
            2483            3063     590.579E-03     594.616E-03
            2483            3077     650.111E-03     662.204E-03
            2483            3078     612.359E-03     624.934E-03
            2484            3063     590.579E-03     594.616E-03
            2484            3064     553.525E-03     555.682E-03
            2484            3078     612.359E-03     624.934E-03
            2484            3079     571.190E-03     581.690E-03
            2485            3064     553.525E-03     555.682E-03
            2485            3065     513.848E-03     515.032E-03
            2485            3079     571.190E-03     581.690E-03
            2485            3080     527.784E-03     536.154E-03
            2486            3065     513.848E-03     515.032E-03
            2486            3066     472.299E-03     473.376E-03
            2486            3080     527.784E-03     536.154E-03
            2486            3081     482.709E-03     489.546E-03
            2487            3066     472.299E-03     473.376E-03
            2487            3067     429.932E-03     431.141E-03
            2487            3081     482.709E-03     489.546E-03
            2487            3082     437.033E-03     442.773E-03
            2488            3067     429.932E-03     431.141E-03
            2488            3068     387.231E-03     388.683E-03
            2488            3082     437.033E-03     442.773E-03
            2488            3083     391.119E-03     396.267E-03
            2489            3068     387.231E-03     388.683E-03
            2489            3069     344.683E-03     346.443E-03
            2489            3083     391.119E-03     396.267E-03
            2489            3084     345.542E-03     350.351E-03
            2490            3069     344.683E-03     346.443E-03
            2490            3070     302.754E-03     304.751E-03
            2490            3084     345.542E-03     350.351E-03
            2490            3085     300.403E-03     305.263E-03
            2491            3070     302.754E-03     304.751E-03
            2491            3071     261.793E-03     264.256E-03
            2491            3085     300.403E-03     305.263E-03
            2491            3086     256.161E-03     261.449E-03
            2492            3071     261.793E-03     264.256E-03
            2492            3072     222.547E-03     225.825E-03
            2492            3086     256.161E-03     261.449E-03
            2492            3087     213.130E-03     219.540E-03
            2493            3072     222.547E-03     225.825E-03
            2493            3073     185.664E-03     191.300E-03
            2493            3087     213.130E-03     219.540E-03
            2493            3088     172.368E-03     181.241E-03
            2494            3073     185.664E-03     191.300E-03
            2494            3074     153.466E-03     164.276E-03
            2494            3088     172.368E-03     181.241E-03
            2494            3089     137.696E-03     147.047E-03
            2495            3074     153.466E-03     164.276E-03
            2495            3075     134.179E-03     143.324E-03
            2495            3089     137.696E-03     147.047E-03
            2495            3090     113.915E-03     118.755E-03
            2496             129     105.219E-03     106.734E-03
            2496             130     129.276E-03     133.474E-03
            2496            3075     134.179E-03     143.324E-03
            2496            3090     113.915E-03     118.755E-03
            2497             281     700.167E-03     705.815E-03
            2497             282     729.423E-03     729.687E-03
            2497            3076     683.889E-03     692.176E-03
            2497            3091     709.985E-03     716.428E-03
            2498            3076     683.889E-03     692.176E-03
            2498            3077     650.111E-03     662.204E-03
            2498            3091     709.985E-03     716.428E-03
            2498            3092     670.472E-03     684.890E-03
            2499            3077     650.111E-03     662.204E-03
            2499            3078     612.359E-03     624.934E-03
            2499            3092     670.472E-03     684.890E-03
            2499            3093     629.134E-03     645.075E-03
            2500            3078     612.359E-03     624.934E-03
            2500            3079     571.190E-03     581.690E-03
            2500            3093     629.134E-03     645.075E-03
            2500            3094     584.054E-03     599.404E-03
            2501            3079     571.190E-03     581.690E-03
            2501            3080     527.784E-03     536.154E-03
            2501            3094     584.054E-03     599.404E-03
            2501            3095     536.859E-03     550.390E-03
            2502            3080     527.784E-03     536.154E-03
            2502            3081     482.709E-03     489.546E-03
            2502            3095     536.859E-03     550.390E-03
            2502            3096     489.004E-03     500.353E-03
            2503            3081     482.709E-03     489.546E-03
            2503            3082     437.033E-03     442.773E-03
            2503            3096     489.004E-03     500.353E-03
            2503            3097     440.631E-03     450.449E-03
            2504            3082     437.033E-03     442.773E-03
            2504            3083     391.119E-03     396.267E-03
            2504            3097     440.631E-03     450.449E-03
            2504            3098     392.656E-03     401.233E-03
            2505            3083     391.119E-03     396.267E-03
            2505            3084     345.542E-03     350.351E-03
            2505            3098     392.656E-03     401.233E-03
            2505            3099     344.869E-03     352.775E-03
            2506            3084     345.542E-03     350.351E-03
            2506            3085     300.403E-03     305.263E-03
            2506            3099     344.869E-03     352.775E-03
            2506            3100     297.642E-03     305.340E-03
            2507            3085     300.403E-03     305.263E-03
            2507            3086     256.161E-03     261.449E-03
            2507            3100     297.642E-03     305.340E-03
            2507            3101     251.009E-03     259.017E-03
            2508            3086     256.161E-03     261.449E-03
            2508            3087     213.130E-03     219.540E-03
            2508            3101     251.009E-03     259.017E-03
            2508            3102     205.354E-03     214.378E-03
            2509            3087     213.130E-03     219.540E-03
            2509            3088     172.368E-03     181.241E-03
            2509            3102     205.354E-03     214.378E-03
            2509            3103     161.900E-03     171.877E-03
            2510            3088     172.368E-03     181.241E-03
            2510            3089     137.696E-03     147.047E-03
            2510            3103     161.900E-03     171.877E-03
            2510            3104     123.211E-03     132.107E-03
            2511            3089     137.696E-03     147.047E-03
            2511            3090     113.915E-03     118.755E-03
            2511            3104     123.211E-03     132.107E-03
            2511            3105     95.0749E-03     100.182E-03
            2512             128     84.7155E-03     87.2913E-03
            2512             129     105.219E-03     106.734E-03
            2512            3090     113.915E-03     118.755E-03
            2512            3105     95.0749E-03     100.182E-03
            2513             282     729.423E-03     729.687E-03
            2513             283     750.420E-03     757.963E-03
            2513            3091     709.985E-03     716.428E-03
            2513            3106     730.660E-03     739.601E-03
            2514            3091     709.985E-03     716.428E-03
            2514            3092     670.472E-03     684.890E-03
            2514            3106     730.660E-03     739.601E-03
            2514            3107     688.280E-03     701.612E-03
            2515            3092     670.472E-03     684.890E-03
            2515            3093     629.134E-03     645.075E-03
            2515            3107     688.280E-03     701.612E-03
            2515            3108     640.633E-03     658.262E-03
            2516            3093     629.134E-03     645.075E-03
            2516            3094     584.054E-03     599.404E-03
            2516            3108     640.633E-03     658.262E-03
            2516            3109     591.142E-03     608.945E-03
            2517            3094     584.054E-03     599.404E-03
            2517            3095     536.859E-03     550.390E-03
            2517            3109     591.142E-03     608.945E-03
            2517            3110     540.679E-03     556.922E-03
            2518            3095     536.859E-03     550.390E-03
            2518            3096     489.004E-03     500.353E-03
            2518            3110     540.679E-03     556.922E-03
            2518            3111     490.016E-03     504.608E-03
            2519            3096     489.004E-03     500.353E-03
            2519            3097     440.631E-03     450.449E-03
            2519            3111     490.016E-03     504.608E-03
            2519            3112     440.358E-03     453.052E-03
            2520            3097     440.631E-03     450.449E-03
            2520            3098     392.656E-03     401.233E-03
            2520            3112     440.358E-03     453.052E-03
            2520            3113     390.932E-03     402.321E-03
            2521            3098     392.656E-03     401.233E-03
            2521            3099     344.869E-03     352.775E-03
            2521            3113     390.932E-03     402.321E-03
            2521            3114     342.121E-03     352.632E-03
            2522            3099     344.869E-03     352.775E-03
            2522            3100     297.642E-03     305.340E-03
            2522            3114     342.121E-03     352.632E-03
            2522            3115     293.677E-03     303.792E-03
            2523            3100     297.642E-03     305.340E-03
            2523            3101     251.009E-03     259.017E-03
            2523            3115     293.677E-03     303.792E-03
            2523            3116     245.707E-03     255.986E-03
            2524            3101     251.009E-03     259.017E-03
            2524            3102     205.354E-03     214.378E-03
            2524            3116     245.707E-03     255.986E-03
            2524            3117     198.488E-03     209.300E-03
            2525            3102     205.354E-03     214.378E-03
            2525            3103     161.900E-03     171.877E-03
            2525            3117     198.488E-03     209.300E-03
            2525            3118     152.788E-03     163.630E-03
            2526            3103     161.900E-03     171.877E-03
            2526            3104     123.211E-03     132.107E-03
            2526            3118     152.788E-03     163.630E-03
            2526            3119     110.300E-03     120.645E-03
            2527            3104     123.211E-03     132.107E-03
            2527            3105     95.0749E-03     100.182E-03
            2527            3119     110.300E-03     120.645E-03
            2527            3120     77.2826E-03     82.9694E-03
            2528             127     64.3723E-03     65.7004E-03
            2528             128     84.7155E-03     87.2913E-03
            2528            3105     95.0749E-03     100.182E-03
            2528            3120     77.2826E-03     82.9694E-03
            2529             283     750.420E-03     757.963E-03
            2529             284     776.739E-03     777.147E-03
            2529            3106     730.660E-03     739.601E-03
            2529            3121     752.038E-03     758.844E-03
            2530            3106     730.660E-03     739.601E-03
            2530            3107     688.280E-03     701.612E-03
            2530            3121     752.038E-03     758.844E-03
            2530            3122     700.714E-03     715.977E-03
            2531            3107     688.280E-03     701.612E-03
            2531            3108     640.633E-03     658.262E-03
            2531            3122     700.714E-03     715.977E-03
            2531            3123     647.221E-03     664.766E-03
            2532            3108     640.633E-03     658.262E-03
            2532            3109     591.142E-03     608.945E-03
            2532            3123     647.221E-03     664.766E-03
            2532            3124     591.936E-03     610.158E-03
            2533            3109     591.142E-03     608.945E-03
            2533            3110     540.679E-03     556.922E-03
            2533            3124     591.936E-03     610.158E-03
            2533            3125     537.782E-03     555.455E-03
            2534            3110     540.679E-03     556.922E-03
            2534            3111     490.016E-03     504.608E-03
            2534            3125     537.782E-03     555.455E-03
            2534            3126     486.294E-03     502.246E-03
            2535            3111     490.016E-03     504.608E-03
            2535            3112     440.358E-03     453.052E-03
            2535            3126     486.294E-03     502.246E-03
            2535            3127     435.687E-03     450.177E-03
            2536            3112     440.358E-03     453.052E-03
            2536            3113     390.932E-03     402.321E-03
            2536            3127     435.687E-03     450.177E-03
            2536            3128     386.124E-03     399.398E-03
            2537            3113     390.932E-03     402.321E-03
            2537            3114     342.121E-03     352.632E-03
            2537            3128     386.124E-03     399.398E-03
            2537            3129     337.019E-03     349.471E-03
            2538            3114     342.121E-03     352.632E-03
            2538            3115     293.677E-03     303.792E-03
            2538            3129     337.019E-03     349.471E-03
            2538            3130     288.328E-03     300.383E-03
            2539            3115     293.677E-03     303.792E-03
            2539            3116     245.707E-03     255.986E-03
            2539            3130     288.328E-03     300.383E-03
            2539            3131     239.986E-03     251.937E-03
            2540            3116     245.707E-03     255.986E-03
            2540            3117     198.488E-03     209.300E-03
            2540            3131     239.986E-03     251.937E-03
            2540            3132     192.029E-03     204.076E-03
            2541            3117     198.488E-03     209.300E-03
            2541            3118     152.788E-03     163.630E-03
            2541            3132     192.029E-03     204.076E-03
            2541            3133     144.729E-03     157.209E-03
            2542            3118     152.788E-03     163.630E-03
            2542            3119     110.300E-03     120.645E-03
            2542            3133     144.729E-03     157.209E-03
            2542            3134     99.5315E-03     110.978E-03
            2543            3119     110.300E-03     120.645E-03
            2543            3120     77.2826E-03     82.9694E-03
            2543            3134     99.5315E-03     110.978E-03
            2543            3135     60.6773E-03     68.6982E-03
            2544             126     43.6274E-03     49.5372E-03
            2544             127     64.3723E-03     65.7004E-03
            2544            3120     77.2826E-03     82.9694E-03
            2544            3135     60.6773E-03     68.6982E-03
            2545             284     776.739E-03     777.147E-03
            2545             285     794.884E-03     806.316E-03
            2545            3121     752.038E-03     758.844E-03
            2545            3136     768.183E-03     779.705E-03
            2546            3121     752.038E-03     758.844E-03
            2546            3122     700.714E-03     715.977E-03
            2546            3136     768.183E-03     779.705E-03
            2546            3137     710.285E-03     723.653E-03
            2547            3122     700.714E-03     715.977E-03
            2547            3123     647.221E-03     664.766E-03
            2547            3137     710.285E-03     723.653E-03
            2547            3138     645.587E-03     662.172E-03
            2548            3123     647.221E-03     664.766E-03
            2548            3124     591.936E-03     610.158E-03
            2548            3138     645.587E-03     662.172E-03
            2548            3139     584.106E-03     601.949E-03
            2549            3124     591.936E-03     610.158E-03
            2549            3125     537.782E-03     555.455E-03
            2549            3139     584.106E-03     601.949E-03
            2549            3140     529.525E-03     546.558E-03
            2550            3125     537.782E-03     555.455E-03
            2550            3126     486.294E-03     502.246E-03
            2550            3140     529.525E-03     546.558E-03
            2550            3141     477.566E-03     493.560E-03
            2551            3126     486.294E-03     502.246E-03
            2551            3127     435.687E-03     450.177E-03
            2551            3141     477.566E-03     493.560E-03
            2551            3142     427.519E-03     442.625E-03
            2552            3127     435.687E-03     450.177E-03
            2552            3128     386.124E-03     399.398E-03
            2552            3142     427.519E-03     442.625E-03
            2552            3143     378.460E-03     392.815E-03
            2553            3128     386.124E-03     399.398E-03
            2553            3129     337.019E-03     349.471E-03
            2553            3143     378.460E-03     392.815E-03
            2553            3144     329.960E-03     343.849E-03
            2554            3129     337.019E-03     349.471E-03
            2554            3130     288.328E-03     300.383E-03
            2554            3144     329.960E-03     343.849E-03
            2554            3145     281.814E-03     295.377E-03
            2555            3130     288.328E-03     300.383E-03
            2555            3131     239.986E-03     251.937E-03
            2555            3145     281.814E-03     295.377E-03
            2555            3146     233.871E-03     247.237E-03
            2556            3131     239.986E-03     251.937E-03
            2556            3132     192.029E-03     204.076E-03
            2556            3146     233.871E-03     247.237E-03
            2556            3147     186.123E-03     199.366E-03
            2557            3132     192.029E-03     204.076E-03
            2557            3133     144.729E-03     157.209E-03
            2557            3147     186.123E-03     199.366E-03
            2557            3148     138.508E-03     151.796E-03
            2558            3133     144.729E-03     157.209E-03
            2558            3134     99.5315E-03     110.978E-03
            2558            3148     138.508E-03     151.796E-03
            2558            3149     91.1145E-03     105.157E-03
            2559            3134     99.5315E-03     110.978E-03
            2559            3135     60.6773E-03     68.6982E-03
            2559            3149     91.1145E-03     105.157E-03
            2559            3150     47.2704E-03     58.5297E-03
            2560             125     27.0270E-03     34.8682E-03
            2560             126     43.6274E-03     49.5372E-03
            2560            3135     60.6773E-03     68.6982E-03
            2560            3150     47.2704E-03     58.5297E-03
            2561             285     794.884E-03     806.316E-03
            2561             286     821.225E-03     818.221E-03
            2561            3136     768.183E-03     779.705E-03
            2561            3151     786.284E-03     789.101E-03
            2562            3136     768.183E-03     779.705E-03
            2562            3137     710.285E-03     723.653E-03
            2562            3151     786.284E-03     789.101E-03
            2562            3152     707.367E-03     718.819E-03
            2563            3137     710.285E-03     723.653E-03
            2563            3138     645.587E-03     662.172E-03
            2563            3152     707.367E-03     718.819E-03
            2563            3153     630.731E-03     645.577E-03
            2564            3138     645.587E-03     662.172E-03
            2564            3139     584.106E-03     601.949E-03
            2564            3153     630.731E-03     645.577E-03
            2564            3154     570.320E-03     585.213E-03
            2565            3139     584.106E-03     601.949E-03
            2565            3140     529.525E-03     546.558E-03
            2565            3154     570.320E-03     585.213E-03
            2565            3155     516.240E-03     530.885E-03
            2566            3140     529.525E-03     546.558E-03
            2566            3141     477.566E-03     493.560E-03
            2566            3155     516.240E-03     530.885E-03
            2566            3156     465.412E-03     480.265E-03
            2567            3141     477.566E-03     493.560E-03
            2567            3142     427.519E-03     442.625E-03
            2567            3156     465.412E-03     480.265E-03
            2567            3157     416.711E-03     431.592E-03
            2568            3142     427.519E-03     442.625E-03
            2568            3143     378.460E-03     392.815E-03
            2568            3157     416.711E-03     431.592E-03
            2568            3158     368.867E-03     383.915E-03
            2569            3143     378.460E-03     392.815E-03
            2569            3144     329.960E-03     343.849E-03
            2569            3158     368.867E-03     383.915E-03
            2569            3159     321.665E-03     336.770E-03
            2570            3144     329.960E-03     343.849E-03
            2570            3145     281.814E-03     295.377E-03
            2570            3159     321.665E-03     336.770E-03
            2570            3160     274.709E-03     289.772E-03
            2571            3145     281.814E-03     295.377E-03
            2571            3146     233.871E-03     247.237E-03
            2571            3160     274.709E-03     289.772E-03
            2571            3161     227.952E-03     242.846E-03
            2572            3146     233.871E-03     247.237E-03
            2572            3147     186.123E-03     199.366E-03
            2572            3161     227.952E-03     242.846E-03
            2572            3162     181.343E-03     195.841E-03
            2573            3147     186.123E-03     199.366E-03
            2573            3148     138.508E-03     151.796E-03
            2573            3162     181.343E-03     195.841E-03
            2573            3163     134.861E-03     148.790E-03
            2574            3148     138.508E-03     151.796E-03
            2574            3149     91.1145E-03     105.157E-03
            2574            3163     134.861E-03     148.790E-03
            2574            3164     88.1391E-03     102.592E-03
            2575            3149     91.1145E-03     105.157E-03
            2575            3150     47.2704E-03     58.5297E-03
            2575            3164     88.1391E-03     102.592E-03
            2575            3165     42.5733E-03     58.5888E-03
            2576             124     20.4951E-03     37.2453E-03
            2576             125     27.0270E-03     34.8682E-03
            2576            3150     47.2704E-03     58.5297E-03
            2576            3165     42.5733E-03     58.5888E-03
            2577             286     821.225E-03     818.221E-03
            2577             287     841.899E-03     840.039E-03
            2577            3151     786.284E-03     789.101E-03
            2577            3166     783.290E-03     786.944E-03
            2578            3151     786.284E-03     789.101E-03
            2578            3152     707.367E-03     718.819E-03
            2578            3166     783.290E-03     786.944E-03
            2578            3167     681.892E-03     690.055E-03
            2579            3152     707.367E-03     718.819E-03
            2579            3153     630.731E-03     645.577E-03
            2579            3167     681.892E-03     690.055E-03
            2579            3168     609.952E-03     617.447E-03
            2580            3153     630.731E-03     645.577E-03
            2580            3154     570.320E-03     585.213E-03
            2580            3168     609.952E-03     617.447E-03
            2580            3169     552.734E-03     561.624E-03
            2581            3154     570.320E-03     585.213E-03
            2581            3155     516.240E-03     530.885E-03
            2581            3169     552.734E-03     561.624E-03
            2581            3170     500.234E-03     511.253E-03
            2582            3155     516.240E-03     530.885E-03
            2582            3156     465.412E-03     480.265E-03
            2582            3170     500.234E-03     511.253E-03
            2582            3171     451.691E-03     464.666E-03
            2583            3156     465.412E-03     480.265E-03
            2583            3157     416.711E-03     431.592E-03
            2583            3171     451.691E-03     464.666E-03
            2583            3172     404.557E-03     419.212E-03
            2584            3157     416.711E-03     431.592E-03
            2584            3158     368.867E-03     383.915E-03
            2584            3172     404.557E-03     419.212E-03
            2584            3173     358.634E-03     374.521E-03
            2585            3158     368.867E-03     383.915E-03
            2585            3159     321.665E-03     336.770E-03
            2585            3173     358.634E-03     374.521E-03
            2585            3174     313.138E-03     329.785E-03
            2586            3159     321.665E-03     336.770E-03
            2586            3160     274.709E-03     289.772E-03
            2586            3174     313.138E-03     329.785E-03
            2586            3175     268.041E-03     285.039E-03
            2587            3160     274.709E-03     289.772E-03
            2587            3161     227.952E-03     242.846E-03
            2587            3175     268.041E-03     285.039E-03
            2587            3176     223.196E-03     240.014E-03
            2588            3161     227.952E-03     242.846E-03
            2588            3162     181.343E-03     195.841E-03
            2588            3176     223.196E-03     240.014E-03
            2588            3177     178.721E-03     194.869E-03
            2589            3162     181.343E-03     195.841E-03
            2589            3163     134.861E-03     148.790E-03
            2589            3177     178.721E-03     194.869E-03
            2589            3178     134.870E-03     149.707E-03
            2590            3163     134.861E-03     148.790E-03
            2590            3164     88.1391E-03     102.592E-03
            2590            3178     134.870E-03     149.707E-03
            2590            3179     92.4321E-03     105.175E-03
            2591            3164     88.1391E-03     102.592E-03
            2591            3165     42.5733E-03     58.5888E-03
            2591            3179     92.4321E-03     105.175E-03
            2591            3180     52.6064E-03     66.6915E-03
            2592             123     33.4994E-03     50.1721E-03
            2592             124     20.4951E-03     37.2453E-03
            2592            3165     42.5733E-03     58.5888E-03
            2592            3180     52.6064E-03     66.6915E-03
            2593             287     841.899E-03     840.039E-03
            2593             288     810.282E-03     825.880E-03
            2593            3166     783.290E-03     786.944E-03
            2593            3181     766.752E-03     771.240E-03
            2594            3166     783.290E-03     786.944E-03
            2594            3167     681.892E-03     690.055E-03
            2594            3181     766.752E-03     771.240E-03
            2594            3182     700.169E-03     691.654E-03
            2595            3167     681.892E-03     690.055E-03
            2595            3168     609.952E-03     617.447E-03
            2595            3182     700.169E-03     691.654E-03
            2595            3183     649.428E-03     643.353E-03
            2596            3168     609.952E-03     617.447E-03
            2596            3169     552.734E-03     561.624E-03
            2596            3183     649.428E-03     643.353E-03
            2596            3184     598.657E-03     597.157E-03
            2597            3169     552.734E-03     561.624E-03
            2597            3170     500.234E-03     511.253E-03
            2597            3184     598.657E-03     597.157E-03
            2597            3185     550.527E-03     552.121E-03
            2598            3170     500.234E-03     511.253E-03
            2598            3171     451.691E-03     464.666E-03
            2598            3185     550.527E-03     552.121E-03
            2598            3186     502.124E-03     506.479E-03
            2599            3171     451.691E-03     464.666E-03
            2599            3172     404.557E-03     419.212E-03
            2599            3186     502.124E-03     506.479E-03
            2599            3187     454.539E-03     460.349E-03
            2600            3172     404.557E-03     419.212E-03
            2600            3173     358.634E-03     374.521E-03
            2600            3187     454.539E-03     460.349E-03
            2600            3188     406.879E-03     413.934E-03
            2601            3173     358.634E-03     374.521E-03
            2601            3174     313.138E-03     329.785E-03
            2601            3188     406.879E-03     413.934E-03
            2601            3189     359.564E-03     367.108E-03
            2602            3174     313.138E-03     329.785E-03
            2602            3175     268.041E-03     285.039E-03
            2602            3189     359.564E-03     367.108E-03
            2602            3190     312.402E-03     320.376E-03
            2603            3175     268.041E-03     285.039E-03
            2603            3176     223.196E-03     240.014E-03
            2603            3190     312.402E-03     320.376E-03
            2603            3191     265.893E-03     273.797E-03
            2604            3176     223.196E-03     240.014E-03
            2604            3177     178.721E-03     194.869E-03
            2604            3191     265.893E-03     273.797E-03
            2604            3192     220.497E-03     228.097E-03
            2605            3177     178.721E-03     194.869E-03
            2605            3178     134.870E-03     149.707E-03
            2605            3192     220.497E-03     228.097E-03
            2605            3193     177.209E-03     183.748E-03
            2606            3178     134.870E-03     149.707E-03
            2606            3179     92.4321E-03     105.175E-03
            2606            3193     177.209E-03     183.748E-03
            2606            3194     138.029E-03     143.641E-03
            2607            3179     92.4321E-03     105.175E-03
            2607            3180     52.6064E-03     66.6915E-03
            2607            3194     138.029E-03     143.641E-03
            2607            3195     103.444E-03     113.536E-03
            2608             122     86.9168E-03     101.947E-03
            2608             123     33.4994E-03     50.1721E-03
            2608            3180     52.6064E-03     66.6915E-03
            2608            3195     103.444E-03     113.536E-03
            2609             288     810.282E-03     825.880E-03
            2609             289     806.561E-03     796.814E-03
            2609            3181     766.752E-03     771.240E-03
            2609            3196     790.889E-03     783.438E-03
            2610            3181     766.752E-03     771.240E-03
            2610            3182     700.169E-03     691.654E-03
            2610            3196     790.889E-03     783.438E-03
            2610            3197     754.229E-03     749.049E-03
            2611            3182     700.169E-03     691.654E-03
            2611            3183     649.428E-03     643.353E-03
            2611            3197     754.229E-03     749.049E-03
            2611            3198     711.138E-03     706.934E-03
            2612            3183     649.428E-03     643.353E-03
            2612            3184     598.657E-03     597.157E-03
            2612            3198     711.138E-03     706.934E-03
            2612            3199     664.469E-03     661.523E-03
            2613            3184     598.657E-03     597.157E-03
            2613            3185     550.527E-03     552.121E-03
            2613            3199     664.469E-03     661.523E-03
            2613            3200     614.046E-03     612.502E-03
            2614            3185     550.527E-03     552.121E-03
            2614            3186     502.124E-03     506.479E-03
            2614            3200     614.046E-03     612.502E-03
            2614            3201     562.576E-03     562.085E-03
            2615            3186     502.124E-03     506.479E-03
            2615            3187     454.539E-03     460.349E-03
            2615            3201     562.576E-03     562.085E-03
            2615            3202     510.753E-03     510.554E-03
            2616            3187     454.539E-03     460.349E-03
            2616            3188     406.879E-03     413.934E-03
            2616            3202     510.753E-03     510.554E-03
            2616            3203     458.605E-03     458.687E-03
            2617            3188     406.879E-03     413.934E-03
            2617            3189     359.564E-03     367.108E-03
            2617            3203     458.605E-03     458.687E-03
            2617            3204     406.600E-03     406.673E-03
            2618            3189     359.564E-03     367.108E-03
            2618            3190     312.402E-03     320.376E-03
            2618            3204     406.600E-03     406.673E-03
            2618            3205     354.863E-03     355.007E-03
            2619            3190     312.402E-03     320.376E-03
            2619            3191     265.893E-03     273.797E-03
            2619            3205     354.863E-03     355.007E-03
            2619            3206     303.900E-03     304.026E-03
            2620            3191     265.893E-03     273.797E-03
            2620            3192     220.497E-03     228.097E-03
            2620            3206     303.900E-03     304.026E-03
            2620            3207     254.442E-03     254.686E-03
            2621            3192     220.497E-03     228.097E-03
            2621            3193     177.209E-03     183.748E-03
            2621            3207     254.442E-03     254.686E-03
            2621            3208     207.577E-03     208.140E-03
            2622            3193     177.209E-03     183.748E-03
            2622            3194     138.029E-03     143.641E-03
            2622            3208     207.577E-03     208.140E-03
            2622            3209     165.291E-03     168.385E-03
            2623            3194     138.029E-03     143.641E-03
            2623            3195     103.444E-03     113.536E-03
            2623            3209     165.291E-03     168.385E-03
            2623            3210     132.156E-03     143.818E-03
            2624             121     118.610E-03     136.509E-03
            2624             122     86.9168E-03     101.947E-03
            2624            3195     103.444E-03     113.536E-03
            2624            3210     132.156E-03     143.818E-03
            2625             289     806.561E-03     796.814E-03
            2625             290     847.883E-03     845.570E-03
            2625            3196     790.889E-03     783.438E-03
            2625            3211     829.390E-03     836.134E-03
            2626            3196     790.889E-03     783.438E-03
            2626            3197     754.229E-03     749.049E-03
            2626            3211     829.390E-03     836.134E-03
            2626            3212     785.069E-03     799.803E-03
            2627            3197     754.229E-03     749.049E-03
            2627            3198     711.138E-03     706.934E-03
            2627            3212     785.069E-03     799.803E-03
            2627            3213     733.242E-03     744.253E-03
            2628            3198     711.138E-03     706.934E-03
            2628            3199     664.469E-03     661.523E-03
            2628            3213     733.242E-03     744.253E-03
            2628            3214     678.246E-03     686.113E-03
            2629            3199     664.469E-03     661.523E-03
            2629            3200     614.046E-03     612.502E-03
            2629            3214     678.246E-03     686.113E-03
            2629            3215     621.661E-03     628.118E-03
            2630            3200     614.046E-03     612.502E-03
            2630            3201     562.576E-03     562.085E-03
            2630            3215     621.661E-03     628.118E-03
            2630            3216     565.918E-03     571.515E-03
            2631            3201     562.576E-03     562.085E-03
            2631            3202     510.753E-03     510.554E-03
            2631            3216     565.918E-03     571.515E-03
            2631            3217     510.170E-03     515.559E-03
            2632            3202     510.753E-03     510.554E-03
            2632            3203     458.605E-03     458.687E-03
            2632            3217     510.170E-03     515.559E-03
            2632            3218     454.946E-03     460.190E-03
            2633            3203     458.605E-03     458.687E-03
            2633            3204     406.600E-03     406.673E-03
            2633            3218     454.946E-03     460.190E-03
            2633            3219     400.040E-03     405.260E-03
            2634            3204     406.600E-03     406.673E-03
            2634            3205     354.863E-03     355.007E-03
            2634            3219     400.040E-03     405.260E-03
            2634            3220     345.691E-03     350.750E-03
            2635            3205     354.863E-03     355.007E-03
            2635            3206     303.900E-03     304.026E-03
            2635            3220     345.691E-03     350.750E-03
            2635            3221     291.919E-03     296.898E-03
            2636            3206     303.900E-03     304.026E-03
            2636            3207     254.442E-03     254.686E-03
            2636            3221     291.919E-03     296.898E-03
            2636            3222     239.163E-03     244.180E-03
            2637            3207     254.442E-03     254.686E-03
            2637            3208     207.577E-03     208.140E-03
            2637            3222     239.163E-03     244.180E-03
            2637            3223     187.821E-03     193.945E-03
            2638            3208     207.577E-03     208.140E-03
            2638            3209     165.291E-03     168.385E-03
            2638            3223     187.821E-03     193.945E-03
            2638            3224     139.793E-03     149.768E-03
            2639            3209     165.291E-03     168.385E-03
            2639            3210     132.156E-03     143.818E-03
            2639            3224     139.793E-03     149.768E-03
            2639            3225     104.843E-03     113.395E-03
            2640             120     92.6323E-03     96.9165E-03
            2640             121     118.610E-03     136.509E-03
            2640            3210     132.156E-03     143.818E-03
            2640            3225     104.843E-03     113.395E-03
            2641             290     847.883E-03     845.570E-03
            2641             291     876.228E-03     895.716E-03
            2641            3211     829.390E-03     836.134E-03
            2641            3226     854.507E-03     874.262E-03
            2642            3211     829.390E-03     836.134E-03
            2642            3212     785.069E-03     799.803E-03
            2642            3226     854.507E-03     874.262E-03
            2642            3227     805.130E-03     824.884E-03
            2643            3212     785.069E-03     799.803E-03
            2643            3213     733.242E-03     744.253E-03
            2643            3227     805.130E-03     824.884E-03
            2643            3228     743.167E-03     762.248E-03
            2644            3213     733.242E-03     744.253E-03
            2644            3214     678.246E-03     686.113E-03
            2644            3228     743.167E-03     762.248E-03
            2644            3229     680.198E-03     696.544E-03
            2645            3214     678.246E-03     686.113E-03
            2645            3215     621.661E-03     628.118E-03
            2645            3229     680.198E-03     696.544E-03
            2645            3230     622.100E-03     635.245E-03
            2646            3215     621.661E-03     628.118E-03
            2646            3216     565.918E-03     571.515E-03
            2646            3230     622.100E-03     635.245E-03
            2646            3231     564.086E-03     575.706E-03
            2647            3216     565.918E-03     571.515E-03
            2647            3217     510.170E-03     515.559E-03
            2647            3231     564.086E-03     575.706E-03
            2647            3232     506.925E-03     517.877E-03
            2648            3217     510.170E-03     515.559E-03
            2648            3218     454.946E-03     460.190E-03
            2648            3232     506.925E-03     517.877E-03
            2648            3233     450.112E-03     460.829E-03
            2649            3218     454.946E-03     460.190E-03
            2649            3219     400.040E-03     405.260E-03
            2649            3233     450.112E-03     460.829E-03
            2649            3234     393.767E-03     404.341E-03
            2650            3219     400.040E-03     405.260E-03
            2650            3220     345.691E-03     350.750E-03
            2650            3234     393.767E-03     404.341E-03
            2650            3235     337.774E-03     348.247E-03
            2651            3220     345.691E-03     350.750E-03
            2651            3221     291.919E-03     296.898E-03
            2651            3235     337.774E-03     348.247E-03
            2651            3236     282.264E-03     292.615E-03
            2652            3221     291.919E-03     296.898E-03
            2652            3222     239.163E-03     244.180E-03
            2652            3236     282.264E-03     292.615E-03
            2652            3237     227.163E-03     237.558E-03
            2653            3222     239.163E-03     244.180E-03
            2653            3223     187.821E-03     193.945E-03
            2653            3237     227.163E-03     237.558E-03
            2653            3238     172.601E-03     184.274E-03
            2654            3223     187.821E-03     193.945E-03
            2654            3224     139.793E-03     149.768E-03
            2654            3238     172.601E-03     184.274E-03
            2654            3239     120.564E-03     133.881E-03
            2655            3224     139.793E-03     149.768E-03
            2655            3225     104.843E-03     113.395E-03
            2655            3239     120.564E-03     133.881E-03
            2655            3240     77.9285E-03     85.9592E-03
            2656             119     60.2391E-03     62.6300E-03
            2656             120     92.6323E-03     96.9165E-03
            2656            3225     104.843E-03     113.395E-03
            2656            3240     77.9285E-03     85.9592E-03
            2657             291     876.228E-03     895.716E-03
            2657             292     910.936E-03     907.741E-03
            2657            3226     854.507E-03     874.262E-03
            2657            3241     879.732E-03     887.117E-03
            2658            3226     854.507E-03     874.262E-03
            2658            3227     805.130E-03     824.884E-03
            2658            3241     879.732E-03     887.117E-03
            2658            3242     806.465E-03     827.217E-03
            2659            3227     805.130E-03     824.884E-03
            2659            3228     743.167E-03     762.248E-03
            2659            3242     806.465E-03     827.217E-03
            2659            3243     733.253E-03     755.343E-03
            2660            3228     743.167E-03     762.248E-03
            2660            3229     680.198E-03     696.544E-03
            2660            3243     733.253E-03     755.343E-03
            2660            3244     672.372E-03     691.899E-03
            2661            3229     680.198E-03     696.544E-03
            2661            3230     622.100E-03     635.245E-03
            2661            3244     672.372E-03     691.899E-03
            2661            3245     613.944E-03     631.554E-03
            2662            3230     622.100E-03     635.245E-03
            2662            3231     564.086E-03     575.706E-03
            2662            3245     613.944E-03     631.554E-03
            2662            3246     556.763E-03     573.479E-03
            2663            3231     564.086E-03     575.706E-03
            2663            3232     506.925E-03     517.877E-03
            2663            3246     556.763E-03     573.479E-03
            2663            3247     499.982E-03     516.335E-03
            2664            3232     506.925E-03     517.877E-03
            2664            3233     450.112E-03     460.829E-03
            2664            3247     499.982E-03     516.335E-03
            2664            3248     443.400E-03     459.654E-03
            2665            3233     450.112E-03     460.829E-03
            2665            3234     393.767E-03     404.341E-03
            2665            3248     443.400E-03     459.654E-03
            2665            3249     386.998E-03     403.226E-03
            2666            3234     393.767E-03     404.341E-03
            2666            3235     337.774E-03     348.247E-03
            2666            3249     386.998E-03     403.226E-03
            2666            3250     330.756E-03     346.918E-03
            2667            3235     337.774E-03     348.247E-03
            2667            3236     282.264E-03     292.615E-03
            2667            3250     330.756E-03     346.918E-03
            2667            3251     274.636E-03     290.714E-03
            2668            3236     282.264E-03     292.615E-03
            2668            3237     227.163E-03     237.558E-03
            2668            3251     274.636E-03     290.714E-03
            2668            3252     218.658E-03     234.778E-03
            2669            3237     227.163E-03     237.558E-03
            2669            3238     172.601E-03     184.274E-03
            2669            3252     218.658E-03     234.778E-03
            2669            3253     162.955E-03     179.198E-03
            2670            3238     172.601E-03     184.274E-03
            2670            3239     120.564E-03     133.881E-03
            2670            3253     162.955E-03     179.198E-03
            2670            3254     108.101E-03     123.602E-03
            2671            3239     120.564E-03     133.881E-03
            2671            3240     77.9285E-03     85.9592E-03
            2671            3254     108.101E-03     123.602E-03
            2671            3255     55.8380E-03     72.6857E-03
            2672             118     30.7120E-03     49.5122E-03
            2672             119     60.2391E-03     62.6300E-03
            2672            3240     77.9285E-03     85.9592E-03
            2672            3255     55.8380E-03     72.6857E-03
            2673             292     910.936E-03     907.741E-03
            2673             293     932.765E-03     934.953E-03
            2673            3241     879.732E-03     887.117E-03
            2673            3256     877.542E-03     886.539E-03
            2674            3241     879.732E-03     887.117E-03
            2674            3242     806.465E-03     827.217E-03
            2674            3256     877.542E-03     886.539E-03
            2674            3257     781.823E-03     798.221E-03
            2675            3242     806.465E-03     827.217E-03
            2675            3243     733.253E-03     755.343E-03
            2675            3257     781.823E-03     798.221E-03
            2675            3258     712.784E-03     730.622E-03
            2676            3243     733.253E-03     755.343E-03
            2676            3244     672.372E-03     691.899E-03
            2676            3258     712.784E-03     730.622E-03
            2676            3259     655.419E-03     674.633E-03
            2677            3244     672.372E-03     691.899E-03
            2677            3245     613.944E-03     631.554E-03
            2677            3259     655.419E-03     674.633E-03
            2677            3260     599.348E-03     619.957E-03
            2678            3245     613.944E-03     631.554E-03
            2678            3246     556.763E-03     573.479E-03
            2678            3260     599.348E-03     619.957E-03
            2678            3261     544.795E-03     566.179E-03
            2679            3246     556.763E-03     573.479E-03
            2679            3247     499.982E-03     516.335E-03
            2679            3261     544.795E-03     566.179E-03
            2679            3262     490.088E-03     511.802E-03
            2680            3247     499.982E-03     516.335E-03
            2680            3248     443.400E-03     459.654E-03
            2680            3262     490.088E-03     511.802E-03
            2680            3263     435.278E-03     457.210E-03
            2681            3248     443.400E-03     459.654E-03
            2681            3249     386.998E-03     403.226E-03
            2681            3263     435.278E-03     457.210E-03
            2681            3264     380.186E-03     402.161E-03
            2682            3249     386.998E-03     403.226E-03
            2682            3250     330.756E-03     346.918E-03
            2682            3264     380.186E-03     402.161E-03
            2682            3265     324.904E-03     346.955E-03
            2683            3250     330.756E-03     346.918E-03
            2683            3251     274.636E-03     290.714E-03
            2683            3265     324.904E-03     346.955E-03
            2683            3266     269.474E-03     291.484E-03
            2684            3251     274.636E-03     290.714E-03
            2684            3252     218.658E-03     234.778E-03
            2684            3266     269.474E-03     291.484E-03
            2684            3267     214.106E-03     236.000E-03
            2685            3252     218.658E-03     234.778E-03
            2685            3253     162.955E-03     179.198E-03
            2685            3267     214.106E-03     236.000E-03
            2685            3268     159.176E-03     179.970E-03
            2686            3253     162.955E-03     179.198E-03
            2686            3254     108.101E-03     123.602E-03
            2686            3268     159.176E-03     179.970E-03
            2686            3269     105.066E-03     123.919E-03
            2687            3254     108.101E-03     123.602E-03
            2687            3255     55.8380E-03     72.6857E-03
            2687            3269     105.066E-03     123.919E-03
            2687            3270     52.3170E-03     70.3887E-03
            2688             117     26.2844E-03     44.6592E-03
            2688             118     30.7120E-03     49.5122E-03
            2688            3255     55.8380E-03     72.6857E-03
            2688            3270     52.3170E-03     70.3887E-03
            2689              11     903.184E-03     927.459E-03
            2689             293     932.765E-03     934.953E-03
            2689             481     861.003E-03     871.743E-03
            2689            3256     877.542E-03     886.539E-03
            2690             480     797.002E-03     793.614E-03
            2690             481     861.003E-03     871.743E-03
            2690            3256     877.542E-03     886.539E-03
            2690            3257     781.823E-03     798.221E-03
            2691             479     745.679E-03     746.888E-03
            2691             480     797.002E-03     793.614E-03
            2691            3257     781.823E-03     798.221E-03
            2691            3258     712.784E-03     730.622E-03
            2692             478     691.958E-03     698.241E-03
            2692             479     745.679E-03     746.888E-03
            2692            3258     712.784E-03     730.622E-03
            2692            3259     655.419E-03     674.633E-03
            2693             477     639.251E-03     647.430E-03
            2693             478     691.958E-03     698.241E-03
            2693            3259     655.419E-03     674.633E-03
            2693            3260     599.348E-03     619.957E-03
            2694             476     584.783E-03     594.535E-03
            2694             477     639.251E-03     647.430E-03
            2694            3260     599.348E-03     619.957E-03
            2694            3261     544.795E-03     566.179E-03
            2695             475     530.671E-03     540.470E-03
            2695             476     584.783E-03     594.535E-03
            2695            3261     544.795E-03     566.179E-03
            2695            3262     490.088E-03     511.802E-03
            2696             474     475.509E-03     485.389E-03
            2696             475     530.671E-03     540.470E-03
            2696            3262     490.088E-03     511.802E-03
            2696            3263     435.278E-03     457.210E-03
            2697             473     420.427E-03     430.138E-03
            2697             474     475.509E-03     485.389E-03
            2697            3263     435.278E-03     457.210E-03
            2697            3264     380.186E-03     402.161E-03
            2698             472     365.107E-03     374.835E-03
            2698             473     420.427E-03     430.138E-03
            2698            3264     380.186E-03     402.161E-03
            2698            3265     324.904E-03     346.955E-03
            2699             471     310.480E-03     320.189E-03
            2699             472     365.107E-03     374.835E-03
            2699            3265     324.904E-03     346.955E-03
            2699            3266     269.474E-03     291.484E-03
            2700             470     256.810E-03     266.525E-03
            2700             471     310.480E-03     320.189E-03
            2700            3266     269.474E-03     291.484E-03
            2700            3267     214.106E-03     236.000E-03
            2701             469     205.469E-03     214.751E-03
            2701             470     256.810E-03     266.525E-03
            2701            3267     214.106E-03     236.000E-03
            2701            3268     159.176E-03     179.970E-03
            2702             468     158.335E-03     167.091E-03
            2702             469     205.469E-03     214.751E-03
            2702            3268     159.176E-03     179.970E-03
            2702            3269     105.066E-03     123.919E-03
            2703             467     115.155E-03     126.622E-03
            2703             468     158.335E-03     167.091E-03
            2703            3269     105.066E-03     123.919E-03
            2703            3270     52.3170E-03     70.3887E-03
            2704               4     94.0767E-03     108.546E-03
            2704             117     26.2844E-03     44.6592E-03
            2704             467     115.155E-03     126.622E-03
            2704            3270     52.3170E-03     70.3887E-03
            2809              11     903.184E-03     927.459E-03
            2809             481     861.003E-03     871.743E-03
            2809             527     910.632E-03     897.322E-03
            2809            3348     890.927E-03     885.381E-03
            2810             480     797.002E-03     793.614E-03
            2810             481     861.003E-03     871.743E-03
            2810            3348     890.927E-03     885.381E-03
            2810            3349     848.537E-03     848.941E-03
            2811             479     745.679E-03     746.888E-03
            2811             480     797.002E-03     793.614E-03
            2811            3349     848.537E-03     848.941E-03
            2811            3350     801.202E-03     798.964E-03
            2812             478     691.958E-03     698.241E-03
            2812             479     745.679E-03     746.888E-03
            2812            3350     801.202E-03     798.964E-03
            2812            3351     746.691E-03     745.306E-03
            2813             477     639.251E-03     647.430E-03
            2813             478     691.958E-03     698.241E-03
            2813            3351     746.691E-03     745.306E-03
            2813            3352     688.944E-03     688.650E-03
            2814             476     584.783E-03     594.535E-03
            2814             477     639.251E-03     647.430E-03
            2814            3352     688.944E-03     688.650E-03
            2814            3353     631.513E-03     630.916E-03
            2815             475     530.671E-03     540.470E-03
            2815             476     584.783E-03     594.535E-03
            2815            3353     631.513E-03     630.916E-03
            2815            3354     573.132E-03     572.569E-03
            2816             474     475.509E-03     485.389E-03
            2816             475     530.671E-03     540.470E-03
            2816            3354     573.132E-03     572.569E-03
            2816            3355     515.027E-03     514.114E-03
            2817             473     420.427E-03     430.138E-03
            2817             474     475.509E-03     485.389E-03
            2817            3355     515.027E-03     514.114E-03
            2817            3356     456.946E-03     455.789E-03
            2818             472     365.107E-03     374.835E-03
            2818             473     420.427E-03     430.138E-03
            2818            3356     456.946E-03     455.789E-03
            2818            3357     399.564E-03     398.180E-03
            2819             471     310.480E-03     320.189E-03
            2819             472     365.107E-03     374.835E-03
            2819            3357     399.564E-03     398.180E-03
            2819            3358     343.299E-03     341.713E-03
            2820             470     256.810E-03     266.525E-03
            2820             471     310.480E-03     320.189E-03
            2820            3358     343.299E-03     341.713E-03
            2820            3359     289.235E-03     287.588E-03
            2821             469     205.469E-03     214.751E-03
            2821             470     256.810E-03     266.525E-03
            2821            3359     289.235E-03     287.588E-03
            2821            3360     238.277E-03     237.173E-03
            2822             468     158.335E-03     167.091E-03
            2822             469     205.469E-03     214.751E-03
            2822            3360     238.277E-03     237.173E-03
            2822            3361     193.556E-03     195.275E-03
            2823             467     115.155E-03     126.622E-03
            2823             468     158.335E-03     167.091E-03
            2823            3361     193.556E-03     195.275E-03
            2823            3362     156.064E-03     165.960E-03
            2824               4     94.0767E-03     108.546E-03
            2824             466     138.702E-03     154.437E-03
            2824             467     115.155E-03     126.622E-03
            2824            3362     156.064E-03     165.960E-03
            2825             526     948.406E-03     960.783E-03
            2825             527     910.632E-03     897.322E-03
            2825            3348     890.927E-03     885.381E-03
            2825            3363     930.925E-03     945.713E-03
            2826            3348     890.927E-03     885.381E-03
            2826            3349     848.537E-03     848.941E-03
            2826            3363     930.925E-03     945.713E-03
            2826            3364     882.504E-03     898.371E-03
            2827            3349     848.537E-03     848.941E-03
            2827            3350     801.202E-03     798.964E-03
            2827            3364     882.504E-03     898.371E-03
            2827            3365     817.716E-03     830.861E-03
            2828            3350     801.202E-03     798.964E-03
            2828            3351     746.691E-03     745.306E-03
            2828            3365     817.716E-03     830.861E-03
            2828            3366     752.992E-03     763.109E-03
            2829            3351     746.691E-03     745.306E-03
            2829            3352     688.944E-03     688.650E-03
            2829            3366     752.992E-03     763.109E-03
            2829            3367     690.496E-03     698.816E-03
            2830            3352     688.944E-03     688.650E-03
            2830            3353     631.513E-03     630.916E-03
            2830            3367     690.496E-03     698.816E-03
            2830            3368     627.951E-03     635.834E-03
            2831            3353     631.513E-03     630.916E-03
            2831            3354     573.132E-03     572.569E-03
            2831            3368     627.951E-03     635.834E-03
            2831            3369     566.152E-03     573.815E-03
            2832            3354     573.132E-03     572.569E-03
            2832            3355     515.027E-03     514.114E-03
            2832            3369     566.152E-03     573.815E-03
            2832            3370     504.766E-03     512.392E-03
            2833            3355     515.027E-03     514.114E-03
            2833            3356     456.946E-03     455.789E-03
            2833            3370     504.766E-03     512.392E-03
            2833            3371     443.982E-03     451.471E-03
            2834            3356     456.946E-03     455.789E-03
            2834            3357     399.564E-03     398.180E-03
            2834            3371     443.982E-03     451.471E-03
            2834            3372     383.933E-03     391.166E-03
            2835            3357     399.564E-03     398.180E-03
            2835            3358     343.299E-03     341.713E-03
            2835            3372     383.933E-03     391.166E-03
            2835            3373     324.852E-03     331.807E-03
            2836            3358     343.299E-03     341.713E-03
            2836            3359     289.235E-03     287.588E-03
            2836            3373     324.852E-03     331.807E-03
            2836            3374     267.611E-03     274.071E-03
            2837            3359     289.235E-03     287.588E-03
            2837            3360     238.277E-03     237.173E-03
            2837            3374     267.611E-03     274.071E-03
            2837            3375     212.778E-03     219.400E-03
            2838            3360     238.277E-03     237.173E-03
            2838            3361     193.556E-03     195.275E-03
            2838            3375     212.778E-03     219.400E-03
            2838            3376     161.978E-03     171.652E-03
            2839            3361     193.556E-03     195.275E-03
            2839            3362     156.064E-03     165.960E-03
            2839            3376     161.978E-03     171.652E-03
            2839            3377     121.668E-03     128.423E-03
            2840             465     105.267E-03     106.640E-03
            2840             466     138.702E-03     154.437E-03
            2840            3362     156.064E-03     165.960E-03
            2840            3377     121.668E-03     128.423E-03
            2841             525     990.083E-03     995.834E-03
            2841             526     948.406E-03     960.783E-03
            2841            3363     930.925E-03     945.713E-03
            2841            3378     961.975E-03     975.082E-03
            2842            3363     930.925E-03     945.713E-03
            2842            3364     882.504E-03     898.371E-03
            2842            3378     961.975E-03     975.082E-03
            2842            3379     891.852E-03     913.478E-03
            2843            3364     882.504E-03     898.371E-03
            2843            3365     817.716E-03     830.861E-03
            2843            3379     891.852E-03     913.478E-03
            2843            3380     814.718E-03     836.480E-03
            2844            3365     817.716E-03     830.861E-03
            2844            3366     752.992E-03     763.109E-03
            2844            3380     814.718E-03     836.480E-03
            2844            3381     748.121E-03     766.746E-03
            2845            3366     752.992E-03     763.109E-03
            2845            3367     690.496E-03     698.816E-03
            2845            3381     748.121E-03     766.746E-03
            2845            3382     684.135E-03     700.585E-03
            2846            3367     690.496E-03     698.816E-03
            2846            3368     627.951E-03     635.834E-03
            2846            3382     684.135E-03     700.585E-03
            2846            3383     620.215E-03     636.482E-03
            2847            3368     627.951E-03     635.834E-03
            2847            3369     566.152E-03     573.815E-03
            2847            3383     620.215E-03     636.482E-03
            2847            3384     557.160E-03     573.349E-03
            2848            3369     566.152E-03     573.815E-03
            2848            3370     504.766E-03     512.392E-03
            2848            3384     557.160E-03     573.349E-03
            2848            3385     494.364E-03     510.702E-03
            2849            3370     504.766E-03     512.392E-03
            2849            3371     443.982E-03     451.471E-03
            2849            3385     494.364E-03     510.702E-03
            2849            3386     432.126E-03     448.567E-03
            2850            3371     443.982E-03     451.471E-03
            2850            3372     383.933E-03     391.166E-03
            2850            3386     432.126E-03     448.567E-03
            2850            3387     370.343E-03     386.752E-03
            2851            3372     383.933E-03     391.166E-03
            2851            3373     324.852E-03     331.807E-03
            2851            3387     370.343E-03     386.752E-03
            2851            3388     309.356E-03     325.595E-03
            2852            3373     324.852E-03     331.807E-03
            2852            3374     267.611E-03     274.071E-03
            2852            3388     309.356E-03     325.595E-03
            2852            3389     249.187E-03     265.167E-03
            2853            3374     267.611E-03     274.071E-03
            2853            3375     212.778E-03     219.400E-03
            2853            3389     249.187E-03     265.167E-03
            2853            3390     190.995E-03     206.791E-03
            2854            3375     212.778E-03     219.400E-03
            2854            3376     161.978E-03     171.652E-03
            2854            3390     190.995E-03     206.791E-03
            2854            3391     135.492E-03     149.244E-03
            2855            3376     161.978E-03     171.652E-03
            2855            3377     121.668E-03     128.423E-03
            2855            3391     135.492E-03     149.244E-03
            2855            3392     87.5943E-03     91.9894E-03
            2856             464     66.8860E-03     63.8976E-03
            2856             465     105.267E-03     106.640E-03
            2856            3377     121.668E-03     128.423E-03
            2856            3392     87.5943E-03     91.9894E-03
            2857             524         1.02271         1.02097
            2857             525     990.083E-03     995.834E-03
            2857            3378     961.975E-03     975.082E-03
            2857            3393     966.168E-03     976.283E-03
            2858            3378     961.975E-03     975.082E-03
            2858            3379     891.852E-03     913.478E-03
            2858            3393     966.168E-03     976.283E-03
            2858            3394     867.773E-03     889.800E-03
            2859            3379     891.852E-03     913.478E-03
            2859            3380     814.718E-03     836.480E-03
            2859            3394     867.773E-03     889.800E-03
            2859            3395     795.752E-03     817.686E-03
            2860            3380     814.718E-03     836.480E-03
            2860            3381     748.121E-03     766.746E-03
            2860            3395     795.752E-03     817.686E-03
            2860            3396     732.506E-03     755.535E-03
            2861            3381     748.121E-03     766.746E-03
            2861            3382     684.135E-03     700.585E-03
            2861            3396     732.506E-03     755.535E-03
            2861            3397     669.409E-03     693.613E-03
            2862            3382     684.135E-03     700.585E-03
            2862            3383     620.215E-03     636.482E-03
            2862            3397     669.409E-03     693.613E-03
            2862            3398     607.822E-03     632.286E-03
            2863            3383     620.215E-03     636.482E-03
            2863            3384     557.160E-03     573.349E-03
            2863            3398     607.822E-03     632.286E-03
            2863            3399     545.502E-03     570.469E-03
            2864            3384     557.160E-03     573.349E-03
            2864            3385     494.364E-03     510.702E-03
            2864            3399     545.502E-03     570.469E-03
            2864            3400     483.423E-03     508.677E-03
            2865            3385     494.364E-03     510.702E-03
            2865            3386     432.126E-03     448.567E-03
            2865            3400     483.423E-03     508.677E-03
            2865            3401     421.081E-03     446.637E-03
            2866            3386     432.126E-03     448.567E-03
            2866            3387     370.343E-03     386.752E-03
            2866            3401     421.081E-03     446.637E-03
            2866            3402     358.823E-03     384.767E-03
            2867            3387     370.343E-03     386.752E-03
            2867            3388     309.356E-03     325.595E-03
            2867            3402     358.823E-03     384.767E-03
            2867            3403     296.698E-03     322.891E-03
            2868            3388     309.356E-03     325.595E-03
            2868            3389     249.187E-03     265.167E-03
            2868            3403     296.698E-03     322.891E-03
            2868            3404     234.822E-03     261.239E-03
            2869            3389     249.187E-03     265.167E-03
            2869            3390     190.995E-03     206.791E-03
            2869            3404     234.822E-03     261.239E-03
            2869            3405     173.381E-03     199.513E-03
            2870            3390     190.995E-03     206.791E-03
            2870            3391     135.492E-03     149.244E-03
            2870            3405     173.381E-03     199.513E-03
            2870            3406     113.472E-03     135.219E-03
            2871            3391     135.492E-03     149.244E-03
            2871            3392     87.5943E-03     91.9894E-03
            2871            3406     113.472E-03     135.219E-03
            2871            3407     57.8270E-03     67.3737E-03
            2872             463     31.6488E-03     32.9149E-03
            2872             464     66.8860E-03     63.8976E-03
            2872            3392     87.5943E-03     91.9894E-03
            2872            3407     57.8270E-03     67.3737E-03
            2873             523     986.136E-03         1.01465
            2873             524         1.02271         1.02097
            2873            3393     966.168E-03     976.283E-03
            2873            3408     936.435E-03     957.343E-03
            2874            3393     966.168E-03     976.283E-03
            2874            3394     867.773E-03     889.800E-03
            2874            3408     936.435E-03     957.343E-03
            2874            3409     855.392E-03     868.797E-03
            2875            3394     867.773E-03     889.800E-03
            2875            3395     795.752E-03     817.686E-03
            2875            3409     855.392E-03     868.797E-03
            2875            3410     790.988E-03     807.053E-03
            2876            3395     795.752E-03     817.686E-03
            2876            3396     732.506E-03     755.535E-03
            2876            3410     790.988E-03     807.053E-03
            2876            3411     727.947E-03     746.644E-03
            2877            3396     732.506E-03     755.535E-03
            2877            3397     669.409E-03     693.613E-03
            2877            3411     727.947E-03     746.644E-03
            2877            3412     666.511E-03     686.179E-03
            2878            3397     669.409E-03     693.613E-03
            2878            3398     607.822E-03     632.286E-03
            2878            3412     666.511E-03     686.179E-03
            2878            3413     604.588E-03     625.049E-03
            2879            3398     607.822E-03     632.286E-03
            2879            3399     545.502E-03     570.469E-03
            2879            3413     604.588E-03     625.049E-03
            2879            3414     542.826E-03     563.440E-03
            2880            3399     545.502E-03     570.469E-03
            2880            3400     483.423E-03     508.677E-03
            2880            3414     542.826E-03     563.440E-03
            2880            3415     480.570E-03     501.447E-03
            2881            3400     483.423E-03     508.677E-03
            2881            3401     421.081E-03     446.637E-03
            2881            3415     480.570E-03     501.447E-03
            2881            3416     418.255E-03     439.305E-03
            2882            3401     421.081E-03     446.637E-03
            2882            3402     358.823E-03     384.767E-03
            2882            3416     418.255E-03     439.305E-03
            2882            3417     355.722E-03     377.038E-03
            2883            3402     358.823E-03     384.767E-03
            2883            3403     296.698E-03     322.891E-03
            2883            3417     355.722E-03     377.038E-03
            2883            3418     293.112E-03     314.777E-03
            2884            3403     296.698E-03     322.891E-03
            2884            3404     234.822E-03     261.239E-03
            2884            3418     293.112E-03     314.777E-03
            2884            3419     230.621E-03     252.478E-03
            2885            3404     234.822E-03     261.239E-03
            2885            3405     173.381E-03     199.513E-03
            2885            3419     230.621E-03     252.478E-03
            2885            3420     168.041E-03     189.555E-03
            2886            3405     173.381E-03     199.513E-03
            2886            3406     113.472E-03     135.219E-03
            2886            3420     168.041E-03     189.555E-03
            2886            3421     105.860E-03     126.081E-03
            2887            3406     113.472E-03     135.219E-03
            2887            3407     57.8270E-03     67.3737E-03
            2887            3421     105.860E-03     126.081E-03
            2887            3422     48.3281E-03     58.9392E-03
            2888             462     21.4533E-03     23.4670E-03
            2888             463     31.6488E-03     32.9149E-03
            2888            3407     57.8270E-03     67.3737E-03
            2888            3422     48.3281E-03     58.9392E-03
            2889              20         1.00314         1.03723
            2889             522     942.736E-03     968.412E-03
            2889             523     986.136E-03         1.01465
            2889            3408     936.435E-03     957.343E-03
            2890             521     848.809E-03     864.450E-03
            2890             522     942.736E-03     968.412E-03
            2890            3408     936.435E-03     957.343E-03
            2890            3409     855.392E-03     868.797E-03
            2891             520     780.443E-03     797.680E-03
            2891             521     848.809E-03     864.450E-03
            2891            3409     855.392E-03     868.797E-03
            2891            3410     790.988E-03     807.053E-03
            2892             519     715.505E-03     735.767E-03
            2892             520     780.443E-03     797.680E-03
            2892            3410     790.988E-03     807.053E-03
            2892            3411     727.947E-03     746.644E-03
            2893             518     653.988E-03     675.729E-03
            2893             519     715.505E-03     735.767E-03
            2893            3411     727.947E-03     746.644E-03
            2893            3412     666.511E-03     686.179E-03
            2894             517     592.584E-03     615.524E-03
            2894             518     653.988E-03     675.729E-03
            2894            3412     666.511E-03     686.179E-03
            2894            3413     604.588E-03     625.049E-03
            2895             516     531.649E-03     554.830E-03
            2895             517     592.584E-03     615.524E-03
            2895            3413     604.588E-03     625.049E-03
            2895            3414     542.826E-03     563.440E-03
            2896             515     470.298E-03     493.801E-03
            2896             516     531.649E-03     554.830E-03
            2896            3414     542.826E-03     563.440E-03
            2896            3415     480.570E-03     501.447E-03
            2897             514     408.899E-03     432.397E-03
            2897             515     470.298E-03     493.801E-03
            2897            3415     480.570E-03     501.447E-03
            2897            3416     418.255E-03     439.305E-03
            2898             513     347.151E-03     370.854E-03
            2898             514     408.899E-03     432.397E-03
            2898            3416     418.255E-03     439.305E-03
            2898            3417     355.722E-03     377.038E-03
            2899             512     285.435E-03     309.128E-03
            2899             513     347.151E-03     370.854E-03
            2899            3417     355.722E-03     377.038E-03
            2899            3418     293.112E-03     314.777E-03
            2900             511     223.642E-03     247.196E-03
            2900             512     285.435E-03     309.128E-03
            2900            3418     293.112E-03     314.777E-03
            2900            3419     230.621E-03     252.478E-03
            2901             510     162.098E-03     184.984E-03
            2901             511     223.642E-03     247.196E-03
            2901            3419     230.621E-03     252.478E-03
            2901            3420     168.041E-03     189.555E-03
            2902             509     101.277E-03     122.247E-03
            2902             510     162.098E-03     184.984E-03
            2902            3420     168.041E-03     189.555E-03
            2902            3421     105.860E-03     126.081E-03
            2903             508     46.1663E-03     59.0412E-03
            2903             509     101.277E-03     122.247E-03
            2903            3421     105.860E-03     126.081E-03
            2903            3422     48.3281E-03     58.9392E-03
            2904              18     21.1518E-03     27.5000E-03
            2904             462     21.4533E-03     23.4670E-03
            2904             508     46.1663E-03     59.0412E-03
            2904            3422     48.3281E-03     58.9392E-03
            4322              23     831.000E-03     850.705E-03
            4322             597     844.899E-03     860.109E-03
            4322             739     793.185E-03     805.132E-03
            4322            4567     791.501E-03     814.223E-03
            4323             739     793.185E-03     805.132E-03
            4323             740     738.379E-03     741.204E-03
            4323            4567     791.501E-03     814.223E-03
            4323            4568     703.968E-03     733.986E-03
            4324             740     738.379E-03     741.204E-03
            4324             741     696.175E-03     703.049E-03
            4324            4568     703.968E-03     733.986E-03
            4324            4569     645.064E-03     675.165E-03
            4325             741     696.175E-03     703.049E-03
            4325             742     648.601E-03     659.966E-03
            4325            4569     645.064E-03     675.165E-03
            4325            4570     594.550E-03     624.150E-03
            4326             742     648.601E-03     659.966E-03
            4326             743     600.297E-03     613.304E-03
            4326            4570     594.550E-03     624.150E-03
            4326            4571     543.247E-03     573.021E-03
            4327             743     600.297E-03     613.304E-03
            4327             744     549.340E-03     563.672E-03
            4327            4571     543.247E-03     573.021E-03
            4327            4572     492.357E-03     522.266E-03
            4328             744     549.340E-03     563.672E-03
            4328             745     497.893E-03     512.390E-03
            4328            4572     492.357E-03     522.266E-03
            4328            4573     441.321E-03     471.086E-03
            4329             745     497.893E-03     512.390E-03
            4329             746     445.722E-03     460.680E-03
            4329            4573     441.321E-03     471.086E-03
            4329            4574     390.357E-03     420.269E-03
            4330             746     445.722E-03     460.680E-03
            4330             747     393.676E-03     408.545E-03
            4330            4574     390.357E-03     420.269E-03
            4330            4575     339.596E-03     369.340E-03
            4331             747     393.676E-03     408.545E-03
            4331             748     341.784E-03     356.992E-03
            4331            4575     339.596E-03     369.340E-03
            4331            4576     289.030E-03     318.772E-03
            4332             748     341.784E-03     356.992E-03
            4332             749     290.772E-03     306.055E-03
            4332            4576     289.030E-03     318.772E-03
            4332            4577     238.901E-03     268.481E-03
            4333             749     290.772E-03     306.055E-03
            4333             750     241.081E-03     257.033E-03
            4333            4577     238.901E-03     268.481E-03
            4333            4578     189.605E-03     218.755E-03
            4334             750     241.081E-03     257.033E-03
            4334             751     194.516E-03     210.199E-03
            4334            4578     189.605E-03     218.755E-03
            4334            4579     142.156E-03     170.296E-03
            4335             751     194.516E-03     210.199E-03
            4335             752     153.255E-03     167.962E-03
            4335            4579     142.156E-03     170.296E-03
            4335            4580     99.5434E-03     123.972E-03
            4336             752     153.255E-03     167.962E-03
            4336             753     119.795E-03     136.589E-03
            4336            4580     99.5434E-03     123.972E-03
            4336            4581     70.7802E-03     79.2765E-03
            4337              22     105.295E-03     124.805E-03
            4337             753     119.795E-03     136.589E-03
            4337             754     61.4145E-03     57.3274E-03
            4337            4581     70.7802E-03     79.2765E-03
            4338             597     844.899E-03     860.109E-03
            4338             598     790.788E-03     784.122E-03
            4338            4567     791.501E-03     814.223E-03
            4338            4582     773.471E-03     776.722E-03
            4339            4567     791.501E-03     814.223E-03
            4339            4568     703.968E-03     733.986E-03
            4339            4582     773.471E-03     776.722E-03
            4339            4583     722.357E-03     735.958E-03
            4340            4568     703.968E-03     733.986E-03
            4340            4569     645.064E-03     675.165E-03
            4340            4583     722.357E-03     735.958E-03
            4340            4584     662.906E-03     674.842E-03
            4341            4569     645.064E-03     675.165E-03
            4341            4570     594.550E-03     624.150E-03
            4341            4584     662.906E-03     674.842E-03
            4341            4585     610.963E-03     621.106E-03
            4342            4570     594.550E-03     624.150E-03
            4342            4571     543.247E-03     573.021E-03
            4342            4585     610.963E-03     621.106E-03
            4342            4586     559.086E-03     568.773E-03
            4343            4571     543.247E-03     573.021E-03
            4343            4572     492.357E-03     522.266E-03
            4343            4586     559.086E-03     568.773E-03
            4343            4587     507.739E-03     517.327E-03
            4344            4572     492.357E-03     522.266E-03
            4344            4573     441.321E-03     471.086E-03
            4344            4587     507.739E-03     517.327E-03
            4344            4588     456.839E-03     466.603E-03
            4345            4573     441.321E-03     471.086E-03
            4345            4574     390.357E-03     420.269E-03
            4345            4588     456.839E-03     466.603E-03
            4345            4589     406.386E-03     416.035E-03
            4346            4574     390.357E-03     420.269E-03
            4346            4575     339.596E-03     369.340E-03
            4346            4589     406.386E-03     416.035E-03
            4346            4590     356.269E-03     365.969E-03
            4347            4575     339.596E-03     369.340E-03
            4347            4576     289.030E-03     318.772E-03
            4347            4590     356.269E-03     365.969E-03
            4347            4591     306.740E-03     316.305E-03
            4348            4576     289.030E-03     318.772E-03
            4348            4577     238.901E-03     268.481E-03
            4348            4591     306.740E-03     316.305E-03
            4348            4592     257.972E-03     267.413E-03
            4349            4577     238.901E-03     268.481E-03
            4349            4578     189.605E-03     218.755E-03
            4349            4592     257.972E-03     267.413E-03
            4349            4593     210.819E-03     219.597E-03
            4350            4578     189.605E-03     218.755E-03
            4350            4579     142.156E-03     170.296E-03
            4350            4593     210.819E-03     219.597E-03
            4350            4594     165.790E-03     174.307E-03
            4351            4579     142.156E-03     170.296E-03
            4351            4580     99.5434E-03     123.972E-03
            4351            4594     165.790E-03     174.307E-03
            4351            4595     126.186E-03     134.398E-03
            4352            4580     99.5434E-03     123.972E-03
            4352            4581     70.7802E-03     79.2765E-03
            4352            4595     126.186E-03     134.398E-03
            4352            4596     101.845E-03     101.449E-03
            4353             754     61.4145E-03     57.3274E-03
            4353             755     95.1912E-03     86.5824E-03
            4353            4581     70.7802E-03     79.2765E-03
            4353            4596     101.845E-03     101.449E-03
            4354             598     790.788E-03     784.122E-03
            4354             599     720.086E-03     717.137E-03
            4354            4582     773.471E-03     776.722E-03
            4354            4597     722.308E-03     716.241E-03
            4355            4582     773.471E-03     776.722E-03
            4355            4583     722.357E-03     735.958E-03
            4355            4597     722.308E-03     716.241E-03
            4355            4598     708.534E-03     697.598E-03
            4356            4583     722.357E-03     735.958E-03
            4356            4584     662.906E-03     674.842E-03
            4356            4598     708.534E-03     697.598E-03
            4356            4599     667.018E-03     656.251E-03
            4357            4584     662.906E-03     674.842E-03
            4357            4585     610.963E-03     621.106E-03
            4357            4599     667.018E-03     656.251E-03
            4357            4600     618.226E-03     608.253E-03
            4358            4585     610.963E-03     621.106E-03
            4358            4586     559.086E-03     568.773E-03
            4358            4600     618.226E-03     608.253E-03
            4358            4601     569.925E-03     559.627E-03
            4359            4586     559.086E-03     568.773E-03
            4359            4587     507.739E-03     517.327E-03
            4359            4601     569.925E-03     559.627E-03
            4359            4602     520.799E-03     510.867E-03
            4360            4587     507.739E-03     517.327E-03
            4360            4588     456.839E-03     466.603E-03
            4360            4602     520.799E-03     510.867E-03
            4360            4603     471.997E-03     461.964E-03
            4361            4588     456.839E-03     466.603E-03
            4361            4589     406.386E-03     416.035E-03
            4361            4603     471.997E-03     461.964E-03
            4361            4604     423.040E-03     413.199E-03
            4362            4589     406.386E-03     416.035E-03
            4362            4590     356.269E-03     365.969E-03
            4362            4604     423.040E-03     413.199E-03
            4362            4605     374.522E-03     364.750E-03
            4363            4590     356.269E-03     365.969E-03
            4363            4591     306.740E-03     316.305E-03
            4363            4605     374.522E-03     364.750E-03
            4363            4606     326.522E-03     317.020E-03
            4364            4591     306.740E-03     316.305E-03
            4364            4592     257.972E-03     267.413E-03
            4364            4606     326.522E-03     317.020E-03
            4364            4607     279.652E-03     270.370E-03
            4365            4592     257.972E-03     267.413E-03
            4365            4593     210.819E-03     219.597E-03
            4365            4607     279.652E-03     270.370E-03
            4365            4608     234.455E-03     225.840E-03
            4366            4593     210.819E-03     219.597E-03
            4366            4594     165.790E-03     174.307E-03
            4366            4608     234.455E-03     225.840E-03
            4366            4609     192.185E-03     184.499E-03
            4367            4594     165.790E-03     174.307E-03
            4367            4595     126.186E-03     134.398E-03
            4367            4609     192.185E-03     184.499E-03
            4367            4610     154.950E-03     150.230E-03
            4368            4595     126.186E-03     134.398E-03
            4368            4596     101.845E-03     101.449E-03
            4368            4610     154.950E-03     150.230E-03
            4368            4611     127.423E-03     130.597E-03
            4369             755     95.1912E-03     86.5824E-03
            4369             756     116.920E-03     125.448E-03
            4369            4596     101.845E-03     101.449E-03
            4369            4611     127.423E-03     130.597E-03
            4370             599     720.086E-03     717.137E-03
            4370             600     732.927E-03     748.740E-03
            4370            4597     722.308E-03     716.241E-03
            4370            4612     694.277E-03     700.939E-03
            4371            4597     722.308E-03     716.241E-03
            4371            4598     708.534E-03     697.598E-03
            4371            4612     694.277E-03     700.939E-03
            4371            4613     633.576E-03     628.107E-03
            4372            4598     708.534E-03     697.598E-03
            4372            4599     667.018E-03     656.251E-03
            4372            4613     633.576E-03     628.107E-03
            4372            4614     585.236E-03     579.665E-03
            4373            4599     667.018E-03     656.251E-03
            4373            4600     618.226E-03     608.253E-03
            4373            4614     585.236E-03     579.665E-03
            4373            4615     535.629E-03     531.836E-03
            4374            4600     618.226E-03     608.253E-03
            4374            4601     569.925E-03     559.627E-03
            4374            4615     535.629E-03     531.836E-03
            4374            4616     489.039E-03     486.679E-03
            4375            4601     569.925E-03     559.627E-03
            4375            4602     520.799E-03     510.867E-03
            4375            4616     489.039E-03     486.679E-03
            4375            4617     444.130E-03     443.448E-03
            4376            4602     520.799E-03     510.867E-03
            4376            4603     471.997E-03     461.964E-03
            4376            4617     444.130E-03     443.448E-03
            4376            4618     400.357E-03     400.350E-03
            4377            4603     471.997E-03     461.964E-03
            4377            4604     423.040E-03     413.199E-03
            4377            4618     400.357E-03     400.350E-03
            4377            4619     357.012E-03     358.090E-03
            4378            4604     423.040E-03     413.199E-03
            4378            4605     374.522E-03     364.750E-03
            4378            4619     357.012E-03     358.090E-03
            4378            4620     314.321E-03     315.773E-03
            4379            4605     374.522E-03     364.750E-03
            4379            4606     326.522E-03     317.020E-03
            4379            4620     314.321E-03     315.773E-03
            4379            4621     272.010E-03     274.035E-03
            4380            4606     326.522E-03     317.020E-03
            4380            4607     279.652E-03     270.370E-03
            4380            4621     272.010E-03     274.035E-03
            4380            4622     230.459E-03     232.714E-03
            4381            4607     279.652E-03     270.370E-03
            4381            4608     234.455E-03     225.840E-03
            4381            4622     230.459E-03     232.714E-03
            4381            4623     189.851E-03     192.553E-03
            4382            4608     234.455E-03     225.840E-03
            4382            4609     192.185E-03     184.499E-03
            4382            4623     189.851E-03     192.553E-03
            4382            4624     150.906E-03     153.908E-03
            4383            4609     192.185E-03     184.499E-03
            4383            4610     154.950E-03     150.230E-03
            4383            4624     150.906E-03     153.908E-03
            4383            4625     114.991E-03     119.292E-03
            4384            4610     154.950E-03     150.230E-03
            4384            4611     127.423E-03     130.597E-03
            4384            4625     114.991E-03     119.292E-03
            4384            4626     84.1023E-03     91.3855E-03
            4385             756     116.920E-03     125.448E-03
            4385             757     70.0671E-03     79.3675E-03
            4385            4611     127.423E-03     130.597E-03
            4385            4626     84.1023E-03     91.3855E-03
            4386             600     732.927E-03     748.740E-03
            4386             601     771.176E-03     775.350E-03
            4386            4612     694.277E-03     700.939E-03
            4386            4627     703.215E-03     713.037E-03
            4387            4612     694.277E-03     700.939E-03
            4387            4613     633.576E-03     628.107E-03
            4387            4627     703.215E-03     713.037E-03
            4387            4628     589.172E-03     603.636E-03
            4388            4613     633.576E-03     628.107E-03
            4388            4614     585.236E-03     579.665E-03
            4388            4628     589.172E-03     603.636E-03
            4388            4629     514.213E-03     527.936E-03
            4389            4614     585.236E-03     579.665E-03
            4389            4615     535.629E-03     531.836E-03
            4389            4629     514.213E-03     527.936E-03
            4389            4630     458.893E-03     473.596E-03
            4390            4615     535.629E-03     531.836E-03
            4390            4616     489.039E-03     486.679E-03
            4390            4630     458.893E-03     473.596E-03
            4390            4631     410.604E-03     426.932E-03
            4391            4616     489.039E-03     486.679E-03
            4391            4617     444.130E-03     443.448E-03
            4391            4631     410.604E-03     426.932E-03
            4391            4632     367.744E-03     385.595E-03
            4392            4617     444.130E-03     443.448E-03
            4392            4618     400.357E-03     400.350E-03
            4392            4632     367.744E-03     385.595E-03
            4392            4633     327.128E-03     346.254E-03
            4393            4618     400.357E-03     400.350E-03
            4393            4619     357.012E-03     358.090E-03
            4393            4633     327.128E-03     346.254E-03
            4393            4634     288.200E-03     308.250E-03
            4394            4619     357.012E-03     358.090E-03
            4394            4620     314.321E-03     315.773E-03
            4394            4634     288.200E-03     308.250E-03
            4394            4635     249.965E-03     270.541E-03
            4395            4620     314.321E-03     315.773E-03
            4395            4621     272.010E-03     274.035E-03
            4395            4635     249.965E-03     270.541E-03
            4395            4636     212.253E-03     233.018E-03
            4396            4621     272.010E-03     274.035E-03
            4396            4622     230.459E-03     232.714E-03
            4396            4636     212.253E-03     233.018E-03
            4396            4637     174.843E-03     195.329E-03
            4397            4622     230.459E-03     232.714E-03
            4397            4623     189.851E-03     192.553E-03
            4397            4637     174.843E-03     195.329E-03
            4397            4638     137.744E-03     157.524E-03
            4398            4623     189.851E-03     192.553E-03
            4398            4624     150.906E-03     153.908E-03
            4398            4638     137.744E-03     157.524E-03
            4398            4639     101.263E-03     119.569E-03
            4399            4624     150.906E-03     153.908E-03
            4399            4625     114.991E-03     119.292E-03
            4399            4639     101.263E-03     119.569E-03
            4399            4640     66.4421E-03     81.8456E-03
            4400            4625     114.991E-03     119.292E-03
            4400            4626     84.1023E-03     91.3855E-03
            4400            4640     66.4421E-03     81.8456E-03
            4400            4641     39.2268E-03     45.7704E-03
            4401             757     70.0671E-03     79.3675E-03
            4401             758     28.8451E-03     28.4601E-03
            4401            4626     84.1023E-03     91.3855E-03
            4401            4641     39.2268E-03     45.7704E-03
            4402             601     771.176E-03     775.350E-03
            4402             602     731.158E-03     727.827E-03
            4402            4627     703.215E-03     713.037E-03
            4402            4642     692.866E-03     694.997E-03
            4403            4627     703.215E-03     713.037E-03
            4403            4628     589.172E-03     603.636E-03
            4403            4642     692.866E-03     694.997E-03
            4403            4643     608.165E-03     619.498E-03
            4404            4628     589.172E-03     603.636E-03
            4404            4629     514.213E-03     527.936E-03
            4404            4643     608.165E-03     619.498E-03
            4404            4644     529.755E-03     546.028E-03
            4405            4629     514.213E-03     527.936E-03
            4405            4630     458.893E-03     473.596E-03
            4405            4644     529.755E-03     546.028E-03
            4405            4645     472.463E-03     489.608E-03
            4406            4630     458.893E-03     473.596E-03
            4406            4631     410.604E-03     426.932E-03
            4406            4645     472.463E-03     489.608E-03
            4406            4646     423.975E-03     441.203E-03
            4407            4631     410.604E-03     426.932E-03
            4407            4632     367.744E-03     385.595E-03
            4407            4646     423.975E-03     441.203E-03
            4407            4647     380.088E-03     397.608E-03
            4408            4632     367.744E-03     385.595E-03
            4408            4633     327.128E-03     346.254E-03
            4408            4647     380.088E-03     397.608E-03
            4408            4648     339.153E-03     356.623E-03
            4409            4633     327.128E-03     346.254E-03
            4409            4634     288.200E-03     308.250E-03
            4409            4648     339.153E-03     356.623E-03
            4409            4649     299.502E-03     317.015E-03
            4410            4634     288.200E-03     308.250E-03
            4410            4635     249.965E-03     270.541E-03
            4410            4649     299.502E-03     317.015E-03
            4410            4650     260.828E-03     278.204E-03
            4411            4635     249.965E-03     270.541E-03
            4411            4636     212.253E-03     233.018E-03
            4411            4650     260.828E-03     278.204E-03
            4411            4651     222.649E-03     239.752E-03
            4412            4636     212.253E-03     233.018E-03
            4412            4637     174.843E-03     195.329E-03
            4412            4651     222.649E-03     239.752E-03
            4412            4652     185.057E-03     201.619E-03
            4413            4637     174.843E-03     195.329E-03
            4413            4638     137.744E-03     157.524E-03
            4413            4652     185.057E-03     201.619E-03
            4413            4653     148.183E-03     163.652E-03
            4414            4638     137.744E-03     157.524E-03
            4414            4639     101.263E-03     119.569E-03
            4414            4653     148.183E-03     163.652E-03
            4414            4654     112.740E-03     126.301E-03
            4415            4639     101.263E-03     119.569E-03
            4415            4640     66.4421E-03     81.8456E-03
            4415            4654     112.740E-03     126.301E-03
            4415            4655     80.4528E-03     90.0186E-03
            4416            4640     66.4421E-03     81.8456E-03
            4416            4641     39.2268E-03     45.7704E-03
            4416            4655     80.4528E-03     90.0186E-03
            4416            4656     57.0925E-03     58.8448E-03
            4417             758     28.8451E-03     28.4601E-03
            4417             759     48.7715E-03     45.5100E-03
            4417            4641     39.2268E-03     45.7704E-03
            4417            4656     57.0925E-03     58.8448E-03
            4418             602     731.158E-03     727.827E-03
            4418             603     685.492E-03     696.894E-03
            4418            4642     692.866E-03     694.997E-03
            4418            4657     658.201E-03     668.754E-03
            4419            4642     692.866E-03     694.997E-03
            4419            4643     608.165E-03     619.498E-03
            4419            4657     658.201E-03     668.754E-03
            4419            4658     600.630E-03     612.059E-03
            4420            4643     608.165E-03     619.498E-03
            4420            4644     529.755E-03     546.028E-03
            4420            4658     600.630E-03     612.059E-03
            4420            4659     538.804E-03     553.884E-03
            4421            4644     529.755E-03     546.028E-03
            4421            4645     472.463E-03     489.608E-03
            4421            4659     538.804E-03     553.884E-03
            4421            4660     482.473E-03     499.826E-03
            4422            4645     472.463E-03     489.608E-03
            4422            4646     423.975E-03     441.203E-03
            4422            4660     482.473E-03     499.826E-03
            4422            4661     435.179E-03     452.348E-03
            4423            4646     423.975E-03     441.203E-03
            4423            4647     380.088E-03     397.608E-03
            4423            4661     435.179E-03     452.348E-03
            4423            4662     391.496E-03     407.937E-03
            4424            4647     380.088E-03     397.608E-03
            4424            4648     339.153E-03     356.623E-03
            4424            4662     391.496E-03     407.937E-03
            4424            4663     350.231E-03     365.983E-03
            4425            4648     339.153E-03     356.623E-03
            4425            4649     299.502E-03     317.015E-03
            4425            4663     350.231E-03     365.983E-03
            4425            4664     310.347E-03     325.346E-03
            4426            4649     299.502E-03     317.015E-03
            4426            4650     260.828E-03     278.204E-03
            4426            4664     310.347E-03     325.346E-03
            4426            4665     271.271E-03     285.733E-03
            4427            4650     260.828E-03     278.204E-03
            4427            4651     222.649E-03     239.752E-03
            4427            4665     271.271E-03     285.733E-03
            4427            4666     232.977E-03     246.852E-03
            4428            4651     222.649E-03     239.752E-03
            4428            4652     185.057E-03     201.619E-03
            4428            4666     232.977E-03     246.852E-03
            4428            4667     195.446E-03     208.589E-03
            4429            4652     185.057E-03     201.619E-03
            4429            4653     148.183E-03     163.652E-03
            4429            4667     195.446E-03     208.589E-03
            4429            4668     159.190E-03     171.186E-03
            4430            4653     148.183E-03     163.652E-03
            4430            4654     112.740E-03     126.301E-03
            4430            4668     159.190E-03     171.186E-03
            4430            4669     125.064E-03     134.799E-03
            4431            4654     112.740E-03     126.301E-03
            4431            4655     80.4528E-03     90.0186E-03
            4431            4669     125.064E-03     134.799E-03
            4431            4670     95.2355E-03     101.113E-03
            4432            4655     80.4528E-03     90.0186E-03
            4432            4656     57.0925E-03     58.8448E-03
            4432            4670     95.2355E-03     101.113E-03
            4432            4671     75.0524E-03     74.2061E-03
            4433             759     48.7715E-03     45.5100E-03
            4433             760     68.3100E-03     63.0575E-03
            4433            4656     57.0925E-03     58.8448E-03
            4433            4671     75.0524E-03     74.2061E-03
            4434             603     685.492E-03     696.894E-03
            4434             604     650.778E-03     650.938E-03
            4434            4657     658.201E-03     668.754E-03
            4434            4672     627.205E-03     632.774E-03
            4435            4657     658.201E-03     668.754E-03
            4435            4658     600.630E-03     612.059E-03
            4435            4672     627.205E-03     632.774E-03
            4435            4673     579.921E-03     592.785E-03
            4436            4658     600.630E-03     612.059E-03
            4436            4659     538.804E-03     553.884E-03
            4436            4673     579.921E-03     592.785E-03
            4436            4674     533.405E-03     548.497E-03
            4437            4659     538.804E-03     553.884E-03
            4437            4660     482.473E-03     499.826E-03
            4437            4674     533.405E-03     548.497E-03
            4437            4675     486.793E-03     502.739E-03
            4438            4660     482.473E-03     499.826E-03
            4438            4661     435.179E-03     452.348E-03
            4438            4675     486.793E-03     502.739E-03
            4438            4676     441.910E-03     457.757E-03
            4439            4661     435.179E-03     452.348E-03
            4439            4662     391.496E-03     407.937E-03
            4439            4676     441.910E-03     457.757E-03
            4439            4677     400.076E-03     414.592E-03
            4440            4662     391.496E-03     407.937E-03
            4440            4663     350.231E-03     365.983E-03
            4440            4677     400.076E-03     414.592E-03
            4440            4678     359.247E-03     372.511E-03
            4441            4663     350.231E-03     365.983E-03
            4441            4664     310.347E-03     325.346E-03
            4441            4678     359.247E-03     372.511E-03
            4441            4679     319.525E-03     331.748E-03
            4442            4664     310.347E-03     325.346E-03
            4442            4665     271.271E-03     285.733E-03
            4442            4679     319.525E-03     331.748E-03
            4442            4680     280.555E-03     291.941E-03
            4443            4665     271.271E-03     285.733E-03
            4443            4666     232.977E-03     246.852E-03
            4443            4680     280.555E-03     291.941E-03
            4443            4681     242.392E-03     253.194E-03
            4444            4666     232.977E-03     246.852E-03
            4444            4667     195.446E-03     208.589E-03
            4444            4681     242.392E-03     253.194E-03
            4444            4682     205.354E-03     215.517E-03
            4445            4667     195.446E-03     208.589E-03
            4445            4668     159.190E-03     171.186E-03
            4445            4682     205.354E-03     215.517E-03
            4445            4683     169.941E-03     179.059E-03
            4446            4668     159.190E-03     171.186E-03
            4446            4669     125.064E-03     134.799E-03
            4446            4683     169.941E-03     179.059E-03
            4446            4684     137.385E-03     144.648E-03
            4447            4669     125.064E-03     134.799E-03
            4447            4670     95.2355E-03     101.113E-03
            4447            4684     137.385E-03     144.648E-03
            4447            4685     110.087E-03     113.590E-03
            4448            4670     95.2355E-03     101.113E-03
            4448            4671     75.0524E-03     74.2061E-03
            4448            4685     110.087E-03     113.590E-03
            4448            4686     92.1126E-03     90.2391E-03
            4449             760     68.3100E-03     63.0575E-03
            4449             761     86.0960E-03     81.4134E-03
            4449            4671     75.0524E-03     74.2061E-03
            4449            4686     92.1126E-03     90.2391E-03
            4450             604     650.778E-03     650.938E-03
            4450             605     609.414E-03     615.305E-03
            4450            4672     627.205E-03     632.774E-03
            4450            4687     592.043E-03     599.196E-03
            4451            4672     627.205E-03     632.774E-03
            4451            4673     579.921E-03     592.785E-03
            4451            4687     592.043E-03     599.196E-03
            4451            4688     556.998E-03     567.968E-03
            4452            4673     579.921E-03     592.785E-03
            4452            4674     533.405E-03     548.497E-03
            4452            4688     556.998E-03     567.968E-03
            4452            4689     520.379E-03     534.887E-03
            4453            4674     533.405E-03     548.497E-03
            4453            4675     486.793E-03     502.739E-03
            4453            4689     520.379E-03     534.887E-03
            4453            4690     482.843E-03     497.348E-03
            4454            4675     486.793E-03     502.739E-03
            4454            4676     441.910E-03     457.757E-03
            4454            4690     482.843E-03     497.348E-03
            4454            4691     444.049E-03     457.036E-03
            4455            4676     441.910E-03     457.757E-03
            4455            4677     400.076E-03     414.592E-03
            4455            4691     444.049E-03     457.036E-03
            4455            4692     404.389E-03     415.900E-03
            4456            4677     400.076E-03     414.592E-03
            4456            4678     359.247E-03     372.511E-03
            4456            4692     404.389E-03     415.900E-03
            4456            4693     365.229E-03     375.146E-03
            4457            4678     359.247E-03     372.511E-03
            4457            4679     319.525E-03     331.748E-03
            4457            4693     365.229E-03     375.146E-03
            4457            4694     326.231E-03     335.031E-03
            4458            4679     319.525E-03     331.748E-03
            4458            4680     280.555E-03     291.941E-03
            4458            4694     326.231E-03     335.031E-03
            4458            4695     287.965E-03     295.993E-03
            4459            4680     280.555E-03     291.941E-03
            4459            4681     242.392E-03     253.194E-03
            4459            4695     287.965E-03     295.993E-03
            4459            4696     250.518E-03     258.074E-03
            4460            4681     242.392E-03     253.194E-03
            4460            4682     205.354E-03     215.517E-03
            4460            4696     250.518E-03     258.074E-03
            4460            4697     214.319E-03     221.685E-03
            4461            4682     205.354E-03     215.517E-03
            4461            4683     169.941E-03     179.059E-03
            4461            4697     214.319E-03     221.685E-03
            4461            4698     180.203E-03     187.112E-03
            4462            4683     169.941E-03     179.059E-03
            4462            4684     137.385E-03     144.648E-03
            4462            4698     180.203E-03     187.112E-03
            4462            4699     149.458E-03     154.938E-03
            4463            4684     137.385E-03     144.648E-03
            4463            4685     110.087E-03     113.590E-03
            4463            4699     149.458E-03     154.938E-03
            4463            4700     124.480E-03     127.173E-03
            4464            4685     110.087E-03     113.590E-03
            4464            4686     92.1126E-03     90.2391E-03
            4464            4700     124.480E-03     127.173E-03
            4464            4701     108.728E-03     106.217E-03
            4465             761     86.0960E-03     81.4134E-03
            4465             762     103.600E-03     97.6763E-03
            4465            4686     92.1126E-03     90.2391E-03
            4465            4701     108.728E-03     106.217E-03
            4466             605     609.414E-03     615.305E-03
            4466             606     572.413E-03     572.386E-03
            4466            4687     592.043E-03     599.196E-03
            4466            4702     557.474E-03     562.495E-03
            4467            4687     592.043E-03     599.196E-03
            4467            4688     556.998E-03     567.968E-03
            4467            4702     557.474E-03     562.495E-03
            4467            4703     529.817E-03     541.319E-03
            4468            4688     556.998E-03     567.968E-03
            4468            4689     520.379E-03     534.887E-03
            4468            4703     529.817E-03     541.319E-03
            4468            4704     503.679E-03     516.110E-03
            4469            4689     520.379E-03     534.887E-03
            4469            4690     482.843E-03     497.348E-03
            4469            4704     503.679E-03     516.110E-03
            4469            4705     474.016E-03     485.197E-03
            4470            4690     482.843E-03     497.348E-03
            4470            4691     444.049E-03     457.036E-03
            4470            4705     474.016E-03     485.197E-03
            4470            4706     440.533E-03     449.574E-03
            4471            4691     444.049E-03     457.036E-03
            4471            4692     404.389E-03     415.900E-03
            4471            4706     440.533E-03     449.574E-03
            4471            4707     404.579E-03     411.602E-03
            4472            4692     404.389E-03     415.900E-03
            4472            4693     365.229E-03     375.146E-03
            4472            4707     404.579E-03     411.602E-03
            4472            4708     367.331E-03     373.062E-03
            4473            4693     365.229E-03     375.146E-03
            4473            4694     326.231E-03     335.031E-03
            4473            4708     367.331E-03     373.062E-03
            4473            4709     330.120E-03     334.852E-03
            4474            4694     326.231E-03     335.031E-03
            4474            4695     287.965E-03     295.993E-03
            4474            4709     330.120E-03     334.852E-03
            4474            4710     293.182E-03     297.423E-03
            4475            4695     287.965E-03     295.993E-03
            4475            4696     250.518E-03     258.074E-03
            4475            4710     293.182E-03     297.423E-03
            4475            4711     257.197E-03     261.301E-03
            4476            4696     250.518E-03     258.074E-03
            4476            4697     214.319E-03     221.685E-03
            4476            4711     257.197E-03     261.301E-03
            4476            4712     222.513E-03     226.851E-03
            4477            4697     214.319E-03     221.685E-03
            4477            4698     180.203E-03     187.112E-03
            4477            4712     222.513E-03     226.851E-03
            4477            4713     189.951E-03     194.982E-03
            4478            4698     180.203E-03     187.112E-03
            4478            4699     149.458E-03     154.938E-03
            4478            4713     189.951E-03     194.982E-03
            4478            4714     161.328E-03     166.091E-03
            4479            4699     149.458E-03     154.938E-03
            4479            4700     124.480E-03     127.173E-03
            4479            4714     161.328E-03     166.091E-03
            4479            4715     138.661E-03     141.030E-03
            4480            4700     124.480E-03     127.173E-03
            4480            4701     108.728E-03     106.217E-03
            4480            4715     138.661E-03     141.030E-03
            4480            4716     124.770E-03     123.465E-03
            4481             762     103.600E-03     97.6763E-03
            4481             763     120.527E-03     117.190E-03
            4481            4701     108.728E-03     106.217E-03
            4481            4716     124.770E-03     123.465E-03
            4482             606     572.413E-03     572.386E-03
            4482             607     528.588E-03     530.476E-03
            4482            4702     557.474E-03     562.495E-03
            4482            4717     518.412E-03     523.703E-03
            4483            4702     557.474E-03     562.495E-03
            4483            4703     529.817E-03     541.319E-03
            4483            4717     518.412E-03     523.703E-03
            4483            4718     501.016E-03     510.380E-03
            4484            4703     529.817E-03     541.319E-03
            4484            4704     503.679E-03     516.110E-03
            4484            4718     501.016E-03     510.380E-03
            4484            4719     484.273E-03     492.669E-03
            4485            4704     503.679E-03     516.110E-03
            4485            4705     474.016E-03     485.197E-03
            4485            4719     484.273E-03     492.669E-03
            4485            4720     461.576E-03     466.778E-03
            4486            4705     474.016E-03     485.197E-03
            4486            4706     440.533E-03     449.574E-03
            4486            4720     461.576E-03     466.778E-03
            4486            4721     432.599E-03     435.551E-03
            4487            4706     440.533E-03     449.574E-03
            4487            4707     404.579E-03     411.602E-03
            4487            4721     432.599E-03     435.551E-03
            4487            4722     400.107E-03     401.649E-03
            4488            4707     404.579E-03     411.602E-03
            4488            4708     367.331E-03     373.062E-03
            4488            4722     400.107E-03     401.649E-03
            4488            4723     365.883E-03     366.529E-03
            4489            4708     367.331E-03     373.062E-03
            4489            4709     330.120E-03     334.852E-03
            4489            4723     365.883E-03     366.529E-03
            4489            4724     330.998E-03     331.302E-03
            4490            4709     330.120E-03     334.852E-03
            4490            4710     293.182E-03     297.423E-03
            4490            4724     330.998E-03     331.302E-03
            4490            4725     296.469E-03     296.637E-03
            4491            4710     293.182E-03     297.423E-03
            4491            4711     257.197E-03     261.301E-03
            4491            4725     296.469E-03     296.637E-03
            4491            4726     262.663E-03     263.115E-03
            4492            4711     257.197E-03     261.301E-03
            4492            4712     222.513E-03     226.851E-03
            4492            4726     262.663E-03     263.115E-03
            4492            4727     230.342E-03     231.450E-03
            4493            4712     222.513E-03     226.851E-03
            4493            4713     189.951E-03     194.982E-03
            4493            4727     230.342E-03     231.450E-03
            4493            4728     200.010E-03     202.513E-03
            4494            4713     189.951E-03     194.982E-03
            4494            4714     161.328E-03     166.091E-03
            4494            4728     200.010E-03     202.513E-03
            4494            4729     173.049E-03     177.935E-03
            4495            4714     161.328E-03     166.091E-03
            4495            4715     138.661E-03     141.030E-03
            4495            4729     173.049E-03     177.935E-03
            4495            4730     152.985E-03     157.149E-03
            4496            4715     138.661E-03     141.030E-03
            4496            4716     124.770E-03     123.465E-03
            4496            4730     152.985E-03     157.149E-03
            4496            4731     141.021E-03     140.456E-03
            4497             763     120.527E-03     117.190E-03
            4497             764     136.798E-03     133.616E-03
            4497            4716     124.770E-03     123.465E-03
            4497            4731     141.021E-03     140.456E-03
            4498             607     528.588E-03     530.476E-03
            4498             608     478.839E-03     477.014E-03
            4498            4717     518.412E-03     523.703E-03
            4498            4732     475.468E-03     477.053E-03
            4499            4717     518.412E-03     523.703E-03
            4499            4718     501.016E-03     510.380E-03
            4499            4732     475.468E-03     477.053E-03
            4499            4733     471.731E-03     474.156E-03
            4500            4718     501.016E-03     510.380E-03
            4500            4719     484.273E-03     492.669E-03
            4500            4733     471.731E-03     474.156E-03
            4500            4734     463.926E-03     462.245E-03
            4501            4719     484.273E-03     492.669E-03
            4501            4720     461.576E-03     466.778E-03
            4501            4734     463.926E-03     462.245E-03
            4501            4735     445.299E-03     441.426E-03
            4502            4720     461.576E-03     466.778E-03
            4502            4721     432.599E-03     435.551E-03
            4502            4735     445.299E-03     441.426E-03
            4502            4736     420.515E-03     415.689E-03
            4503            4721     432.599E-03     435.551E-03
            4503            4722     400.107E-03     401.649E-03
            4503            4736     420.515E-03     415.689E-03
            4503            4737     391.802E-03     386.910E-03
            4504            4722     400.107E-03     401.649E-03
            4504            4723     365.883E-03     366.529E-03
            4504            4737     391.802E-03     386.910E-03
            4504            4738     361.143E-03     356.551E-03
            4505            4723     365.883E-03     366.529E-03
            4505            4724     330.998E-03     331.302E-03
            4505            4738     361.143E-03     356.551E-03
            4505            4739     329.733E-03     325.517E-03
            4506            4724     330.998E-03     331.302E-03
            4506            4725     296.469E-03     296.637E-03
            4506            4739     329.733E-03     325.517E-03
            4506            4740     298.348E-03     294.667E-03
            4507            4725     296.469E-03     296.637E-03
            4507            4726     262.663E-03     263.115E-03
            4507            4740     298.348E-03     294.667E-03
            4507            4741     267.775E-03     264.630E-03
            4508            4726     262.663E-03     263.115E-03
            4508            4727     230.342E-03     231.450E-03
            4508            4741     267.775E-03     264.630E-03
            4508            4742     238.471E-03     236.290E-03
            4509            4727     230.342E-03     231.450E-03
            4509            4728     200.010E-03     202.513E-03
            4509            4742     238.471E-03     236.290E-03
            4509            4743     211.291E-03     210.615E-03
            4510            4728     200.010E-03     202.513E-03
            4510            4729     173.049E-03     177.935E-03
            4510            4743     211.291E-03     210.615E-03
            4510            4744     186.618E-03     189.431E-03
            4511            4729     173.049E-03     177.935E-03
            4511            4730     152.985E-03     157.149E-03
            4511            4744     186.618E-03     189.431E-03
            4511            4745     166.597E-03     174.906E-03
            4512            4730     152.985E-03     157.149E-03
            4512            4731     141.021E-03     140.456E-03
            4512            4745     166.597E-03     174.906E-03
            4512            4746     157.425E-03     163.129E-03
            4513             764     136.798E-03     133.616E-03
            4513             765     156.530E-03     156.778E-03
            4513            4731     141.021E-03     140.456E-03
            4513            4746     157.425E-03     163.129E-03
            4514             608     478.839E-03     477.014E-03
            4514             609     425.372E-03     407.520E-03
            4514            4732     475.468E-03     477.053E-03
            4514            4747     435.272E-03     417.866E-03
            4515            4732     475.468E-03     477.053E-03
            4515            4733     471.731E-03     474.156E-03
            4515            4747     435.272E-03     417.866E-03
            4515            4748     445.722E-03     428.157E-03
            4516            4733     471.731E-03     474.156E-03
            4516            4734     463.926E-03     462.245E-03
            4516            4748     445.722E-03     428.157E-03
            4516            4749     440.609E-03     423.237E-03
            4517            4734     463.926E-03     462.245E-03
            4517            4735     445.299E-03     441.426E-03
            4517            4749     440.609E-03     423.237E-03
            4517            4750     425.618E-03     410.145E-03
            4518            4735     445.299E-03     441.426E-03
            4518            4736     420.515E-03     415.689E-03
            4518            4750     425.618E-03     410.145E-03
            4518            4751     404.899E-03     391.762E-03
            4519            4736     420.515E-03     415.689E-03
            4519            4737     391.802E-03     386.910E-03
            4519            4751     404.899E-03     391.762E-03
            4519            4752     380.847E-03     369.761E-03
            4520            4737     391.802E-03     386.910E-03
            4520            4738     361.143E-03     356.551E-03
            4520            4752     380.847E-03     369.761E-03
            4520            4753     354.701E-03     345.339E-03
            4521            4738     361.143E-03     356.551E-03
            4521            4739     329.733E-03     325.517E-03
            4521            4753     354.701E-03     345.339E-03
            4521            4754     327.600E-03     319.638E-03
            4522            4739     329.733E-03     325.517E-03
            4522            4740     298.348E-03     294.667E-03
            4522            4754     327.600E-03     319.638E-03
            4522            4755     300.311E-03     293.402E-03
            4523            4740     298.348E-03     294.667E-03
            4523            4741     267.775E-03     264.630E-03
            4523            4755     300.311E-03     293.402E-03
            4523            4756     273.571E-03     267.557E-03
            4524            4741     267.775E-03     264.630E-03
            4524            4742     238.471E-03     236.290E-03
            4524            4756     273.571E-03     267.557E-03
            4524            4757     248.023E-03     242.871E-03
            4525            4742     238.471E-03     236.290E-03
            4525            4743     211.291E-03     210.615E-03
            4525            4757     248.023E-03     242.871E-03
            4525            4758     224.457E-03     220.490E-03
            4526            4743     211.291E-03     210.615E-03
            4526            4744     186.618E-03     189.431E-03
            4526            4758     224.457E-03     220.490E-03
            4526            4759     203.413E-03     201.622E-03
            4527            4744     186.618E-03     189.431E-03
            4527            4745     166.597E-03     174.906E-03
            4527            4759     203.413E-03     201.622E-03
            4527            4760     184.838E-03     189.523E-03
            4528            4745     166.597E-03     174.906E-03
            4528            4746     157.425E-03     163.129E-03
            4528            4760     184.838E-03     189.523E-03
            4528            4761     171.045E-03     186.285E-03
            4529             765     156.530E-03     156.778E-03
            4529             766     165.867E-03     186.707E-03
            4529            4746     157.425E-03     163.129E-03
            4529            4761     171.045E-03     186.285E-03
            4530             609     425.372E-03     407.520E-03
            4530             610     440.934E-03     449.502E-03
            4530            4747     435.272E-03     417.866E-03
            4530            4762     415.754E-03     416.900E-03
            4531            4747     435.272E-03     417.866E-03
            4531            4748     445.722E-03     428.157E-03
            4531            4762     415.754E-03     416.900E-03
            4531            4763     377.377E-03     370.126E-03
            4532            4748     445.722E-03     428.157E-03
            4532            4749     440.609E-03     423.237E-03
            4532            4763     377.377E-03     370.126E-03
            4532            4764     350.657E-03     344.314E-03
            4533            4749     440.609E-03     423.237E-03
            4533            4750     425.618E-03     410.145E-03
            4533            4764     350.657E-03     344.314E-03
            4533            4765     325.732E-03     321.916E-03
            4534            4750     425.618E-03     410.145E-03
            4534            4751     404.899E-03     391.762E-03
            4534            4765     325.732E-03     321.916E-03
            4534            4766     302.877E-03     301.190E-03
            4535            4751     404.899E-03     391.762E-03
            4535            4752     380.847E-03     369.761E-03
            4535            4766     302.877E-03     301.190E-03
            4535            4767     280.440E-03     280.878E-03
            4536            4752     380.847E-03     369.761E-03
            4536            4753     354.701E-03     345.339E-03
            4536            4767     280.440E-03     280.878E-03
            4536            4768     258.668E-03     260.544E-03
            4537            4753     354.701E-03     345.339E-03
            4537            4754     327.600E-03     319.638E-03
            4537            4768     258.668E-03     260.544E-03
            4537            4769     237.172E-03     240.165E-03
            4538            4754     327.600E-03     319.638E-03
            4538            4755     300.311E-03     293.402E-03
            4538            4769     237.172E-03     240.165E-03
            4538            4770     216.190E-03     219.803E-03
            4539            4755     300.311E-03     293.402E-03
            4539            4756     273.571E-03     267.557E-03
            4539            4770     216.190E-03     219.803E-03
            4539            4771     195.926E-03     199.894E-03
            4540            4756     273.571E-03     267.557E-03
            4540            4757     248.023E-03     242.871E-03
            4540            4771     195.926E-03     199.894E-03
            4540            4772     176.702E-03     180.597E-03
            4541            4757     248.023E-03     242.871E-03
            4541            4758     224.457E-03     220.490E-03
            4541            4772     176.702E-03     180.597E-03
            4541            4773     159.136E-03     162.947E-03
            4542            4758     224.457E-03     220.490E-03
            4542            4759     203.413E-03     201.622E-03
            4542            4773     159.136E-03     162.947E-03
            4542            4774     143.651E-03     147.056E-03
            4543            4759     203.413E-03     201.622E-03
            4543            4760     184.838E-03     189.523E-03
            4543            4774     143.651E-03     147.056E-03
            4543            4775     131.318E-03     135.652E-03
            4544            4760     184.838E-03     189.523E-03
            4544            4761     171.045E-03     186.285E-03
            4544            4775     131.318E-03     135.652E-03
            4544            4776     118.492E-03     131.430E-03
            4545             766     165.867E-03     186.707E-03
            4545             767     110.849E-03     131.010E-03
            4545            4761     171.045E-03     186.285E-03
            4545            4776     118.492E-03     131.430E-03
            4546             610     440.934E-03     449.502E-03
            4546             611     475.022E-03     482.967E-03
            4546            4762     415.754E-03     416.900E-03
            4546            4777     419.831E-03     431.559E-03
            4547            4762     415.754E-03     416.900E-03
            4547            4763     377.377E-03     370.126E-03
            4547            4777     419.831E-03     431.559E-03
            4547            4778     330.201E-03     344.715E-03
            4548            4763     377.377E-03     370.126E-03
            4548            4764     350.657E-03     344.314E-03
            4548            4778     330.201E-03     344.715E-03
            4548            4779     276.458E-03     289.873E-03
            4549            4764     350.657E-03     344.314E-03
            4549            4765     325.732E-03     321.916E-03
            4549            4779     276.458E-03     289.873E-03
            4549            4780     240.905E-03     254.182E-03
            4550            4765     325.732E-03     321.916E-03
            4550            4766     302.877E-03     301.190E-03
            4550            4780     240.905E-03     254.182E-03
            4550            4781     212.658E-03     226.306E-03
            4551            4766     302.877E-03     301.190E-03
            4551            4767     280.440E-03     280.878E-03
            4551            4781     212.658E-03     226.306E-03
            4551            4782     189.918E-03     203.978E-03
            4552            4767     280.440E-03     280.878E-03
            4552            4768     258.668E-03     260.544E-03
            4552            4782     189.918E-03     203.978E-03
            4552            4783     169.903E-03     184.220E-03
            4553            4768     258.668E-03     260.544E-03
            4553            4769     237.172E-03     240.165E-03
            4553            4783     169.903E-03     184.220E-03
            4553            4784     151.932E-03     166.328E-03
            4554            4769     237.172E-03     240.165E-03
            4554            4770     216.190E-03     219.803E-03
            4554            4784     151.932E-03     166.328E-03
            4554            4785     135.166E-03     149.337E-03
            4555            4770     216.190E-03     219.803E-03
            4555            4771     195.926E-03     199.894E-03
            4555            4785     135.166E-03     149.337E-03
            4555            4786     119.499E-03     133.164E-03
            4556            4771     195.926E-03     199.894E-03
            4556            4772     176.702E-03     180.597E-03
            4556            4786     119.499E-03     133.164E-03
            4556            4787     104.843E-03     117.650E-03
            4557            4772     176.702E-03     180.597E-03
            4557            4773     159.136E-03     162.947E-03
            4557            4787     104.843E-03     117.650E-03
            4557            4788     91.5619E-03     103.121E-03
            4558            4773     159.136E-03     162.947E-03
            4558            4774     143.651E-03     147.056E-03
            4558            4788     91.5619E-03     103.121E-03
            4558            4789     80.0733E-03     89.9474E-03
            4559            4774     143.651E-03     147.056E-03
            4559            4775     131.318E-03     135.652E-03
            4559            4789     80.0733E-03     89.9474E-03
            4559            4790     71.2491E-03     79.6096E-03
            4560            4775     131.318E-03     135.652E-03
            4560            4776     118.492E-03     131.430E-03
            4560            4790     71.2491E-03     79.6096E-03
            4560            4791     66.3023E-03     71.8189E-03
            4561             767     110.849E-03     131.010E-03
            4561             768     64.9156E-03     68.2605E-03
            4561            4776     118.492E-03     131.430E-03
            4561            4791     66.3023E-03     71.8189E-03
            4562             611     475.022E-03     482.967E-03
            4562             612     433.782E-03     431.084E-03
            4562            4777     419.831E-03     431.559E-03
            4562            4792     403.022E-03     403.744E-03
            4563            4777     419.831E-03     431.559E-03
            4563            4778     330.201E-03     344.715E-03
            4563            4792     403.022E-03     403.744E-03
            4563            4793     338.515E-03     345.581E-03
            4564            4778     330.201E-03     344.715E-03
            4564            4779     276.458E-03     289.873E-03
            4564            4793     338.515E-03     345.581E-03
            4564            4794     283.470E-03     294.662E-03
            4565            4779     276.458E-03     289.873E-03
            4565            4780     240.905E-03     254.182E-03
            4565            4794     283.470E-03     294.662E-03
            4565            4795     247.477E-03     259.735E-03
            4566            4780     240.905E-03     254.182E-03
            4566            4781     212.658E-03     226.306E-03
            4566            4795     247.477E-03     259.735E-03
            4566            4796     220.186E-03     232.615E-03
            4567            4781     212.658E-03     226.306E-03
            4567            4782     189.918E-03     203.978E-03
            4567            4796     220.186E-03     232.615E-03
            4567            4797     197.547E-03     210.170E-03
            4568            4782     189.918E-03     203.978E-03
            4568            4783     169.903E-03     184.220E-03
            4568            4797     197.547E-03     210.170E-03
            4568            4798     178.101E-03     190.518E-03
            4569            4783     169.903E-03     184.220E-03
            4569            4784     151.932E-03     166.328E-03
            4569            4798     178.101E-03     190.518E-03
            4569            4799     160.293E-03     172.436E-03
            4570            4784     151.932E-03     166.328E-03
            4570            4785     135.166E-03     149.337E-03
            4570            4799     160.293E-03     172.436E-03
            4570            4800     143.853E-03     155.491E-03
            4571            4785     135.166E-03     149.337E-03
            4571            4786     119.499E-03     133.164E-03
            4571            4800     143.853E-03     155.491E-03
            4571            4801     128.402E-03     139.332E-03
            4572            4786     119.499E-03     133.164E-03
            4572            4787     104.843E-03     117.650E-03
            4572            4801     128.402E-03     139.332E-03
            4572            4802     114.129E-03     124.073E-03
            4573            4787     104.843E-03     117.650E-03
            4573            4788     91.5619E-03     103.121E-03
            4573            4802     114.129E-03     124.073E-03
            4573            4803     101.265E-03     109.798E-03
            4574            4788     91.5619E-03     103.121E-03
            4574            4789     80.0733E-03     89.9474E-03
            4574            4803     101.265E-03     109.798E-03
            4574            4804     90.3051E-03     97.2246E-03
            4575            4789     80.0733E-03     89.9474E-03
            4575            4790     71.2491E-03     79.6096E-03
            4575            4804     90.3051E-03     97.2246E-03
            4575            4805     82.1841E-03     86.5255E-03
            4576            4790     71.2491E-03     79.6096E-03
            4576            4791     66.3023E-03     71.8189E-03
            4576            4805     82.1841E-03     86.5255E-03
            4576            4806     78.1419E-03     77.3152E-03
            4577             768     64.9156E-03     68.2605E-03
            4577             769     77.2702E-03     73.0492E-03
            4577            4791     66.3023E-03     71.8189E-03
            4577            4806     78.1419E-03     77.3152E-03
            4578             612     433.782E-03     431.084E-03
            4578             613     388.057E-03     395.984E-03
            4578            4792     403.022E-03     403.744E-03
            4578            4807     366.743E-03     373.058E-03
            4579            4792     403.022E-03     403.744E-03
            4579            4793     338.515E-03     345.581E-03
            4579            4807     366.743E-03     373.058E-03
            4579            4808     324.901E-03     330.664E-03
            4580            4793     338.515E-03     345.581E-03
            4580            4794     283.470E-03     294.662E-03
            4580            4808     324.901E-03     330.664E-03
            4580            4809     284.823E-03     293.119E-03
            4581            4794     283.470E-03     294.662E-03
            4581            4795     247.477E-03     259.735E-03
            4581            4809     284.823E-03     293.119E-03
            4581            4810     251.391E-03     261.920E-03
            4582            4795     247.477E-03     259.735E-03
            4582            4796     220.186E-03     232.615E-03
            4582            4810     251.391E-03     261.920E-03
            4582            4811     226.317E-03     237.338E-03
            4583            4796     220.186E-03     232.615E-03
            4583            4797     197.547E-03     210.170E-03
            4583            4811     226.317E-03     237.338E-03
            4583            4812     205.009E-03     215.830E-03
            4584            4797     197.547E-03     210.170E-03
            4584            4798     178.101E-03     190.518E-03
            4584            4812     205.009E-03     215.830E-03
            4584            4813     186.027E-03     196.544E-03
            4585            4798     178.101E-03     190.518E-03
            4585            4799     160.293E-03     172.436E-03
            4585            4813     186.027E-03     196.544E-03
            4585            4814     168.635E-03     178.555E-03
            4586            4799     160.293E-03     172.436E-03
            4586            4800     143.853E-03     155.491E-03
            4586            4814     168.635E-03     178.555E-03
            4586            4815     152.275E-03     161.566E-03
            4587            4800     143.853E-03     155.491E-03
            4587            4801     128.402E-03     139.332E-03
            4587            4815     152.275E-03     161.566E-03
            4587            4816     137.017E-03     145.476E-03
            4588            4801     128.402E-03     139.332E-03
            4588            4802     114.129E-03     124.073E-03
            4588            4816     137.017E-03     145.476E-03
            4588            4817     122.944E-03     130.284E-03
            4589            4802     114.129E-03     124.073E-03
            4589            4803     101.265E-03     109.798E-03
            4589            4817     122.944E-03     130.284E-03
            4589            4818     110.410E-03     116.252E-03
            4590            4803     101.265E-03     109.798E-03
            4590            4804     90.3051E-03     97.2246E-03
            4590            4818     110.410E-03     116.252E-03
            4590            4819     99.9927E-03     103.643E-03
            4591            4804     90.3051E-03     97.2246E-03
            4591            4805     82.1841E-03     86.5255E-03
            4591            4819     99.9927E-03     103.643E-03
            4591            4820     92.5276E-03     92.3966E-03
            4592            4805     82.1841E-03     86.5255E-03
            4592            4806     78.1419E-03     77.3152E-03
            4592            4820     92.5276E-03     92.3966E-03
            4592            4821     87.7621E-03     84.0208E-03
            4593             769     77.2702E-03     73.0492E-03
            4593             770     85.9305E-03     80.9724E-03
            4593            4806     78.1419E-03     77.3152E-03
            4593            4821     87.7621E-03     84.0208E-03
            4594             613     388.057E-03     395.984E-03
            4594             614     352.707E-03     352.453E-03
            4594            4807     366.743E-03     373.058E-03
            4594            4822     334.630E-03     337.226E-03
            4595            4807     366.743E-03     373.058E-03
            4595            4808     324.901E-03     330.664E-03
            4595            4822     334.630E-03     337.226E-03
            4595            4823     301.877E-03     308.271E-03
            4596            4808     324.901E-03     330.664E-03
            4596            4809     284.823E-03     293.119E-03
            4596            4823     301.877E-03     308.271E-03
            4596            4824     275.038E-03     282.854E-03
            4597            4809     284.823E-03     293.119E-03
            4597            4810     251.391E-03     261.920E-03
            4597            4824     275.038E-03     282.854E-03
            4597            4825     251.081E-03     259.867E-03
            4598            4810     251.391E-03     261.920E-03
            4598            4811     226.317E-03     237.338E-03
            4598            4825     251.081E-03     259.867E-03
            4598            4826     229.549E-03     238.867E-03
            4599            4811     226.317E-03     237.338E-03
            4599            4812     205.009E-03     215.830E-03
            4599            4826     229.549E-03     238.867E-03
            4599            4827     210.700E-03     219.639E-03
            4600            4812     205.009E-03     215.830E-03
            4600            4813     186.027E-03     196.544E-03
            4600            4827     210.700E-03     219.639E-03
            4600            4828     192.882E-03     201.203E-03
            4601            4813     186.027E-03     196.544E-03
            4601            4814     168.635E-03     178.555E-03
            4601            4828     192.882E-03     201.203E-03
            4601            4829     175.981E-03     183.664E-03
            4602            4814     168.635E-03     178.555E-03
            4602            4815     152.275E-03     161.566E-03
            4602            4829     175.981E-03     183.664E-03
            4602            4830     159.909E-03     166.875E-03
            4603            4815     152.275E-03     161.566E-03
            4603            4816     137.017E-03     145.476E-03
            4603            4830     159.909E-03     166.875E-03
            4603            4831     144.799E-03     150.957E-03
            4604            4816     137.017E-03     145.476E-03
            4604            4817     122.944E-03     130.284E-03
            4604            4831     144.799E-03     150.957E-03
            4604            4832     130.922E-03     136.007E-03
            4605            4817     122.944E-03     130.284E-03
            4605            4818     110.410E-03     116.252E-03
            4605            4832     130.922E-03     136.007E-03
            4605            4833     118.706E-03     122.247E-03
            4606            4818     110.410E-03     116.252E-03
            4606            4819     99.9927E-03     103.643E-03
            4606            4833     118.706E-03     122.247E-03
            4606            4834     108.680E-03     109.693E-03
            4607            4819     99.9927E-03     103.643E-03
            4607            4820     92.5276E-03     92.3966E-03
            4607            4834     108.680E-03     109.693E-03
            4607            4835     101.050E-03     99.3324E-03
            4608            4820     92.5276E-03     92.3966E-03
            4608            4821     87.7621E-03     84.0208E-03
            4608            4835     101.050E-03     99.3324E-03
            4608            4836     96.3912E-03     91.9730E-03
            4609             770     85.9305E-03     80.9724E-03
            4609             771     94.9093E-03     88.9868E-03
            4609            4821     87.7621E-03     84.0208E-03
            4609            4836     96.3912E-03     91.9730E-03
            4610             614     352.707E-03     352.453E-03
            4610             615     313.702E-03     317.101E-03
            4610            4822     334.630E-03     337.226E-03
            4610            4837     300.844E-03     304.161E-03
            4611            4822     334.630E-03     337.226E-03
            4611            4823     301.877E-03     308.271E-03
            4611            4837     300.844E-03     304.161E-03
            4611            4838     278.297E-03     283.222E-03
            4612            4823     301.877E-03     308.271E-03
            4612            4824     275.038E-03     282.854E-03
            4612            4838     278.297E-03     283.222E-03
            4612            4839     260.556E-03     267.890E-03
            4613            4824     275.038E-03     282.854E-03
            4613            4825     251.081E-03     259.867E-03
            4613            4839     260.556E-03     267.890E-03
            4613            4840     245.312E-03     253.098E-03
            4614            4825     251.081E-03     259.867E-03
            4614            4826     229.549E-03     238.867E-03
            4614            4840     245.312E-03     253.098E-03
            4614            4841     229.958E-03     237.277E-03
            4615            4826     229.549E-03     238.867E-03
            4615            4827     210.700E-03     219.639E-03
            4615            4841     229.958E-03     237.277E-03
            4615            4842     213.918E-03     220.640E-03
            4616            4827     210.700E-03     219.639E-03
            4616            4828     192.882E-03     201.203E-03
            4616            4842     213.918E-03     220.640E-03
            4616            4843     197.879E-03     203.782E-03
            4617            4828     192.882E-03     201.203E-03
            4617            4829     175.981E-03     183.664E-03
            4617            4843     197.879E-03     203.782E-03
            4617            4844     181.772E-03     186.996E-03
            4618            4829     175.981E-03     183.664E-03
            4618            4830     159.909E-03     166.875E-03
            4618            4844     181.772E-03     186.996E-03
            4618            4845     166.183E-03     170.793E-03
            4619            4830     159.909E-03     166.875E-03
            4619            4831     144.799E-03     150.957E-03
            4619            4845     166.183E-03     170.793E-03
            4619            4846     151.367E-03     155.366E-03
            4620            4831     144.799E-03     150.957E-03
            4620            4832     130.922E-03     136.007E-03
            4620            4846     151.367E-03     155.366E-03
            4620            4847     137.809E-03     140.982E-03
            4621            4832     130.922E-03     136.007E-03
            4621            4833     118.706E-03     122.247E-03
            4621            4847     137.809E-03     140.982E-03
            4621            4848     125.903E-03     127.714E-03
            4622            4833     118.706E-03     122.247E-03
            4622            4834     108.680E-03     109.693E-03
            4622            4848     125.903E-03     127.714E-03
            4622            4849     116.098E-03     116.076E-03
            4623            4834     108.680E-03     109.693E-03
            4623            4835     101.050E-03     99.3324E-03
            4623            4849     116.098E-03     116.076E-03
            4623            4850     108.850E-03     106.298E-03
            4624            4835     101.050E-03     99.3324E-03
            4624            4836     96.3912E-03     91.9730E-03
            4624            4850     108.850E-03     106.298E-03
            4624            4851     104.239E-03     99.3675E-03
            4625             771     94.9093E-03     88.9868E-03
            4625             772     102.593E-03     96.8877E-03
            4625            4836     96.3912E-03     91.9730E-03
            4625            4851     104.239E-03     99.3675E-03
            4626             615     313.702E-03     317.101E-03
            4626             616     279.166E-03     278.272E-03
            4626            4837     300.844E-03     304.161E-03
            4626            4852     268.167E-03     269.972E-03
            4627            4837     300.844E-03     304.161E-03
            4627            4838     278.297E-03     283.222E-03
            4627            4852     268.167E-03     269.972E-03
            4627            4853     252.576E-03     257.884E-03
            4628            4838     278.297E-03     283.222E-03
            4628            4839     260.556E-03     267.890E-03
            4628            4853     252.576E-03     257.884E-03
            4628            4854     244.798E-03     251.049E-03
            4629            4839     260.556E-03     267.890E-03
            4629            4840     245.312E-03     253.098E-03
            4629            4854     244.798E-03     251.049E-03
            4629            4855     237.166E-03     243.351E-03
            4630            4840     245.312E-03     253.098E-03
            4630            4841     229.958E-03     237.277E-03
            4630            4855     237.166E-03     243.351E-03
            4630            4856     227.362E-03     232.484E-03
            4631            4841     229.958E-03     237.277E-03
            4631            4842     213.918E-03     220.640E-03
            4631            4856     227.362E-03     232.484E-03
            4631            4857     214.884E-03     218.792E-03
            4632            4842     213.918E-03     220.640E-03
            4632            4843     197.879E-03     203.782E-03
            4632            4857     214.884E-03     218.792E-03
            4632            4858     200.519E-03     203.672E-03
            4633            4843     197.879E-03     203.782E-03
            4633            4844     181.772E-03     186.996E-03
            4633            4858     200.519E-03     203.672E-03
            4633            4859     185.666E-03     188.184E-03
            4634            4844     181.772E-03     186.996E-03
            4634            4845     166.183E-03     170.793E-03
            4634            4859     185.666E-03     188.184E-03
            4634            4860     170.776E-03     172.920E-03
            4635            4845     166.183E-03     170.793E-03
            4635            4846     151.367E-03     155.366E-03
            4635            4860     170.776E-03     172.920E-03
            4635            4861     156.576E-03     158.440E-03
            4636            4846     151.367E-03     155.366E-03
            4636            4847     137.809E-03     140.982E-03
            4636            4861     156.576E-03     158.440E-03
            4636            4862     143.454E-03     145.036E-03
            4637            4847     137.809E-03     140.982E-03
            4637            4848     125.903E-03     127.714E-03
            4637            4862     143.454E-03     145.036E-03
            4637            4863     132.021E-03     132.918E-03
            4638            4848     125.903E-03     127.714E-03
            4638            4849     116.098E-03     116.076E-03
            4638            4863     132.021E-03     132.918E-03
            4638            4864     122.658E-03     122.177E-03
            4639            4849     116.098E-03     116.076E-03
            4639            4850     108.850E-03     106.298E-03
            4639            4864     122.658E-03     122.177E-03
            4639            4865     115.806E-03     113.420E-03
            4640            4850     108.850E-03     106.298E-03
            4640            4851     104.239E-03     99.3675E-03
            4640            4865     115.806E-03     113.420E-03
            4640            4866     111.555E-03     106.773E-03
            4641             772     102.593E-03     96.8877E-03
            4641             773     110.023E-03     103.914E-03
            4641            4851     104.239E-03     99.3675E-03
            4641            4866     111.555E-03     106.773E-03
            4642             616     279.166E-03     278.272E-03
            4642             617     240.172E-03     240.341E-03
            4642            4852     268.167E-03     269.972E-03
            4642            4867     233.633E-03     235.137E-03
            4643            4852     268.167E-03     269.972E-03
            4643            4853     252.576E-03     257.884E-03
            4643            4867     233.633E-03     235.137E-03
            4643            4868     226.999E-03     231.291E-03
            4644            4853     252.576E-03     257.884E-03
            4644            4854     244.798E-03     251.049E-03
            4644            4868     226.999E-03     231.291E-03
            4644            4869     228.100E-03     233.357E-03
            4645            4854     244.798E-03     251.049E-03
            4645            4855     237.166E-03     243.351E-03
            4645            4869     228.100E-03     233.357E-03
            4645            4870     228.348E-03     231.844E-03
            4646            4855     237.166E-03     243.351E-03
            4646            4856     227.362E-03     232.484E-03
            4646            4870     228.348E-03     231.844E-03
            4646            4871     223.029E-03     224.779E-03
            4647            4856     227.362E-03     232.484E-03
            4647            4857     214.884E-03     218.792E-03
            4647            4871     223.029E-03     224.779E-03
            4647            4872     213.192E-03     213.856E-03
            4648            4857     214.884E-03     218.792E-03
            4648            4858     200.519E-03     203.672E-03
            4648            4872     213.192E-03     213.856E-03
            4648            4873     200.947E-03     200.844E-03
            4649            4858     200.519E-03     203.672E-03
            4649            4859     185.666E-03     188.184E-03
            4649            4873     200.947E-03     200.844E-03
            4649            4874     187.386E-03     186.989E-03
            4650            4859     185.666E-03     188.184E-03
            4650            4860     170.776E-03     172.920E-03
            4650            4874     187.386E-03     186.989E-03
            4650            4875     173.715E-03     173.242E-03
            4651            4860     170.776E-03     172.920E-03
            4651            4861     156.576E-03     158.440E-03
            4651            4875     173.715E-03     173.242E-03
            4651            4876     160.445E-03     160.132E-03
            4652            4861     156.576E-03     158.440E-03
            4652            4862     143.454E-03     145.036E-03
            4652            4876     160.445E-03     160.132E-03
            4652            4877     148.127E-03     148.167E-03
            4653            4862     143.454E-03     145.036E-03
            4653            4863     132.021E-03     132.918E-03
            4653            4877     148.127E-03     148.167E-03
            4653            4878     137.222E-03     137.719E-03
            4654            4863     132.021E-03     132.918E-03
            4654            4864     122.658E-03     122.177E-03
            4654            4878     137.222E-03     137.719E-03
            4654            4879     128.563E-03     128.497E-03
            4655            4864     122.658E-03     122.177E-03
            4655            4865     115.806E-03     113.420E-03
            4655            4879     128.563E-03     128.497E-03
            4655            4880     122.196E-03     120.485E-03
            4656            4865     115.806E-03     113.420E-03
            4656            4866     111.555E-03     106.773E-03
            4656            4880     122.196E-03     120.485E-03
            4656            4881     118.363E-03     114.860E-03
            4657             773     110.023E-03     103.914E-03
            4657             774     117.209E-03     112.792E-03
            4657            4866     111.555E-03     106.773E-03
            4657            4881     118.363E-03     114.860E-03
            4658             617     240.172E-03     240.341E-03
            4658             618     202.043E-03     198.065E-03
            4658            4867     233.633E-03     235.137E-03
            4658            4882     197.723E-03     197.768E-03
            4659            4867     233.633E-03     235.137E-03
            4659            4868     226.999E-03     231.291E-03
            4659            4882     197.723E-03     197.768E-03
            4659            4883     200.506E-03     204.307E-03
            4660            4868     226.999E-03     231.291E-03
            4660            4869     228.100E-03     233.357E-03
            4660            4883     200.506E-03     204.307E-03
            4660            4884     213.393E-03     215.007E-03
            4661            4869     228.100E-03     233.357E-03
            4661            4870     228.348E-03     231.844E-03
            4661            4884     213.393E-03     215.007E-03
            4661            4885     219.170E-03     218.078E-03
            4662            4870     228.348E-03     231.844E-03
            4662            4871     223.029E-03     224.779E-03
            4662            4885     219.170E-03     218.078E-03
            4662            4886     216.643E-03     214.060E-03
            4663            4871     223.029E-03     224.779E-03
            4663            4872     213.192E-03     213.856E-03
            4663            4886     216.643E-03     214.060E-03
            4663            4887     209.267E-03     205.899E-03
            4664            4872     213.192E-03     213.856E-03
            4664            4873     200.947E-03     200.844E-03
            4664            4887     209.267E-03     205.899E-03
            4664            4888     198.898E-03     195.336E-03
            4665            4873     200.947E-03     200.844E-03
            4665            4874     187.386E-03     186.989E-03
            4665            4888     198.898E-03     195.336E-03
            4665            4889     187.247E-03     183.752E-03
            4666            4874     187.386E-03     186.989E-03
            4666            4875     173.715E-03     173.242E-03
            4666            4889     187.247E-03     183.752E-03
            4666            4890     175.149E-03     171.994E-03
            4667            4875     173.715E-03     173.242E-03
            4667            4876     160.445E-03     160.132E-03
            4667            4890     175.149E-03     171.994E-03
            4667            4891     163.340E-03     160.796E-03
            4668            4876     160.445E-03     160.132E-03
            4668            4877     148.127E-03     148.167E-03
            4668            4891     163.340E-03     160.796E-03
            4668            4892     152.277E-03     150.609E-03
            4669            4877     148.127E-03     148.167E-03
            4669            4878     137.222E-03     137.719E-03
            4669            4892     152.277E-03     150.609E-03
            4669            4893     142.221E-03     141.946E-03
            4670            4878     137.222E-03     137.719E-03
            4670            4879     128.563E-03     128.497E-03
            4670            4893     142.221E-03     141.946E-03
            4670            4894     133.764E-03     135.238E-03
            4671            4879     128.563E-03     128.497E-03
            4671            4880     122.196E-03     120.485E-03
            4671            4894     133.764E-03     135.238E-03
            4671            4895     128.427E-03     128.887E-03
            4672            4880     122.196E-03     120.485E-03
            4672            4881     118.363E-03     114.860E-03
            4672            4895     128.427E-03     128.887E-03
            4672            4896     125.137E-03     122.551E-03
            4673             774     117.209E-03     112.792E-03
            4673             775     123.569E-03     119.733E-03
            4673            4881     118.363E-03     114.860E-03
            4673            4896     125.137E-03     122.551E-03
            4674             618     202.043E-03     198.065E-03
            4674             619     155.870E-03     153.028E-03
            4674            4882     197.723E-03     197.768E-03
            4674            4897     159.273E-03     158.237E-03
            4675            4882     197.723E-03     197.768E-03
            4675            4883     200.506E-03     204.307E-03
            4675            4897     159.273E-03     158.237E-03
            4675            4898     178.689E-03     176.621E-03
            4676            4883     200.506E-03     204.307E-03
            4676            4884     213.393E-03     215.007E-03
            4676            4898     178.689E-03     176.621E-03
            4676            4899     200.772E-03     194.704E-03
            4677            4884     213.393E-03     215.007E-03
            4677            4885     219.170E-03     218.078E-03
            4677            4899     200.772E-03     194.704E-03
            4677            4900     208.294E-03     200.713E-03
            4678            4885     219.170E-03     218.078E-03
            4678            4886     216.643E-03     214.060E-03
            4678            4900     208.294E-03     200.713E-03
            4678            4901     208.004E-03     200.147E-03
            4679            4886     216.643E-03     214.060E-03
            4679            4887     209.267E-03     205.899E-03
            4679            4901     208.004E-03     200.147E-03
            4679            4902     202.853E-03     195.241E-03
            4680            4887     209.267E-03     205.899E-03
            4680            4888     198.898E-03     195.336E-03
            4680            4902     202.853E-03     195.241E-03
            4680            4903     194.956E-03     187.865E-03
            4681            4888     198.898E-03     195.336E-03
            4681            4889     187.247E-03     183.752E-03
            4681            4903     194.956E-03     187.865E-03
            4681            4904     185.609E-03     179.182E-03
            4682            4889     187.247E-03     183.752E-03
            4682            4890     175.149E-03     171.994E-03
            4682            4904     185.609E-03     179.182E-03
            4682            4905     175.733E-03     170.060E-03
            4683            4890     175.149E-03     171.994E-03
            4683            4891     163.340E-03     160.796E-03
            4683            4905     175.733E-03     170.060E-03
            4683            4906     165.892E-03     161.118E-03
            4684            4891     163.340E-03     160.796E-03
            4684            4892     152.277E-03     150.609E-03
            4684            4906     165.892E-03     161.118E-03
            4684            4907     156.489E-03     152.987E-03
            4685            4892     152.277E-03     150.609E-03
            4685            4893     142.221E-03     141.946E-03
            4685            4907     156.489E-03     152.987E-03
            4685            4908     147.870E-03     146.056E-03
            4686            4893     142.221E-03     141.946E-03
            4686            4894     133.764E-03     135.238E-03
            4686            4908     147.870E-03     146.056E-03
            4686            4909     139.871E-03     141.201E-03
            4687            4894     133.764E-03     135.238E-03
            4687            4895     128.427E-03     128.887E-03
            4687            4909     139.871E-03     141.201E-03
            4687            4910     133.449E-03     138.724E-03
            4688            4895     128.427E-03     128.887E-03
            4688            4896     125.137E-03     122.551E-03
            4688            4910     133.449E-03     138.724E-03
            4688            4911     131.778E-03     134.561E-03
            4689             775     123.569E-03     119.733E-03
            4689             776     132.567E-03     131.186E-03
            4689            4896     125.137E-03     122.551E-03
            4689            4911     131.778E-03     134.561E-03
            4690             619     155.870E-03     153.028E-03
            4690             620     107.070E-03     98.1078E-03
            4690            4897     159.273E-03     158.237E-03
            4690            4912     128.128E-03     115.050E-03
            4691            4897     159.273E-03     158.237E-03
            4691            4898     178.689E-03     176.621E-03
            4691            4912     128.128E-03     115.050E-03
            4691            4913     164.592E-03     147.085E-03
            4692            4898     178.689E-03     176.621E-03
            4692            4899     200.772E-03     194.704E-03
            4692            4913     164.592E-03     147.085E-03
            4692            4914     186.039E-03     169.257E-03
            4693            4899     200.772E-03     194.704E-03
            4693            4900     208.294E-03     200.713E-03
            4693            4914     186.039E-03     169.257E-03
            4693            4915     194.687E-03     179.822E-03
            4694            4900     208.294E-03     200.713E-03
            4694            4901     208.004E-03     200.147E-03
            4694            4915     194.687E-03     179.822E-03
            4694            4916     196.929E-03     183.814E-03
            4695            4901     208.004E-03     200.147E-03
            4695            4902     202.853E-03     195.241E-03
            4695            4916     196.929E-03     183.814E-03
            4695            4917     194.758E-03     183.291E-03
            4696            4902     202.853E-03     195.241E-03
            4696            4903     194.956E-03     187.865E-03
            4696            4917     194.758E-03     183.291E-03
            4696            4918     190.028E-03     179.976E-03
            4697            4903     194.956E-03     187.865E-03
            4697            4904     185.609E-03     179.182E-03
            4697            4918     190.028E-03     179.976E-03
            4697            4919     183.664E-03     174.824E-03
            4698            4904     185.609E-03     179.182E-03
            4698            4905     175.733E-03     170.060E-03
            4698            4919     183.664E-03     174.824E-03
            4698            4920     176.440E-03     168.762E-03
            4699            4905     175.733E-03     170.060E-03
            4699            4906     165.892E-03     161.118E-03
            4699            4920     176.440E-03     168.762E-03
            4699            4921     168.973E-03     162.363E-03
            4700            4906     165.892E-03     161.118E-03
            4700            4907     156.489E-03     152.987E-03
            4700            4921     168.973E-03     162.363E-03
            4700            4922     161.580E-03     156.219E-03
            4701            4907     156.489E-03     152.987E-03
            4701            4908     147.870E-03     146.056E-03
            4701            4922     161.580E-03     156.219E-03
            4701            4923     154.671E-03     150.868E-03
            4702            4908     147.870E-03     146.056E-03
            4702            4909     139.871E-03     141.201E-03
            4702            4923     154.671E-03     150.868E-03
            4702            4924     148.192E-03     146.710E-03
            4703            4909     139.871E-03     141.201E-03
            4703            4910     133.449E-03     138.724E-03
            4703            4924     148.192E-03     146.710E-03
            4703            4925     141.580E-03     145.570E-03
            4704            4910     133.449E-03     138.724E-03
            4704            4911     131.778E-03     134.561E-03
            4704            4925     141.580E-03     145.570E-03
            4704            4926     135.898E-03     147.354E-03
            4705             776     132.567E-03     131.186E-03
            4705             777     133.548E-03     148.528E-03
            4705            4911     131.778E-03     134.561E-03
            4705            4926     135.898E-03     147.354E-03
            4706             620     107.070E-03     98.1078E-03
            4706             621     111.725E-03     120.981E-03
            4706            4912     128.128E-03     115.050E-03
            4706            4927     116.166E-03     117.276E-03
            4707            4912     128.128E-03     115.050E-03
            4707            4913     164.592E-03     147.085E-03
            4707            4927     116.166E-03     117.276E-03
            4707            4928     123.790E-03     118.809E-03
            4708            4913     164.592E-03     147.085E-03
            4708            4914     186.039E-03     169.257E-03
            4708            4928     123.790E-03     118.809E-03
            4708            4929     133.497E-03     129.908E-03
            4709            4914     186.039E-03     169.257E-03
            4709            4915     194.687E-03     179.822E-03
            4709            4929     133.497E-03     129.908E-03
            4709            4930     139.614E-03     136.757E-03
            4710            4915     194.687E-03     179.822E-03
            4710            4916     196.929E-03     183.814E-03
            4710            4930     139.614E-03     136.757E-03
            4710            4931     140.089E-03     138.747E-03
            4711            4916     196.929E-03     183.814E-03
            4711            4917     194.758E-03     183.291E-03
            4711            4931     140.089E-03     138.747E-03
            4711            4932     139.616E-03     138.895E-03
            4712            4917     194.758E-03     183.291E-03
            4712            4918     190.028E-03     179.976E-03
            4712            4932     139.616E-03     138.895E-03
            4712            4933     137.326E-03     137.115E-03
            4713            4918     190.028E-03     179.976E-03
            4713            4919     183.664E-03     174.824E-03
            4713            4933     137.326E-03     137.115E-03
            4713            4934     134.693E-03     134.677E-03
            4714            4919     183.664E-03     174.824E-03
            4714            4920     176.440E-03     168.762E-03
            4714            4934     134.693E-03     134.677E-03
            4714            4935     131.402E-03     131.497E-03
            4715            4920     176.440E-03     168.762E-03
            4715            4921     168.973E-03     162.363E-03
            4715            4935     131.402E-03     131.497E-03
            4715            4936     128.140E-03     128.236E-03
            4716            4921     168.973E-03     162.363E-03
            4716            4922     161.580E-03     156.219E-03
            4716            4936     128.140E-03     128.236E-03
            4716            4937     124.866E-03     124.864E-03
            4717            4922     161.580E-03     156.219E-03
            4717            4923     154.671E-03     150.868E-03
            4717            4937     124.866E-03     124.864E-03
            4717            4938     121.797E-03     122.070E-03
            4718            4923     154.671E-03     150.868E-03
            4718            4924     148.192E-03     146.710E-03
            4718            4938     121.797E-03     122.070E-03
            4718            4939     119.188E-03     119.223E-03
            4719            4924     148.192E-03     146.710E-03
            4719            4925     141.580E-03     145.570E-03
            4719            4939     119.188E-03     119.223E-03
            4719            4940     116.613E-03     117.569E-03
            4720            4925     141.580E-03     145.570E-03
            4720            4926     135.898E-03     147.354E-03
            4720            4940     116.613E-03     117.569E-03
            4720            4941     109.689E-03     119.687E-03
            4721             777     133.548E-03     148.528E-03
            4721             778     104.197E-03     121.628E-03
            4721            4926     135.898E-03     147.354E-03
            4721            4941     109.689E-03     119.687E-03
            4722             621     111.725E-03     120.981E-03
            4722             622     118.685E-03     128.157E-03
            4722            4927     116.166E-03     117.276E-03
            4722            4942     107.619E-03     119.122E-03
            4723            4927     116.166E-03     117.276E-03
            4723            4928     123.790E-03     118.809E-03
            4723            4942     107.619E-03     119.122E-03
            4723            4943     95.4521E-03     107.596E-03
            4724            4928     123.790E-03     118.809E-03
            4724            4929     133.497E-03     129.908E-03
            4724            4943     95.4521E-03     107.596E-03
            4724            4944     95.6240E-03     105.382E-03
            4725            4929     133.497E-03     129.908E-03
            4725            4930     139.614E-03     136.757E-03
            4725            4944     95.6240E-03     105.382E-03
            4725            4945     94.6828E-03     103.567E-03
            4726            4930     139.614E-03     136.757E-03
            4726            4931     140.089E-03     138.747E-03
            4726            4945     94.6828E-03     103.567E-03
            4726            4946     92.2129E-03     100.855E-03
            4727            4931     140.089E-03     138.747E-03
            4727            4932     139.616E-03     138.895E-03
            4727            4946     92.2129E-03     100.855E-03
            4727            4947     90.9131E-03     98.8904E-03
            4728            4932     139.616E-03     138.895E-03
            4728            4933     137.326E-03     137.115E-03
            4728            4947     90.9131E-03     98.8904E-03
            4728            4948     89.5259E-03     96.8793E-03
            4729            4933     137.326E-03     137.115E-03
            4729            4934     134.693E-03     134.677E-03
            4729            4948     89.5259E-03     96.8793E-03
            4729            4949     88.6379E-03     95.2778E-03
            4730            4934     134.693E-03     134.677E-03
            4730            4935     131.402E-03     131.497E-03
            4730            4949     88.6379E-03     95.2778E-03
            4730            4950     87.8217E-03     93.7070E-03
            4731            4935     131.402E-03     131.497E-03
            4731            4936     128.140E-03     128.236E-03
            4731            4950     87.8217E-03     93.7070E-03
            4731            4951     87.2708E-03     92.3759E-03
            4732            4936     128.140E-03     128.236E-03
            4732            4937     124.866E-03     124.864E-03
            4732            4951     87.2708E-03     92.3759E-03
            4732            4952     86.8477E-03     91.1516E-03
            4733            4937     124.866E-03     124.864E-03
            4733            4938     121.797E-03     122.070E-03
            4733            4952     86.8477E-03     91.1516E-03
            4733            4953     86.6545E-03     90.1206E-03
            4734            4938     121.797E-03     122.070E-03
            4734            4939     119.188E-03     119.223E-03
            4734            4953     86.6545E-03     90.1206E-03
            4734            4954     86.6355E-03     89.2472E-03
            4735            4939     119.188E-03     119.223E-03
            4735            4940     116.613E-03     117.569E-03
            4735            4954     86.6355E-03     89.2472E-03
            4735            4955     86.7577E-03     88.4037E-03
            4736            4940     116.613E-03     117.569E-03
            4736            4941     109.689E-03     119.687E-03
            4736            4955     86.7577E-03     88.4037E-03
            4736            4956     86.4614E-03     86.3388E-03
            4737             778     104.197E-03     121.628E-03
            4737             779     86.0729E-03     84.7470E-03
            4737            4941     109.689E-03     119.687E-03
            4737            4956     86.4614E-03     86.3388E-03
            4738             622     118.685E-03     128.157E-03
            4738             623     58.4652E-03     57.4674E-03
            4738            4942     107.619E-03     119.122E-03
            4738            4957     76.9129E-03     79.2612E-03
            4739            4942     107.619E-03     119.122E-03
            4739            4943     95.4521E-03     107.596E-03
            4739            4957     76.9129E-03     79.2612E-03
            4739            4958     102.540E-03     103.862E-03
            4740            4943     95.4521E-03     107.596E-03
            4740            4944     95.6240E-03     105.382E-03
            4740            4958     102.540E-03     103.862E-03
            4740            4959     104.892E-03     104.044E-03
            4741            4944     95.6240E-03     105.382E-03
            4741            4945     94.6828E-03     103.567E-03
            4741            4959     104.892E-03     104.044E-03
            4741            4960     99.7218E-03     100.484E-03
            4742            4945     94.6828E-03     103.567E-03
            4742            4946     92.2129E-03     100.855E-03
            4742            4960     99.7218E-03     100.484E-03
            4742            4961     97.7459E-03     98.0326E-03
            4743            4946     92.2129E-03     100.855E-03
            4743            4947     90.9131E-03     98.8904E-03
            4743            4961     97.7459E-03     98.0326E-03
            4743            4962     95.7371E-03     96.1058E-03
            4744            4947     90.9131E-03     98.8904E-03
            4744            4948     89.5259E-03     96.8793E-03
            4744            4962     95.7371E-03     96.1058E-03
            4744            4963     94.5018E-03     94.8582E-03
            4745            4948     89.5259E-03     96.8793E-03
            4745            4949     88.6379E-03     95.2778E-03
            4745            4963     94.5018E-03     94.8582E-03
            4745            4964     93.2274E-03     93.5642E-03
            4746            4949     88.6379E-03     95.2778E-03
            4746            4950     87.8217E-03     93.7070E-03
            4746            4964     93.2274E-03     93.5642E-03
            4746            4965     92.2369E-03     92.5265E-03
            4747            4950     87.8217E-03     93.7070E-03
            4747            4951     87.2708E-03     92.3759E-03
            4747            4965     92.2369E-03     92.5265E-03
            4747            4966     91.2766E-03     91.5550E-03
            4748            4951     87.2708E-03     92.3759E-03
            4748            4952     86.8477E-03     91.1516E-03
            4748            4966     91.2766E-03     91.5550E-03
            4748            4967     90.5036E-03     90.8101E-03
            4749            4952     86.8477E-03     91.1516E-03
            4749            4953     86.6545E-03     90.1206E-03
            4749            4967     90.5036E-03     90.8101E-03
            4749            4968     90.0536E-03     89.9874E-03
            4750            4953     86.6545E-03     90.1206E-03
            4750            4954     86.6355E-03     89.2472E-03
            4750            4968     90.0536E-03     89.9874E-03
            4750            4969     89.3827E-03     90.0163E-03
            4751            4954     86.6355E-03     89.2472E-03
            4751            4955     86.7577E-03     88.4037E-03
            4751            4969     89.3827E-03     90.0163E-03
            4751            4970     89.3050E-03     90.1324E-03
            4752            4955     86.7577E-03     88.4037E-03
            4752            4956     86.4614E-03     86.3388E-03
            4752            4970     89.3050E-03     90.1324E-03
            4752            4971     92.1448E-03     85.8726E-03
            4753             779     86.0729E-03     84.7470E-03
            4753             780     94.4542E-03     81.9931E-03
            4753            4956     86.4614E-03     86.3388E-03
            4753            4971     92.1448E-03     85.8726E-03
            4754             623     58.4652E-03     57.4674E-03
            4754             624     22.5534E-03     48.8319E-03
            4754            4957     76.9129E-03     79.2612E-03
            4754            4972     55.7513E-03     64.5763E-03
            4755            4957     76.9129E-03     79.2612E-03
            4755            4958     102.540E-03     103.862E-03
            4755            4972     55.7513E-03     64.5763E-03
            4755            4973     97.1754E-03     87.6079E-03
            4756            4958     102.540E-03     103.862E-03
            4756            4959     104.892E-03     104.044E-03
            4756            4973     97.1754E-03     87.6079E-03
            4756            4974     105.770E-03     96.2076E-03
            4757            4959     104.892E-03     104.044E-03
            4757            4960     99.7218E-03     100.484E-03
            4757            4974     105.770E-03     96.2076E-03
            4757            4975     104.870E-03     96.5287E-03
            4758            4960     99.7218E-03     100.484E-03
            4758            4961     97.7459E-03     98.0326E-03
            4758            4975     104.870E-03     96.5287E-03
            4758            4976     103.045E-03     95.2926E-03
            4759            4961     97.7459E-03     98.0326E-03
            4759            4962     95.7371E-03     96.1058E-03
            4759            4976     103.045E-03     95.2926E-03
            4759            4977     101.549E-03     94.4869E-03
            4760            4962     95.7371E-03     96.1058E-03
            4760            4963     94.5018E-03     94.8582E-03
            4760            4977     101.549E-03     94.4869E-03
            4760            4978     100.053E-03     93.6357E-03
            4761            4963     94.5018E-03     94.8582E-03
            4761            4964     93.2274E-03     93.5642E-03
            4761            4978     100.053E-03     93.6357E-03
            4761            4979     98.7428E-03     92.9710E-03
            4762            4964     93.2274E-03     93.5642E-03
            4762            4965     92.2369E-03     92.5265E-03
            4762            4979     98.7428E-03     92.9710E-03
            4762            4980     97.4235E-03     92.3415E-03
            4763            4965     92.2369E-03     92.5265E-03
            4763            4966     91.2766E-03     91.5550E-03
            4763            4980     97.4235E-03     92.3415E-03
            4763            4981     96.2441E-03     91.8568E-03
            4764            4966     91.2766E-03     91.5550E-03
            4764            4967     90.5036E-03     90.8101E-03
            4764            4981     96.2441E-03     91.8568E-03
            4764            4982     95.1390E-03     91.4617E-03
            4765            4967     90.5036E-03     90.8101E-03
            4765            4968     90.0536E-03     89.9874E-03
            4765            4982     95.1390E-03     91.4617E-03
            4765            4983     94.1818E-03     91.2547E-03
            4766            4968     90.0536E-03     89.9874E-03
            4766            4969     89.3827E-03     90.0163E-03
            4766            4983     94.1818E-03     91.2547E-03
            4766            4984     93.3006E-03     91.1581E-03
            4767            4969     89.3827E-03     90.0163E-03
            4767            4970     89.3050E-03     90.1324E-03
            4767            4984     93.3006E-03     91.1581E-03
            4767            4985     92.4556E-03     91.1710E-03
            4768            4970     89.3050E-03     90.1324E-03
            4768            4971     92.1448E-03     85.8726E-03
            4768            4985     92.4556E-03     91.1710E-03
            4768            4986     91.1307E-03     90.5975E-03
            4769             780     94.4542E-03     81.9931E-03
            4769             781     90.2357E-03     89.9562E-03
            4769            4971     92.1448E-03     85.8726E-03
            4769            4986     91.1307E-03     90.5975E-03
            4770              26     14.0300E-03     31.4394E-03
            4770             624     22.5534E-03     48.8319E-03
            4770             796     28.9978E-03     33.1607E-03
            4770            4972     55.7513E-03     64.5763E-03
            4771             795     45.8453E-03     38.4027E-03
            4771             796     28.9978E-03     33.1607E-03
            4771            4972     55.7513E-03     64.5763E-03
            4771            4973     97.1754E-03     87.6079E-03
            4772             794     51.6625E-03     45.0951E-03
            4772             795     45.8453E-03     38.4027E-03
            4772            4973     97.1754E-03     87.6079E-03
            4772            4974     105.770E-03     96.2076E-03
            4773             793     53.9404E-03     47.2541E-03
            4773             794     51.6625E-03     45.0951E-03
            4773            4974     105.770E-03     96.2076E-03
            4773            4975     104.870E-03     96.5287E-03
            4774             792     52.7767E-03     46.9869E-03
            4774             793     53.9404E-03     47.2541E-03
            4774            4975     104.870E-03     96.5287E-03
            4774            4976     103.045E-03     95.2926E-03
            4775             791     52.4243E-03     47.0872E-03
            4775             792     52.7767E-03     46.9869E-03
            4775            4976     103.045E-03     95.2926E-03
            4775            4977     101.549E-03     94.4869E-03
            4776             790     51.5023E-03     46.6357E-03
            4776             791     52.4243E-03     47.0872E-03
            4776            4977     101.549E-03     94.4869E-03
            4776            4978     100.053E-03     93.6357E-03
            4777             789     50.8989E-03     46.5376E-03
            4777             790     51.5023E-03     46.6357E-03
            4777            4978     100.053E-03     93.6357E-03
            4777            4979     98.7428E-03     92.9710E-03
            4778             788     50.1258E-03     46.2763E-03
            4778             789     50.8989E-03     46.5376E-03
            4778            4979     98.7428E-03     92.9710E-03
            4778            4980     97.4235E-03     92.3415E-03
            4779             787     49.5068E-03     46.1829E-03
            4779             788     50.1258E-03     46.2763E-03
            4779            4980     97.4235E-03     92.3415E-03
            4779            4981     96.2441E-03     91.8568E-03
            4780             786     48.8656E-03     46.0514E-03
            4780             787     49.5068E-03     46.1829E-03
            4780            4981     96.2441E-03     91.8568E-03
            4780            4982     95.1390E-03     91.4617E-03
            4781             785     48.2404E-03     46.1430E-03
            4781             786     48.8656E-03     46.0514E-03
            4781            4982     95.1390E-03     91.4617E-03
            4781            4983     94.1818E-03     91.2547E-03
            4782             784     47.7988E-03     45.9332E-03
            4782             785     48.2404E-03     46.1430E-03
            4782            4983     94.1818E-03     91.2547E-03
            4782            4984     93.3006E-03     91.1581E-03
            4783             783     47.1291E-03     45.8222E-03
            4783             784     47.7988E-03     45.9332E-03
            4783            4984     93.3006E-03     91.1581E-03
            4783            4985     92.4556E-03     91.1710E-03
            4784             782     44.4796E-03     46.9899E-03
            4784             783     47.1291E-03     45.8222E-03
            4784            4985     92.4556E-03     91.1710E-03
            4784            4986     91.1307E-03     90.5975E-03
            4785              30     42.4176E-03     47.9593E-03
            4785             781     90.2357E-03     89.9562E-03
            4785             782     44.4796E-03     46.9899E-03
            4785            4986     91.1307E-03     90.5975E-03
            4898              20         1.00314         1.03723
            4898             522     942.736E-03     968.412E-03
            4898             560         1.04844         1.05399
            4898            5077     977.351E-03     991.590E-03
            4899             521     848.809E-03     864.450E-03
            4899             522     942.736E-03     968.412E-03
            4899            5077     977.351E-03     991.590E-03
            4899            5078     856.664E-03     880.486E-03
            4900             520     780.443E-03     797.680E-03
            4900             521     848.809E-03     864.450E-03
            4900            5078     856.664E-03     880.486E-03
            4900            5079     774.262E-03     799.919E-03
            4901             519     715.505E-03     735.767E-03
            4901             520     780.443E-03     797.680E-03
            4901            5079     774.262E-03     799.919E-03
            4901            5080     708.752E-03     735.977E-03
            4902             518     653.988E-03     675.729E-03
            4902             519     715.505E-03     735.767E-03
            4902            5080     708.752E-03     735.977E-03
            4902            5081     645.839E-03     674.574E-03
            4903             517     592.584E-03     615.524E-03
            4903             518     653.988E-03     675.729E-03
            4903            5081     645.839E-03     674.574E-03
            4903            5082     585.232E-03     614.748E-03
            4904             516     531.649E-03     554.830E-03
            4904             517     592.584E-03     615.524E-03
            4904            5082     585.232E-03     614.748E-03
            4904            5083     524.533E-03     554.441E-03
            4905             515     470.298E-03     493.801E-03
            4905             516     531.649E-03     554.830E-03
            4905            5083     524.533E-03     554.441E-03
            4905            5084     463.889E-03     494.053E-03
            4906             514     408.899E-03     432.397E-03
            4906             515     470.298E-03     493.801E-03
            4906            5084     463.889E-03     494.053E-03
            4906            5085     402.987E-03     433.258E-03
            4907             513     347.151E-03     370.854E-03
            4907             514     408.899E-03     432.397E-03
            4907            5085     402.987E-03     433.258E-03
            4907            5086     342.000E-03     372.393E-03
            4908             512     285.435E-03     309.128E-03
            4908             513     347.151E-03     370.854E-03
            4908            5086     342.000E-03     372.393E-03
            4908            5087     280.974E-03     311.357E-03
            4909             511     223.642E-03     247.196E-03
            4909             512     285.435E-03     309.128E-03
            4909            5087     280.974E-03     311.357E-03
            4909            5088     220.167E-03     250.314E-03
            4910             510     162.098E-03     184.984E-03
            4910             511     223.642E-03     247.196E-03
            4910            5088     220.167E-03     250.314E-03
            4910            5089     160.189E-03     188.595E-03
            4911             509     101.277E-03     122.247E-03
            4911             510     162.098E-03     184.984E-03
            4911            5089     160.189E-03     188.595E-03
            4911            5090     101.713E-03     126.496E-03
            4912             508     46.1663E-03     59.0412E-03
            4912             509     101.277E-03     122.247E-03
            4912            5090     101.713E-03     126.496E-03
            4912            5091     51.6526E-03     62.8513E-03
            4913              18     21.1518E-03     27.5000E-03
            4913             508     46.1663E-03     59.0412E-03
            4913             552     30.3014E-03     30.2467E-03
            4913            5091     51.6526E-03     62.8513E-03
            4914             560         1.04844         1.05399
            4914             561         1.00626         1.00221
            4914            5077     977.351E-03     991.590E-03
            4914            5092     968.831E-03     976.888E-03
            4915            5077     977.351E-03     991.590E-03
            4915            5078     856.664E-03     880.486E-03
            4915            5092     968.831E-03     976.888E-03
            4915            5093     881.572E-03     905.715E-03
            4916            5078     856.664E-03     880.486E-03
            4916            5079     774.262E-03     799.919E-03
            4916            5093     881.572E-03     905.715E-03
            4916            5094     796.407E-03     823.356E-03
            4917            5079     774.262E-03     799.919E-03
            4917            5080     708.752E-03     735.977E-03
            4917            5094     796.407E-03     823.356E-03
            4917            5095     728.438E-03     752.792E-03
            4918            5080     708.752E-03     735.977E-03
            4918            5081     645.839E-03     674.574E-03
            4918            5095     728.438E-03     752.792E-03
            4918            5096     664.019E-03     686.163E-03
            4919            5081     645.839E-03     674.574E-03
            4919            5082     585.232E-03     614.748E-03
            4919            5096     664.019E-03     686.163E-03
            4919            5097     601.005E-03     622.222E-03
            4920            5082     585.232E-03     614.748E-03
            4920            5083     524.533E-03     554.441E-03
            4920            5097     601.005E-03     622.222E-03
            4920            5098     538.662E-03     559.448E-03
            4921            5083     524.533E-03     554.441E-03
            4921            5084     463.889E-03     494.053E-03
            4921            5098     538.662E-03     559.448E-03
            4921            5099     476.591E-03     497.287E-03
            4922            5084     463.889E-03     494.053E-03
            4922            5085     402.987E-03     433.258E-03
            4922            5099     476.591E-03     497.287E-03
            4922            5100     414.911E-03     435.562E-03
            4923            5085     402.987E-03     433.258E-03
            4923            5086     342.000E-03     372.393E-03
            4923            5100     414.911E-03     435.562E-03
            4923            5101     353.627E-03     374.174E-03
            4924            5086     342.000E-03     372.393E-03
            4924            5087     280.974E-03     311.357E-03
            4924            5101     353.627E-03     374.174E-03
            4924            5102     292.857E-03     313.224E-03
            4925            5087     280.974E-03     311.357E-03
            4925            5088     220.167E-03     250.314E-03
            4925            5102     292.857E-03     313.224E-03
            4925            5103     232.881E-03     253.007E-03
            4926            5088     220.167E-03     250.314E-03
            4926            5089     160.189E-03     188.595E-03
            4926            5103     232.881E-03     253.007E-03
            4926            5104     174.740E-03     193.891E-03
            4927            5089     160.189E-03     188.595E-03
            4927            5090     101.713E-03     126.496E-03
            4927            5104     174.740E-03     193.891E-03
            4927            5105     120.601E-03     135.179E-03
            4928            5090     101.713E-03     126.496E-03
            4928            5091     51.6526E-03     62.8513E-03
            4928            5105     120.601E-03     135.179E-03
            4928            5106     79.2412E-03     83.6271E-03
            4929             551     63.6451E-03     61.3557E-03
            4929             552     30.3014E-03     30.2467E-03
            4929            5091     51.6526E-03     62.8513E-03
            4929            5106     79.2412E-03     83.6271E-03
            4930             561         1.00626         1.00221
            4930             562     949.851E-03     971.010E-03
            4930            5092     968.831E-03     976.888E-03
            4930            5107     926.439E-03     947.923E-03
            4931            5092     968.831E-03     976.888E-03
            4931            5093     881.572E-03     905.715E-03
            4931            5107     926.439E-03     947.923E-03
            4931            5108     873.694E-03     895.128E-03
            4932            5093     881.572E-03     905.715E-03
            4932            5094     796.407E-03     823.356E-03
            4932            5108     873.694E-03     895.128E-03
            4932            5109     807.260E-03     827.705E-03
            4933            5094     796.407E-03     823.356E-03
            4933            5095     728.438E-03     752.792E-03
            4933            5109     807.260E-03     827.705E-03
            4933            5110     738.780E-03     756.195E-03
            4934            5095     728.438E-03     752.792E-03
            4934            5096     664.019E-03     686.163E-03
            4934            5110     738.780E-03     756.195E-03
            4934            5111     675.266E-03     689.303E-03
            4935            5096     664.019E-03     686.163E-03
            4935            5097     601.005E-03     622.222E-03
            4935            5111     675.266E-03     689.303E-03
            4935            5112     611.869E-03     624.282E-03
            4936            5097     601.005E-03     622.222E-03
            4936            5098     538.662E-03     559.448E-03
            4936            5112     611.869E-03     624.282E-03
            4936            5113     549.490E-03     561.218E-03
            4937            5098     538.662E-03     559.448E-03
            4937            5099     476.591E-03     497.287E-03
            4937            5113     549.490E-03     561.218E-03
            4937            5114     487.690E-03     499.155E-03
            4938            5099     476.591E-03     497.287E-03
            4938            5100     414.911E-03     435.562E-03
            4938            5114     487.690E-03     499.155E-03
            4938            5115     426.633E-03     437.913E-03
            4939            5100     414.911E-03     435.562E-03
            4939            5101     353.627E-03     374.174E-03
            4939            5115     426.633E-03     437.913E-03
            4939            5116     366.309E-03     377.439E-03
            4940            5101     353.627E-03     374.174E-03
            4940            5102     292.857E-03     313.224E-03
            4940            5116     366.309E-03     377.439E-03
            4940            5117     307.045E-03     317.922E-03
            4941            5102     292.857E-03     313.224E-03
            4941            5103     232.881E-03     253.007E-03
            4941            5117     307.045E-03     317.922E-03
            4941            5118     249.146E-03     259.927E-03
            4942            5103     232.881E-03     253.007E-03
            4942            5104     174.740E-03     193.891E-03
            4942            5118     249.146E-03     259.927E-03
            4942            5119     193.597E-03     205.073E-03
            4943            5104     174.740E-03     193.891E-03
            4943            5105     120.601E-03     135.179E-03
            4943            5119     193.597E-03     205.073E-03
            4943            5120     144.923E-03     154.661E-03
            4944            5105     120.601E-03     135.179E-03
            4944            5106     79.2412E-03     83.6271E-03
            4944            5120     144.923E-03     154.661E-03
            4944            5121     111.153E-03     111.473E-03
            4945             550     99.0919E-03     92.4722E-03
            4945             551     63.6451E-03     61.3557E-03
            4945            5106     79.2412E-03     83.6271E-03
            4945            5121     111.153E-03     111.473E-03
            4946             562     949.851E-03     971.010E-03
            4946             563     900.487E-03     898.145E-03
            4946            5107     926.439E-03     947.923E-03
            4946            5122     884.505E-03     891.573E-03
            4947            5107     926.439E-03     947.923E-03
            4947            5108     873.694E-03     895.128E-03
            4947            5122     884.505E-03     891.573E-03
            4947            5123     845.739E-03     859.818E-03
            4948            5108     873.694E-03     895.128E-03
            4948            5109     807.260E-03     827.705E-03
            4948            5123     845.739E-03     859.818E-03
            4948            5124     796.274E-03     804.752E-03
            4949            5109     807.260E-03     827.705E-03
            4949            5110     738.780E-03     756.195E-03
            4949            5124     796.274E-03     804.752E-03
            4949            5125     738.265E-03     743.193E-03
            4950            5110     738.780E-03     756.195E-03
            4950            5111     675.266E-03     689.303E-03
            4950            5125     738.265E-03     743.193E-03
            4950            5126     677.130E-03     680.735E-03
            4951            5111     675.266E-03     689.303E-03
            4951            5112     611.869E-03     624.282E-03
            4951            5126     677.130E-03     680.735E-03
            4951            5127     616.774E-03     619.514E-03
            4952            5112     611.869E-03     624.282E-03
            4952            5113     549.490E-03     561.218E-03
            4952            5127     616.774E-03     619.514E-03
            4952            5128     556.404E-03     558.984E-03
            4953            5113     549.490E-03     561.218E-03
            4953            5114     487.690E-03     499.155E-03
            4953            5128     556.404E-03     558.984E-03
            4953            5129     496.831E-03     499.256E-03
            4954            5114     487.690E-03     499.155E-03
            4954            5115     426.633E-03     437.913E-03
            4954            5129     496.831E-03     499.256E-03
            4954            5130     437.860E-03     440.272E-03
            4955            5115     426.633E-03     437.913E-03
            4955            5116     366.309E-03     377.439E-03
            4955            5130     437.860E-03     440.272E-03
            4955            5131     379.893E-03     382.116E-03
            4956            5116     366.309E-03     377.439E-03
            4956            5117     307.045E-03     317.922E-03
            4956            5131     379.893E-03     382.116E-03
            4956            5132     323.139E-03     325.329E-03
            4957            5117     307.045E-03     317.922E-03
            4957            5118     249.146E-03     259.927E-03
            4957            5132     323.139E-03     325.329E-03
            4957            5133     268.430E-03     270.711E-03
            4958            5118     249.146E-03     259.927E-03
            4958            5119     193.597E-03     205.073E-03
            4958            5133     268.430E-03     270.711E-03
            4958            5134     216.691E-03     220.456E-03
            4959            5119     193.597E-03     205.073E-03
            4959            5120     144.923E-03     154.661E-03
            4959            5134     216.691E-03     220.456E-03
            4959            5135     171.365E-03     179.410E-03
            4960            5120     144.923E-03     154.661E-03
            4960            5121     111.153E-03     111.473E-03
            4960            5135     171.365E-03     179.410E-03
            4960            5136     143.311E-03     147.607E-03
            4961             549     135.541E-03     133.232E-03
            4961             550     99.0919E-03     92.4722E-03
            4961            5121     111.153E-03     111.473E-03
            4961            5136     143.311E-03     147.607E-03
            4962             563     900.487E-03     898.145E-03
            4962             564     836.931E-03     823.269E-03
            4962            5122     884.505E-03     891.573E-03
            4962            5137     831.939E-03     819.248E-03
            4963            5122     884.505E-03     891.573E-03
            4963            5123     845.739E-03     859.818E-03
            4963            5137     831.939E-03     819.248E-03
            4963            5138     810.178E-03     798.203E-03
            4964            5123     845.739E-03     859.818E-03
            4964            5124     796.274E-03     804.752E-03
            4964            5138     810.178E-03     798.203E-03
            4964            5139     771.491E-03     760.473E-03
            4965            5124     796.274E-03     804.752E-03
            4965            5125     738.265E-03     743.193E-03
            4965            5139     771.491E-03     760.473E-03
            4965            5140     724.181E-03     714.574E-03
            4966            5125     738.265E-03     743.193E-03
            4966            5126     677.130E-03     680.735E-03
            4966            5140     724.181E-03     714.574E-03
            4966            5141     671.131E-03     663.058E-03
            4967            5126     677.130E-03     680.735E-03
            4967            5127     616.774E-03     619.514E-03
            4967            5141     671.131E-03     663.058E-03
            4967            5142     616.120E-03     609.302E-03
            4968            5127     616.774E-03     619.514E-03
            4968            5128     556.404E-03     558.984E-03
            4968            5142     616.120E-03     609.302E-03
            4968            5143     560.684E-03     554.197E-03
            4969            5128     556.404E-03     558.984E-03
            4969            5129     496.831E-03     499.256E-03
            4969            5143     560.684E-03     554.197E-03
            4969            5144     504.923E-03     498.812E-03
            4970            5129     496.831E-03     499.256E-03
            4970            5130     437.860E-03     440.272E-03
            4970            5144     504.923E-03     498.812E-03
            4970            5145     449.569E-03     443.526E-03
            4971            5130     437.860E-03     440.272E-03
            4971            5131     379.893E-03     382.116E-03
            4971            5145     449.569E-03     443.526E-03
            4971            5146     394.872E-03     389.036E-03
            4972            5131     379.893E-03     382.116E-03
            4972            5132     323.139E-03     325.329E-03
            4972            5146     394.872E-03     389.036E-03
            4972            5147     341.558E-03     335.956E-03
            4973            5132     323.139E-03     325.329E-03
            4973            5133     268.430E-03     270.711E-03
            4973            5147     341.558E-03     335.956E-03
            4973            5148     290.673E-03     285.619E-03
            4974            5133     268.430E-03     270.711E-03
            4974            5134     216.691E-03     220.456E-03
            4974            5148     290.673E-03     285.619E-03
            4974            5149     243.627E-03     239.918E-03
            4975            5134     216.691E-03     220.456E-03
            4975            5135     171.365E-03     179.410E-03
            4975            5149     243.627E-03     239.918E-03
            4975            5150     202.411E-03     203.798E-03
            4976            5135     171.365E-03     179.410E-03
            4976            5136     143.311E-03     147.607E-03
            4976            5150     202.411E-03     203.798E-03
            4976            5151     171.943E-03     184.656E-03
            4977             548     160.238E-03     180.110E-03
            4977             549     135.541E-03     133.232E-03
            4977            5136     143.311E-03     147.607E-03
            4977            5151     171.943E-03     184.656E-03
            4978              23     831.000E-03     850.705E-03
            4978             564     836.931E-03     823.269E-03
            4978             739     793.185E-03     805.132E-03
            4978            5137     831.939E-03     819.248E-03
            4979             739     793.185E-03     805.132E-03
            4979             740     738.379E-03     741.204E-03
            4979            5137     831.939E-03     819.248E-03
            4979            5138     810.178E-03     798.203E-03
            4980             740     738.379E-03     741.204E-03
            4980             741     696.175E-03     703.049E-03
            4980            5138     810.178E-03     798.203E-03
            4980            5139     771.491E-03     760.473E-03
            4981             741     696.175E-03     703.049E-03
            4981             742     648.601E-03     659.966E-03
            4981            5139     771.491E-03     760.473E-03
            4981            5140     724.181E-03     714.574E-03
            4982             742     648.601E-03     659.966E-03
            4982             743     600.297E-03     613.304E-03
            4982            5140     724.181E-03     714.574E-03
            4982            5141     671.131E-03     663.058E-03
            4983             743     600.297E-03     613.304E-03
            4983             744     549.340E-03     563.672E-03
            4983            5141     671.131E-03     663.058E-03
            4983            5142     616.120E-03     609.302E-03
            4984             744     549.340E-03     563.672E-03
            4984             745     497.893E-03     512.390E-03
            4984            5142     616.120E-03     609.302E-03
            4984            5143     560.684E-03     554.197E-03
            4985             745     497.893E-03     512.390E-03
            4985             746     445.722E-03     460.680E-03
            4985            5143     560.684E-03     554.197E-03
            4985            5144     504.923E-03     498.812E-03
            4986             746     445.722E-03     460.680E-03
            4986             747     393.676E-03     408.545E-03
            4986            5144     504.923E-03     498.812E-03
            4986            5145     449.569E-03     443.526E-03
            4987             747     393.676E-03     408.545E-03
            4987             748     341.784E-03     356.992E-03
            4987            5145     449.569E-03     443.526E-03
            4987            5146     394.872E-03     389.036E-03
            4988             748     341.784E-03     356.992E-03
            4988             749     290.772E-03     306.055E-03
            4988            5146     394.872E-03     389.036E-03
            4988            5147     341.558E-03     335.956E-03
            4989             749     290.772E-03     306.055E-03
            4989             750     241.081E-03     257.033E-03
            4989            5147     341.558E-03     335.956E-03
            4989            5148     290.673E-03     285.619E-03
            4990             750     241.081E-03     257.033E-03
            4990             751     194.516E-03     210.199E-03
            4990            5148     290.673E-03     285.619E-03
            4990            5149     243.627E-03     239.918E-03
            4991             751     194.516E-03     210.199E-03
            4991             752     153.255E-03     167.962E-03
            4991            5149     243.627E-03     239.918E-03
            4991            5150     202.411E-03     203.798E-03
            4992             752     153.255E-03     167.962E-03
            4992             753     119.795E-03     136.589E-03
            4992            5150     202.411E-03     203.798E-03
            4992            5151     171.943E-03     184.656E-03
            4993              22     105.295E-03     124.805E-03
            4993             548     160.238E-03     180.110E-03
            4993             753     119.795E-03     136.589E-03
            4993            5151     171.943E-03     184.656E-03
            5575              26     14.0300E-03     31.4394E-03
            5575             796     28.9978E-03     33.1607E-03
            5575             858     139.217E-06     145.498E-06
            5575            5605     118.006E-06     125.436E-06
            5576             795     45.8453E-03     38.4027E-03
            5576             796     28.9978E-03     33.1607E-03
            5576            5605     118.006E-06     125.436E-06
            5576            5606     86.7054E-06     95.2754E-06
            5577             794     51.6625E-03     45.0951E-03
            5577             795     45.8453E-03     38.4027E-03
            5577            5606     86.7054E-06     95.2754E-06
            5577            5607     74.2961E-06     82.6383E-06
            5578             793     53.9404E-03     47.2541E-03
            5578             794     51.6625E-03     45.0951E-03
            5578            5607     74.2961E-06     82.6383E-06
            5578            5608     70.0441E-06     77.7903E-06
            5579             792     52.7767E-03     46.9869E-03
            5579             793     53.9404E-03     47.2541E-03
            5579            5608     70.0441E-06     77.7903E-06
            5579            5609     67.1364E-06     74.4223E-06
            5580             791     52.4243E-03     47.0872E-03
            5580             792     52.7767E-03     46.9869E-03
            5580            5609     67.1364E-06     74.4223E-06
            5580            5610     65.0561E-06     71.8611E-06
            5581             790     51.5023E-03     46.6357E-03
            5581             791     52.4243E-03     47.0872E-03
            5581            5610     65.0561E-06     71.8611E-06
            5581            5611     62.8649E-06     69.2113E-06
            5582             789     50.8989E-03     46.5376E-03
            5582             790     51.5023E-03     46.6357E-03
            5582            5611     62.8649E-06     69.2113E-06
            5582            5612     60.8142E-06     66.7273E-06
            5583             788     50.1258E-03     46.2763E-03
            5583             789     50.8989E-03     46.5376E-03
            5583            5612     60.8142E-06     66.7273E-06
            5583            5613     58.8817E-06     64.2681E-06
            5584             787     49.5068E-03     46.1829E-03
            5584             788     50.1258E-03     46.2763E-03
            5584            5613     58.8817E-06     64.2681E-06
            5584            5614     57.1868E-06     62.0194E-06
            5585             786     48.8656E-03     46.0514E-03
            5585             787     49.5068E-03     46.1829E-03
            5585            5614     57.1868E-06     62.0194E-06
            5585            5615     55.7729E-06     59.9137E-06
            5586             785     48.2404E-03     46.1430E-03
            5586             786     48.8656E-03     46.0514E-03
            5586            5615     55.7729E-06     59.9137E-06
            5586            5616     54.6692E-06     58.0831E-06
            5587             784     47.7988E-03     45.9332E-03
            5587             785     48.2404E-03     46.1430E-03
            5587            5616     54.6692E-06     58.0831E-06
            5587            5617     53.7827E-06     56.5402E-06
            5588             783     47.1291E-03     45.8222E-03
            5588             784     47.7988E-03     45.9332E-03
            5588            5617     53.7827E-06     56.5402E-06
            5588            5618     52.8308E-06     55.7903E-06
            5589             782     44.4796E-03     46.9899E-03
            5589             783     47.1291E-03     45.8222E-03
            5589            5618     52.8308E-06     55.7903E-06
            5589            5619     52.2458E-06     55.8044E-06
            5590              30     42.4176E-03     47.9593E-03
            5590             782     44.4796E-03     46.9899E-03
            5590             838     52.1421E-06     55.8767E-06
            5590            5619     52.2458E-06     55.8044E-06
            5591             857     111.224E-06     109.007E-06
            5591             858     139.217E-06     145.498E-06
            5591            5605     118.006E-06     125.436E-06
            5591            5620     101.981E-06     102.311E-06
            5592            5605     118.006E-06     125.436E-06
            5592            5606     86.7054E-06     95.2754E-06
            5592            5620     101.981E-06     102.311E-06
            5592            5621     86.7053E-06     90.4179E-06
            5593            5606     86.7054E-06     95.2754E-06
            5593            5607     74.2961E-06     82.6383E-06
            5593            5621     86.7053E-06     90.4179E-06
            5593            5622     77.8758E-06     82.9919E-06
            5594            5607     74.2961E-06     82.6383E-06
            5594            5608     70.0441E-06     77.7903E-06
            5594            5622     77.8758E-06     82.9919E-06
            5594            5623     74.1887E-06     79.4563E-06
            5595            5608     70.0441E-06     77.7903E-06
            5595            5609     67.1364E-06     74.4223E-06
            5595            5623     74.1887E-06     79.4563E-06
            5595            5624     71.7351E-06     76.4004E-06
            5596            5609     67.1364E-06     74.4223E-06
            5596            5610     65.0561E-06     71.8611E-06
            5596            5624     71.7351E-06     76.4004E-06
            5596            5625     68.9317E-06     73.2910E-06
            5597            5610     65.0561E-06     71.8611E-06
            5597            5611     62.8649E-06     69.2113E-06
            5597            5625     68.9317E-06     73.2910E-06
            5597            5626     66.4204E-06     70.4464E-06
            5598            5611     62.8649E-06     69.2113E-06
            5598            5612     60.8142E-06     66.7273E-06
            5598            5626     66.4204E-06     70.4464E-06
            5598            5627     64.0137E-06     67.7361E-06
            5599            5612     60.8142E-06     66.7273E-06
            5599            5613     58.8817E-06     64.2681E-06
            5599            5627     64.0137E-06     67.7361E-06
            5599            5628     61.9189E-06     65.3253E-06
            5600            5613     58.8817E-06     64.2681E-06
            5600            5614     57.1868E-06     62.0194E-06
            5600            5628     61.9189E-06     65.3253E-06
            5600            5629     60.0937E-06     63.1242E-06
            5601            5614     57.1868E-06     62.0194E-06
            5601            5615     55.7729E-06     59.9137E-06
            5601            5629     60.0937E-06     63.1242E-06
            5601            5630     58.6004E-06     61.2614E-06
            5602            5615     55.7729E-06     59.9137E-06
            5602            5616     54.6692E-06     58.0831E-06
            5602            5630     58.6004E-06     61.2614E-06
            5602            5631     57.5132E-06     59.5584E-06
            5603            5616     54.6692E-06     58.0831E-06
            5603            5617     53.7827E-06     56.5402E-06
            5603            5631     57.5132E-06     59.5584E-06
            5603            5632     56.6159E-06     58.2460E-06
            5604            5617     53.7827E-06     56.5402E-06
            5604            5618     52.8308E-06     55.7903E-06
            5604            5632     56.6159E-06     58.2460E-06
            5604            5633     56.3683E-06     57.2506E-06
            5605            5618     52.8308E-06     55.7903E-06
            5605            5619     52.2458E-06     55.8044E-06
            5605            5633     56.3683E-06     57.2506E-06
            5605            5634     57.4947E-06     55.2539E-06
            5606             837     58.4314E-06     53.7967E-06
            5606             838     52.1421E-06     55.8767E-06
            5606            5619     52.2458E-06     55.8044E-06
            5606            5634     57.4947E-06     55.2539E-06
            5607             856     80.2878E-06     83.0927E-06
            5607             857     111.224E-06     109.007E-06
            5607            5620     101.981E-06     102.311E-06
            5607            5635     76.9965E-06     79.5553E-06
            5608            5620     101.981E-06     102.311E-06
            5608            5621     86.7053E-06     90.4179E-06
            5608            5635     76.9965E-06     79.5553E-06
            5608            5636     75.7264E-06     78.6255E-06
            5609            5621     86.7053E-06     90.4179E-06
            5609            5622     77.8758E-06     82.9919E-06
            5609            5636     75.7264E-06     78.6255E-06
            5609            5637     78.1039E-06     81.1435E-06
            5610            5622     77.8758E-06     82.9919E-06
            5610            5623     74.1887E-06     79.4563E-06
            5610            5637     78.1039E-06     81.1435E-06
            5610            5638     77.5676E-06     80.0439E-06
            5611            5623     74.1887E-06     79.4563E-06
            5611            5624     71.7351E-06     76.4004E-06
            5611            5638     77.5676E-06     80.0439E-06
            5611            5639     75.3152E-06     77.4620E-06
            5612            5624     71.7351E-06     76.4004E-06
            5612            5625     68.9317E-06     73.2910E-06
            5612            5639     75.3152E-06     77.4620E-06
            5612            5640     72.4165E-06     74.2947E-06
            5613            5625     68.9317E-06     73.2910E-06
            5613            5626     66.4204E-06     70.4464E-06
            5613            5640     72.4165E-06     74.2947E-06
            5613            5641     69.5283E-06     71.2735E-06
            5614            5626     66.4204E-06     70.4464E-06
            5614            5627     64.0137E-06     67.7361E-06
            5614            5641     69.5283E-06     71.2735E-06
            5614            5642     66.9664E-06     68.5579E-06
            5615            5627     64.0137E-06     67.7361E-06
            5615            5628     61.9189E-06     65.3253E-06
            5615            5642     66.9664E-06     68.5579E-06
            5615            5643     64.7257E-06     66.1886E-06
            5616            5628     61.9189E-06     65.3253E-06
            5616            5629     60.0937E-06     63.1242E-06
            5616            5643     64.7257E-06     66.1886E-06
            5616            5644     62.8596E-06     64.1902E-06
            5617            5629     60.0937E-06     63.1242E-06
            5617            5630     58.6004E-06     61.2614E-06
            5617            5644     62.8596E-06     64.1902E-06
            5617            5645     61.3284E-06     62.4867E-06
            5618            5630     58.6004E-06     61.2614E-06
            5618            5631     57.5132E-06     59.5584E-06
            5618            5645     61.3284E-06     62.4867E-06
            5618            5646     60.1445E-06     61.1511E-06
            5619            5631     57.5132E-06     59.5584E-06
            5619            5632     56.6159E-06     58.2460E-06
            5619            5646     60.1445E-06     61.1511E-06
            5619            5647     59.6558E-06     59.8178E-06
            5620            5632     56.6159E-06     58.2460E-06
            5620            5633     56.3683E-06     57.2506E-06
            5620            5647     59.6558E-06     59.8178E-06
            5620            5648     59.9922E-06     57.9087E-06
            5621            5633     56.3683E-06     57.2506E-06
            5621            5634     57.4947E-06     55.2539E-06
            5621            5648     59.9922E-06     57.9087E-06
            5621            5649     60.4644E-06     56.2266E-06
            5622             836     60.6022E-06     55.6714E-06
            5622             837     58.4314E-06     53.7967E-06
            5622            5634     57.4947E-06     55.2539E-06
            5622            5649     60.4644E-06     56.2266E-06
            5623             855     56.1427E-06     52.9624E-06
            5623             856     80.2878E-06     83.0927E-06
            5623            5635     76.9965E-06     79.5553E-06
            5623            5650     55.4048E-06     55.5529E-06
            5624            5635     76.9965E-06     79.5553E-06
            5624            5636     75.7264E-06     78.6255E-06
            5624            5650     55.4048E-06     55.5529E-06
            5624            5651     62.8847E-06     65.6791E-06
            5625            5636     75.7264E-06     78.6255E-06
            5625            5637     78.1039E-06     81.1435E-06
            5625            5651     62.8847E-06     65.6791E-06
            5625            5652     75.2050E-06     76.0069E-06
            5626            5637     78.1039E-06     81.1435E-06
            5626            5638     77.5676E-06     80.0439E-06
            5626            5652     75.2050E-06     76.0069E-06
            5626            5653     78.6737E-06     78.1519E-06
            5627            5638     77.5676E-06     80.0439E-06
            5627            5639     75.3152E-06     77.4620E-06
            5627            5653     78.6737E-06     78.1519E-06
            5627            5654     77.0371E-06     76.4675E-06
            5628            5639     75.3152E-06     77.4620E-06
            5628            5640     72.4165E-06     74.2947E-06
            5628            5654     77.0371E-06     76.4675E-06
            5628            5655     74.6047E-06     73.9857E-06
            5629            5640     72.4165E-06     74.2947E-06
            5629            5641     69.5283E-06     71.2735E-06
            5629            5655     74.6047E-06     73.9857E-06
            5629            5656     71.8637E-06     71.2863E-06
            5630            5641     69.5283E-06     71.2735E-06
            5630            5642     66.9664E-06     68.5579E-06
            5630            5656     71.8637E-06     71.2863E-06
            5630            5657     69.4160E-06     68.9088E-06
            5631            5642     66.9664E-06     68.5579E-06
            5631            5643     64.7257E-06     66.1886E-06
            5631            5657     69.4160E-06     68.9088E-06
            5631            5658     67.2827E-06     66.8381E-06
            5632            5643     64.7257E-06     66.1886E-06
            5632            5644     62.8596E-06     64.1902E-06
            5632            5658     67.2827E-06     66.8381E-06
            5632            5659     65.4686E-06     65.1221E-06
            5633            5644     62.8596E-06     64.1902E-06
            5633            5645     61.3284E-06     62.4867E-06
            5633            5659     65.4686E-06     65.1221E-06
            5633            5660     63.9742E-06     63.7150E-06
            5634            5645     61.3284E-06     62.4867E-06
            5634            5646     60.1445E-06     61.1511E-06
            5634            5660     63.9742E-06     63.7150E-06
            5634            5661     62.7540E-06     62.6405E-06
            5635            5646     60.1445E-06     61.1511E-06
            5635            5647     59.6558E-06     59.8178E-06
            5635            5661     62.7540E-06     62.6405E-06
            5635            5662     62.1068E-06     61.6901E-06
            5636            5647     59.6558E-06     59.8178E-06
            5636            5648     59.9922E-06     57.9087E-06
            5636            5662     62.1068E-06     61.6901E-06
            5636            5663     62.3227E-06     60.1992E-06
            5637            5648     59.9922E-06     57.9087E-06
            5637            5649     60.4644E-06     56.2266E-06
            5637            5663     62.3227E-06     60.1992E-06
            5637            5664     62.7431E-06     58.5241E-06
            5638             835     62.8433E-06     57.8246E-06
            5638             836     60.6022E-06     55.6714E-06
            5638            5649     60.4644E-06     56.2266E-06
            5638            5664     62.7431E-06     58.5241E-06
            5639             854     32.0423E-06     29.2239E-06
            5639             855     56.1427E-06     52.9624E-06
            5639            5650     55.4048E-06     55.5529E-06
            5639            5665     37.8019E-06     36.5852E-06
            5640            5650     55.4048E-06     55.5529E-06
            5640            5651     62.8847E-06     65.6791E-06
            5640            5665     37.8019E-06     36.5852E-06
            5640            5666     56.1748E-06     54.5925E-06
            5641            5651     62.8847E-06     65.6791E-06
            5641            5652     75.2050E-06     76.0069E-06
            5641            5666     56.1748E-06     54.5925E-06
            5641            5667     71.9560E-06     68.4814E-06
            5642            5652     75.2050E-06     76.0069E-06
            5642            5653     78.6737E-06     78.1519E-06
            5642            5667     71.9560E-06     68.4814E-06
            5642            5668     76.3495E-06     72.8337E-06
            5643            5653     78.6737E-06     78.1519E-06
            5643            5654     77.0371E-06     76.4675E-06
            5643            5668     76.3495E-06     72.8337E-06
            5643            5669     76.8495E-06     73.3610E-06
            5644            5654     77.0371E-06     76.4675E-06
            5644            5655     74.6047E-06     73.9857E-06
            5644            5669     76.8495E-06     73.3610E-06
            5644            5670     75.2511E-06     72.0965E-06
            5645            5655     74.6047E-06     73.9857E-06
            5645            5656     71.8637E-06     71.2863E-06
            5645            5670     75.2511E-06     72.0965E-06
            5645            5671     73.3785E-06     70.5089E-06
            5646            5656     71.8637E-06     71.2863E-06
            5646            5657     69.4160E-06     68.9088E-06
            5646            5671     73.3785E-06     70.5089E-06
            5646            5672     71.4059E-06     68.8273E-06
            5647            5657     69.4160E-06     68.9088E-06
            5647            5658     67.2827E-06     66.8381E-06
            5647            5672     71.4059E-06     68.8273E-06
            5647            5673     69.6186E-06     67.3395E-06
            5648            5658     67.2827E-06     66.8381E-06
            5648            5659     65.4686E-06     65.1221E-06
            5648            5673     69.6186E-06     67.3395E-06
            5648            5674     68.0086E-06     66.0198E-06
            5649            5659     65.4686E-06     65.1221E-06
            5649            5660     63.9742E-06     63.7150E-06
            5649            5674     68.0086E-06     66.0198E-06
            5649            5675     66.5884E-06     64.9839E-06
            5650            5660     63.9742E-06     63.7150E-06
            5650            5661     62.7540E-06     62.6405E-06
            5650            5675     66.5884E-06     64.9839E-06
            5650            5676     65.4249E-06     64.1061E-06
            5651            5661     62.7540E-06     62.6405E-06
            5651            5662     62.1068E-06     61.6901E-06
            5651            5676     65.4249E-06     64.1061E-06
            5651            5677     64.2105E-06     63.7110E-06
            5652            5662     62.1068E-06     61.6901E-06
            5652            5663     62.3227E-06     60.1992E-06
            5652            5677     64.2105E-06     63.7110E-06
            5652            5678     63.4589E-06     63.8197E-06
            5653            5663     62.3227E-06     60.1992E-06
            5653            5664     62.7431E-06     58.5241E-06
            5653            5678     63.4589E-06     63.8197E-06
            5653            5679     64.3744E-06     62.5946E-06
            5654             834     65.3660E-06     61.3159E-06
            5654             835     62.8433E-06     57.8246E-06
            5654            5664     62.7431E-06     58.5241E-06
            5654            5679     64.3744E-06     62.5946E-06
            5655             853     22.9802E-06     33.5829E-06
            5655             854     32.0423E-06     29.2239E-06
            5655            5665     37.8019E-06     36.5852E-06
            5655            5680     32.4200E-06     33.5920E-06
            5656            5665     37.8019E-06     36.5852E-06
            5656            5666     56.1748E-06     54.5925E-06
            5656            5680     32.4200E-06     33.5920E-06
            5656            5681     51.3829E-06     43.1323E-06
            5657            5666     56.1748E-06     54.5925E-06
            5657            5667     71.9560E-06     68.4814E-06
            5657            5681     51.3829E-06     43.1323E-06
            5657            5682     65.6779E-06     57.9544E-06
            5658            5667     71.9560E-06     68.4814E-06
            5658            5668     76.3495E-06     72.8337E-06
            5658            5682     65.6779E-06     57.9544E-06
            5658            5683     72.3522E-06     65.5239E-06
            5659            5668     76.3495E-06     72.8337E-06
            5659            5669     76.8495E-06     73.3610E-06
            5659            5683     72.3522E-06     65.5239E-06
            5659            5684     74.8244E-06     68.6836E-06
            5660            5669     76.8495E-06     73.3610E-06
            5660            5670     75.2511E-06     72.0965E-06
            5660            5684     74.8244E-06     68.6836E-06
            5660            5685     75.1884E-06     69.5940E-06
            5661            5670     75.2511E-06     72.0965E-06
            5661            5671     73.3785E-06     70.5089E-06
            5661            5685     75.1884E-06     69.5940E-06
            5661            5686     74.4295E-06     69.4086E-06
            5662            5671     73.3785E-06     70.5089E-06
            5662            5672     71.4059E-06     68.8273E-06
            5662            5686     74.4295E-06     69.4086E-06
            5662            5687     73.2747E-06     68.7534E-06
            5663            5672     71.4059E-06     68.8273E-06
            5663            5673     69.6186E-06     67.3395E-06
            5663            5687     73.2747E-06     68.7534E-06
            5663            5688     71.9241E-06     67.9140E-06
            5664            5673     69.6186E-06     67.3395E-06
            5664            5674     68.0086E-06     66.0198E-06
            5664            5688     71.9241E-06     67.9140E-06
            5664            5689     70.5876E-06     67.1020E-06
            5665            5674     68.0086E-06     66.0198E-06
            5665            5675     66.5884E-06     64.9839E-06
            5665            5689     70.5876E-06     67.1020E-06
            5665            5690     69.2953E-06     66.3392E-06
            5666            5675     66.5884E-06     64.9839E-06
            5666            5676     65.4249E-06     64.1061E-06
            5666            5690     69.2953E-06     66.3392E-06
            5666            5691     68.0892E-06     65.7986E-06
            5667            5676     65.4249E-06     64.1061E-06
            5667            5677     64.2105E-06     63.7110E-06
            5667            5691     68.0892E-06     65.7986E-06
            5667            5692     66.8781E-06     65.4904E-06
            5668            5677     64.2105E-06     63.7110E-06
            5668            5678     63.4589E-06     63.8197E-06
            5668            5692     66.8781E-06     65.4904E-06
            5668            5693     65.2806E-06     66.0872E-06
            5669            5678     63.4589E-06     63.8197E-06
            5669            5679     64.3744E-06     62.5946E-06
            5669            5693     65.2806E-06     66.0872E-06
            5669            5694     63.8300E-06     67.7008E-06
            5670             833     63.2671E-06     68.6003E-06
            5670             834     65.3660E-06     61.3159E-06
            5670            5679     64.3744E-06     62.5946E-06
            5670            5694     63.8300E-06     67.7008E-06
            5671              34     25.1742E-06     47.7836E-06
            5671             853     22.9802E-06     33.5829E-06
            5671             897     33.5207E-06     38.2109E-06
            5671            5680     32.4200E-06     33.5920E-06
            5672             896     48.1958E-06     36.6833E-06
            5672             897     33.5207E-06     38.2109E-06
            5672            5680     32.4200E-06     33.5920E-06
            5672            5681     51.3829E-06     43.1323E-06
            5673             895     61.2947E-06     51.7644E-06
            5673             896     48.1958E-06     36.6833E-06
            5673            5681     51.3829E-06     43.1323E-06
            5673            5682     65.6779E-06     57.9544E-06
            5674             894     70.1261E-06     61.6963E-06
            5674             895     61.2947E-06     51.7644E-06
            5674            5682     65.6779E-06     57.9544E-06
            5674            5683     72.3522E-06     65.5239E-06
            5675             893     73.5399E-06     66.1174E-06
            5675             894     70.1261E-06     61.6963E-06
            5675            5683     72.3522E-06     65.5239E-06
            5675            5684     74.8244E-06     68.6836E-06
            5676             892     75.0613E-06     68.3462E-06
            5676             893     73.5399E-06     66.1174E-06
            5676            5684     74.8244E-06     68.6836E-06
            5676            5685     75.1884E-06     69.5940E-06
            5677             891     74.9607E-06     68.9073E-06
            5677             892     75.0613E-06     68.3462E-06
            5677            5685     75.1884E-06     69.5940E-06
            5677            5686     74.4295E-06     69.4086E-06
            5678             890     74.2156E-06     68.7607E-06
            5678             891     74.9607E-06     68.9073E-06
            5678            5686     74.4295E-06     69.4086E-06
            5678            5687     73.2747E-06     68.7534E-06
            5679             889     73.1079E-06     68.2861E-06
            5679             890     74.2156E-06     68.7607E-06
            5679            5687     73.2747E-06     68.7534E-06
            5679            5688     71.9241E-06     67.9140E-06
            5680             888     71.9093E-06     67.6928E-06
            5680             889     73.1079E-06     68.2861E-06
            5680            5688     71.9241E-06     67.9140E-06
            5680            5689     70.5876E-06     67.1020E-06
            5681             887     70.6506E-06     67.0690E-06
            5681             888     71.9093E-06     67.6928E-06
            5681            5689     70.5876E-06     67.1020E-06
            5681            5690     69.2953E-06     66.3392E-06
            5682             886     69.5013E-06     66.7210E-06
            5682             887     70.6506E-06     67.0690E-06
            5682            5690     69.2953E-06     66.3392E-06
            5682            5691     68.0892E-06     65.7986E-06
            5683             885     68.2543E-06     66.2543E-06
            5683             886     69.5013E-06     66.7210E-06
            5683            5691     68.0892E-06     65.7986E-06
            5683            5692     66.8781E-06     65.4904E-06
            5684             884     66.9422E-06     66.7948E-06
            5684             885     68.2543E-06     66.2543E-06
            5684            5692     66.8781E-06     65.4904E-06
            5684            5693     65.2806E-06     66.0872E-06
            5685             883     63.1575E-06     69.0229E-06
            5685             884     66.9422E-06     66.7948E-06
            5685            5693     65.2806E-06     66.0872E-06
            5685            5694     63.8300E-06     67.7008E-06
            5686              32     59.8955E-06     70.0910E-06
            5686             833     63.2671E-06     68.6003E-06
            5686             883     63.1575E-06     69.0229E-06
            5686            5694     63.8300E-06     67.7008E-06


  Minimum                            22.9802E-06     29.2239E-06
      At Element                            5671            5655
            Node                             853             854

  Maximum                                1.04844         1.05399
      At Element                            4914            4914
            Node                             560             560

           Total                     1.69398E+03     1.72877E+03


