********************************************************************************
Field Output Report, written Thu Feb 22 16:22:17 2018

Source 1
---------

   ODB: C:/Users/JMJFVA~1/AppData/Local/Temp/Do228n.odb
   Step: RotateUp
   Frame: Increment      1: Step Time =    1.000

Loc 1 : Element nodal  values at shell < ALUMINIUM > < 5 section points > from source 1 : SNEG, (fraction = -1.0) ( Average criteria = 75%, Not averaged across region boundaries )
Loc 2 : Element nodal  values at shell < ALUMINIUM > < 5 section points > from source 1 : SPOS, (fraction = 1.0) ( Average criteria = 75%, Not averaged across region boundaries )

Output sorted by column "Element Label".

Field Output reported at element nodes for region: DO228-1.Region_1
   Computation algorithm: EXTRAPOLATE_COMPUTE_AVERAGE
   Averaged at nodes
   Averaging regions: ODB_REGIONS

   Element Label      Node Label         S.Mises         S.Mises
                                          @Loc 1          @Loc 2
-----------------------------------------------------------------
             945               8     80.1165E-03     79.7455E-03
             945             210     78.4766E-03     78.1369E-03
             945             235     7.74500E-15     7.07435E-15
             945            1760     8.07571E-15     6.53212E-15
             946             210     78.4766E-03     78.1369E-03
             946             211     74.1684E-03     73.6923E-03
             946            1760     8.07571E-15     6.53212E-15
             946            1761     8.41038E-15     7.75098E-15
             947             211     74.1684E-03     73.6923E-03
             947             212     66.6293E-03     66.0345E-03
             947            1761     8.41038E-15     7.75098E-15
             947            1762     13.3859E-15     13.5303E-15
             948             212     66.6293E-03     66.0345E-03
             948             213     56.8913E-03     56.2131E-03
             948            1762     13.3859E-15     13.5303E-15
             948            1763     19.6577E-15     19.4276E-15
             949             213     56.8913E-03     56.2131E-03
             949             214     44.3380E-03     43.2933E-03
             949            1763     19.6577E-15     19.4276E-15
             949            1764     16.4846E-15     17.0860E-15
             950             214     44.3380E-03     43.2933E-03
             950             215     30.1324E-03     28.5880E-03
             950            1764     16.4846E-15     17.0860E-15
             950            1765     15.5029E-15     16.4192E-15
             951             215     30.1324E-03     28.5880E-03
             951             216     18.1440E-03     23.5792E-03
             951            1765     15.5029E-15     16.4192E-15
             951            1766     13.6917E-15     13.2797E-15
             952               2     12.6750E-03     25.3556E-03
             952             216     18.1440E-03     23.5792E-03
             952             217     8.71056E-15     7.52821E-15
             952            1766     13.6917E-15     13.2797E-15
             953             234     11.7473E-15     11.8933E-15
             953             235     7.74500E-15     7.07435E-15
             953            1760     8.07571E-15     6.53212E-15
             953            1767     10.0391E-15     9.91305E-15
             954            1760     8.07571E-15     6.53212E-15
             954            1761     8.41038E-15     7.75098E-15
             954            1767     10.0391E-15     9.91305E-15
             954            1768     8.50297E-15     9.86895E-15
             955            1761     8.41038E-15     7.75098E-15
             955            1762     13.3859E-15     13.5303E-15
             955            1768     8.50297E-15     9.86895E-15
             955            1769     10.4299E-15     12.4610E-15
             956            1762     13.3859E-15     13.5303E-15
             956            1763     19.6577E-15     19.4276E-15
             956            1769     10.4299E-15     12.4610E-15
             956            1770     16.5767E-15     17.6156E-15
             957            1763     19.6577E-15     19.4276E-15
             957            1764     16.4846E-15     17.0860E-15
             957            1770     16.5767E-15     17.6156E-15
             957            1771     17.8424E-15     17.0956E-15
             958            1764     16.4846E-15     17.0860E-15
             958            1765     15.5029E-15     16.4192E-15
             958            1771     17.8424E-15     17.0956E-15
             958            1772     14.4321E-15     14.6643E-15
             959            1765     15.5029E-15     16.4192E-15
             959            1766     13.6917E-15     13.2797E-15
             959            1772     14.4321E-15     14.6643E-15
             959            1773     14.2539E-15     14.8260E-15
             960             217     8.71056E-15     7.52821E-15
             960             218     13.8007E-15     13.1186E-15
             960            1766     13.6917E-15     13.2797E-15
             960            1773     14.2539E-15     14.8260E-15
             961             233     10.5185E-15     10.6865E-15
             961             234     11.7473E-15     11.8933E-15
             961            1767     10.0391E-15     9.91305E-15
             961            1774     9.85908E-15     10.2423E-15
             962            1767     10.0391E-15     9.91305E-15
             962            1768     8.50297E-15     9.86895E-15
             962            1774     9.85908E-15     10.2423E-15
             962            1775     8.48770E-15     9.54467E-15
             963            1768     8.50297E-15     9.86895E-15
             963            1769     10.4299E-15     12.4610E-15
             963            1775     8.48770E-15     9.54467E-15
             963            1776     10.9233E-15     11.7996E-15
             964            1769     10.4299E-15     12.4610E-15
             964            1770     16.5767E-15     17.6156E-15
             964            1776     10.9233E-15     11.7996E-15
             964            1777     13.8672E-15     15.1786E-15
             965            1770     16.5767E-15     17.6156E-15
             965            1771     17.8424E-15     17.0956E-15
             965            1777     13.8672E-15     15.1786E-15
             965            1778     11.7302E-15     11.6451E-15
             966            1771     17.8424E-15     17.0956E-15
             966            1772     14.4321E-15     14.6643E-15
             966            1778     11.7302E-15     11.6451E-15
             966            1779     9.18163E-15     11.1473E-15
             967            1772     14.4321E-15     14.6643E-15
             967            1773     14.2539E-15     14.8260E-15
             967            1779     9.18163E-15     11.1473E-15
             967            1780     10.5395E-15     14.2570E-15
             968             218     13.8007E-15     13.1186E-15
             968             219     11.9353E-15     14.2062E-15
             968            1773     14.2539E-15     14.8260E-15
             968            1780     10.5395E-15     14.2570E-15
             969             232     8.53499E-15     9.23078E-15
             969             233     10.5185E-15     10.6865E-15
             969            1774     9.85908E-15     10.2423E-15
             969            1781     8.41965E-15     7.98320E-15
             970            1774     9.85908E-15     10.2423E-15
             970            1775     8.48770E-15     9.54467E-15
             970            1781     8.41965E-15     7.98320E-15
             970            1782     10.1294E-15     9.36848E-15
             971            1775     8.48770E-15     9.54467E-15
             971            1776     10.9233E-15     11.7996E-15
             971            1782     10.1294E-15     9.36848E-15
             971            1783     11.9384E-15     11.6623E-15
             972            1776     10.9233E-15     11.7996E-15
             972            1777     13.8672E-15     15.1786E-15
             972            1783     11.9384E-15     11.6623E-15
             972            1784     11.8376E-15     13.2342E-15
             973            1777     13.8672E-15     15.1786E-15
             973            1778     11.7302E-15     11.6451E-15
             973            1784     11.8376E-15     13.2342E-15
             973            1785     6.64006E-15     10.7803E-15
             974            1778     11.7302E-15     11.6451E-15
             974            1779     9.18163E-15     11.1473E-15
             974            1785     6.64006E-15     10.7803E-15
             974            1786     11.6765E-15     14.6706E-15
             975            1779     9.18163E-15     11.1473E-15
             975            1780     10.5395E-15     14.2570E-15
             975            1786     11.6765E-15     14.6706E-15
             975            1787     10.2834E-15     11.0062E-15
             976             219     11.9353E-15     14.2062E-15
             976             220     2.93650E-15     4.11199E-15
             976            1780     10.5395E-15     14.2570E-15
             976            1787     10.2834E-15     11.0062E-15
             977             231     10.3533E-15     10.6418E-15
             977             232     8.53499E-15     9.23078E-15
             977            1781     8.41965E-15     7.98320E-15
             977            1788     9.73478E-15     8.71377E-15
             978            1781     8.41965E-15     7.98320E-15
             978            1782     10.1294E-15     9.36848E-15
             978            1788     9.73478E-15     8.71377E-15
             978            1789     12.2552E-15     10.6189E-15
             979            1782     10.1294E-15     9.36848E-15
             979            1783     11.9384E-15     11.6623E-15
             979            1789     12.2552E-15     10.6189E-15
             979            1790     11.8343E-15     11.5004E-15
             980            1783     11.9384E-15     11.6623E-15
             980            1784     11.8376E-15     13.2342E-15
             980            1790     11.8343E-15     11.5004E-15
             980            1791     10.9419E-15     13.1268E-15
             981            1784     11.8376E-15     13.2342E-15
             981            1785     6.64006E-15     10.7803E-15
             981            1791     10.9419E-15     13.1268E-15
             981            1792     8.43016E-15     11.3575E-15
             982            1785     6.64006E-15     10.7803E-15
             982            1786     11.6765E-15     14.6706E-15
             982            1792     8.43016E-15     11.3575E-15
             982            1793     12.0933E-15     14.4915E-15
             983            1786     11.6765E-15     14.6706E-15
             983            1787     10.2834E-15     11.0062E-15
             983            1793     12.0933E-15     14.4915E-15
             983            1794     15.0293E-15     14.6532E-15
             984             220     2.93650E-15     4.11199E-15
             984             221     13.3552E-15     10.6809E-15
             984            1787     10.2834E-15     11.0062E-15
             984            1794     15.0293E-15     14.6532E-15
             985             230     10.2274E-15     9.95678E-15
             985             231     10.3533E-15     10.6418E-15
             985            1788     9.73478E-15     8.71377E-15
             985            1795     10.1225E-15     9.81769E-15
             986            1788     9.73478E-15     8.71377E-15
             986            1789     12.2552E-15     10.6189E-15
             986            1795     10.1225E-15     9.81769E-15
             986            1796     12.3537E-15     11.0608E-15
             987            1789     12.2552E-15     10.6189E-15
             987            1790     11.8343E-15     11.5004E-15
             987            1796     12.3537E-15     11.0608E-15
             987            1797     13.3060E-15     12.1721E-15
             988            1790     11.8343E-15     11.5004E-15
             988            1791     10.9419E-15     13.1268E-15
             988            1797     13.3060E-15     12.1721E-15
             988            1798     11.8176E-15     12.3538E-15
             989            1791     10.9419E-15     13.1268E-15
             989            1792     8.43016E-15     11.3575E-15
             989            1798     11.8176E-15     12.3538E-15
             989            1799     11.2413E-15     13.0801E-15
             990            1792     8.43016E-15     11.3575E-15
             990            1793     12.0933E-15     14.4915E-15
             990            1799     11.2413E-15     13.0801E-15
             990            1800     10.7305E-15     13.0307E-15
             991            1793     12.0933E-15     14.4915E-15
             991            1794     15.0293E-15     14.6532E-15
             991            1800     10.7305E-15     13.0307E-15
             991            1801     15.8259E-15     14.8618E-15
             992             221     13.3552E-15     10.6809E-15
             992             222     21.9615E-15     18.8208E-15
             992            1794     15.0293E-15     14.6532E-15
             992            1801     15.8259E-15     14.8618E-15
             993              10     10.9439E-15     10.3761E-15
             993             229     10.8775E-15     10.9502E-15
             993             230     10.2274E-15     9.95678E-15
             993            1795     10.1225E-15     9.81769E-15
             994             228     10.6050E-15     9.71397E-15
             994             229     10.8775E-15     10.9502E-15
             994            1795     10.1225E-15     9.81769E-15
             994            1796     12.3537E-15     11.0608E-15
             995             227     13.7413E-15     12.3231E-15
             995             228     10.6050E-15     9.71397E-15
             995            1796     12.3537E-15     11.0608E-15
             995            1797     13.3060E-15     12.1721E-15
             996             226     12.2409E-15     12.1757E-15
             996             227     13.7413E-15     12.3231E-15
             996            1797     13.3060E-15     12.1721E-15
             996            1798     11.8176E-15     12.3538E-15
             997             225     10.2686E-15     13.6829E-15
             997             226     12.2409E-15     12.1757E-15
             997            1798     11.8176E-15     12.3538E-15
             997            1799     11.2413E-15     13.0801E-15
             998             224     12.2563E-15     12.9347E-15
             998             225     10.2686E-15     13.6829E-15
             998            1799     11.2413E-15     13.0801E-15
             998            1800     10.7305E-15     13.0307E-15
             999             223     16.1235E-15     12.3417E-15
             999             224     12.2563E-15     12.9347E-15
             999            1800     10.7305E-15     13.0307E-15
             999            1801     15.8259E-15     14.8618E-15
            1000               9     20.2878E-15     18.1994E-15
            1000             222     21.9615E-15     18.8208E-15
            1000             223     16.1235E-15     12.3417E-15
            1000            1801     15.8259E-15     14.8618E-15
            1001               8     80.1165E-03     79.7455E-03
            1001             236     78.4766E-03     78.1369E-03
            1001             351     160.835E-03     160.308E-03
            1001            1802     157.709E-03     157.275E-03
            1002             236     78.4766E-03     78.1369E-03
            1002             237     74.1684E-03     73.6923E-03
            1002            1802     157.709E-03     157.275E-03
            1002            1803     148.810E-03     148.491E-03
            1003             237     74.1684E-03     73.6923E-03
            1003             238     66.6293E-03     66.0345E-03
            1003            1803     148.810E-03     148.491E-03
            1003            1804     134.076E-03     134.027E-03
            1004             238     66.6293E-03     66.0345E-03
            1004             239     56.8913E-03     56.2131E-03
            1004            1804     134.076E-03     134.027E-03
            1004            1805     114.200E-03     114.851E-03
            1005             239     56.8913E-03     56.2131E-03
            1005             240     44.3380E-03     43.2933E-03
            1005            1805     114.200E-03     114.851E-03
            1005            1806     89.3357E-03     92.1146E-03
            1006             240     44.3380E-03     43.2933E-03
            1006             241     30.1324E-03     28.5880E-03
            1006            1806     89.3357E-03     92.1146E-03
            1006            1807     59.7930E-03     64.6680E-03
            1007             241     30.1324E-03     28.5880E-03
            1007             242     18.1440E-03     23.5792E-03
            1007            1807     59.7930E-03     64.6680E-03
            1007            1808     33.4437E-03     47.1018E-03
            1008               5     12.6750E-03     25.3556E-03
            1008             242     18.1440E-03     23.5792E-03
            1008             243     22.6885E-03     44.7090E-03
            1008            1808     33.4437E-03     47.1018E-03
            1009             350     162.217E-03     161.110E-03
            1009             351     160.835E-03     160.308E-03
            1009            1802     157.709E-03     157.275E-03
            1009            1809     159.452E-03     158.194E-03
            1010            1802     157.709E-03     157.275E-03
            1010            1803     148.810E-03     148.491E-03
            1010            1809     159.452E-03     158.194E-03
            1010            1810     150.816E-03     149.399E-03
            1011            1803     148.810E-03     148.491E-03
            1011            1804     134.076E-03     134.027E-03
            1011            1810     150.816E-03     149.399E-03
            1011            1811     137.309E-03     135.503E-03
            1012            1804     134.076E-03     134.027E-03
            1012            1805     114.200E-03     114.851E-03
            1012            1811     137.309E-03     135.503E-03
            1012            1812     119.183E-03     116.566E-03
            1013            1805     114.200E-03     114.851E-03
            1013            1806     89.3357E-03     92.1146E-03
            1013            1812     119.183E-03     116.566E-03
            1013            1813     97.4367E-03     94.9979E-03
            1014            1806     89.3357E-03     92.1146E-03
            1014            1807     59.7930E-03     64.6680E-03
            1014            1813     97.4367E-03     94.9979E-03
            1014            1814     74.0562E-03     68.2364E-03
            1015            1807     59.7930E-03     64.6680E-03
            1015            1808     33.4437E-03     47.1018E-03
            1015            1814     74.0562E-03     68.2364E-03
            1015            1815     57.2625E-03     49.1398E-03
            1016             243     22.6885E-03     44.7090E-03
            1016             244     52.5930E-03     46.1572E-03
            1016            1808     33.4437E-03     47.1018E-03
            1016            1815     57.2625E-03     49.1398E-03
            1017             349     161.454E-03     159.413E-03
            1017             350     162.217E-03     161.110E-03
            1017            1809     159.452E-03     158.194E-03
            1017            1816     158.596E-03     156.681E-03
            1018            1809     159.452E-03     158.194E-03
            1018            1810     150.816E-03     149.399E-03
            1018            1816     158.596E-03     156.681E-03
            1018            1817     150.434E-03     148.930E-03
            1019            1810     150.816E-03     149.399E-03
            1019            1811     137.309E-03     135.503E-03
            1019            1817     150.434E-03     148.930E-03
            1019            1818     137.041E-03     136.354E-03
            1020            1811     137.309E-03     135.503E-03
            1020            1812     119.183E-03     116.566E-03
            1020            1818     137.041E-03     136.354E-03
            1020            1819     120.273E-03     119.976E-03
            1021            1812     119.183E-03     116.566E-03
            1021            1813     97.4367E-03     94.9979E-03
            1021            1819     120.273E-03     119.976E-03
            1021            1820     99.6911E-03     100.166E-03
            1022            1813     97.4367E-03     94.9979E-03
            1022            1814     74.0562E-03     68.2364E-03
            1022            1820     99.6911E-03     100.166E-03
            1022            1821     78.8104E-03     79.8469E-03
            1023            1814     74.0562E-03     68.2364E-03
            1023            1815     57.2625E-03     49.1398E-03
            1023            1821     78.8104E-03     79.8469E-03
            1023            1822     79.6862E-03     80.5181E-03
            1024             244     52.5930E-03     46.1572E-03
            1024             245     89.5380E-03     90.5193E-03
            1024            1815     57.2625E-03     49.1398E-03
            1024            1822     79.6862E-03     80.5181E-03
            1025             348     164.148E-03     163.261E-03
            1025             349     161.454E-03     159.413E-03
            1025            1816     158.596E-03     156.681E-03
            1025            1823     160.941E-03     160.209E-03
            1026            1816     158.596E-03     156.681E-03
            1026            1817     150.434E-03     148.930E-03
            1026            1823     160.941E-03     160.209E-03
            1026            1824     152.312E-03     151.825E-03
            1027            1817     150.434E-03     148.930E-03
            1027            1818     137.041E-03     136.354E-03
            1027            1824     152.312E-03     151.825E-03
            1027            1825     137.579E-03     138.382E-03
            1028            1818     137.041E-03     136.354E-03
            1028            1819     120.273E-03     119.976E-03
            1028            1825     137.579E-03     138.382E-03
            1028            1826     119.441E-03     122.542E-03
            1029            1819     120.273E-03     119.976E-03
            1029            1820     99.6911E-03     100.166E-03
            1029            1826     119.441E-03     122.542E-03
            1029            1827     98.3592E-03     106.488E-03
            1030            1820     99.6911E-03     100.166E-03
            1030            1821     78.8104E-03     79.8469E-03
            1030            1827     98.3592E-03     106.488E-03
            1030            1828     78.1567E-03     92.6569E-03
            1031            1821     78.8104E-03     79.8469E-03
            1031            1822     79.6862E-03     80.5181E-03
            1031            1828     78.1567E-03     92.6569E-03
            1031            1829     68.4762E-03     81.6180E-03
            1032             245     89.5380E-03     90.5193E-03
            1032             246     66.7441E-03     76.0830E-03
            1032            1822     79.6862E-03     80.5181E-03
            1032            1829     68.4762E-03     81.6180E-03
            1033             347     168.677E-03     168.200E-03
            1033             348     164.148E-03     163.261E-03
            1033            1823     160.941E-03     160.209E-03
            1033            1830     165.856E-03     164.977E-03
            1034            1823     160.941E-03     160.209E-03
            1034            1824     152.312E-03     151.825E-03
            1034            1830     165.856E-03     164.977E-03
            1034            1831     157.216E-03     155.675E-03
            1035            1824     152.312E-03     151.825E-03
            1035            1825     137.579E-03     138.382E-03
            1035            1831     157.216E-03     155.675E-03
            1035            1832     143.063E-03     141.523E-03
            1036            1825     137.579E-03     138.382E-03
            1036            1826     119.441E-03     122.542E-03
            1036            1832     143.063E-03     141.523E-03
            1036            1833     125.236E-03     125.667E-03
            1037            1826     119.441E-03     122.542E-03
            1037            1827     98.3592E-03     106.488E-03
            1037            1833     125.236E-03     125.667E-03
            1037            1834     107.880E-03     110.718E-03
            1038            1827     98.3592E-03     106.488E-03
            1038            1828     78.1567E-03     92.6569E-03
            1038            1834     107.880E-03     110.718E-03
            1038            1835     93.2487E-03     94.1579E-03
            1039            1828     78.1567E-03     92.6569E-03
            1039            1829     68.4762E-03     81.6180E-03
            1039            1835     93.2487E-03     94.1579E-03
            1039            1836     67.4508E-03     63.3996E-03
            1040             246     66.7441E-03     76.0830E-03
            1040             247     48.4198E-03     42.0362E-03
            1040            1829     68.4762E-03     81.6180E-03
            1040            1836     67.4508E-03     63.3996E-03
            1041             346     169.255E-03     168.092E-03
            1041             347     168.677E-03     168.200E-03
            1041            1830     165.856E-03     164.977E-03
            1041            1837     166.857E-03     165.453E-03
            1042            1830     165.856E-03     164.977E-03
            1042            1831     157.216E-03     155.675E-03
            1042            1837     166.857E-03     165.453E-03
            1042            1838     159.504E-03     158.003E-03
            1043            1831     157.216E-03     155.675E-03
            1043            1832     143.063E-03     141.523E-03
            1043            1838     159.504E-03     158.003E-03
            1043            1839     147.364E-03     147.308E-03
            1044            1832     143.063E-03     141.523E-03
            1044            1833     125.236E-03     125.667E-03
            1044            1839     147.364E-03     147.308E-03
            1044            1840     132.340E-03     135.473E-03
            1045            1833     125.236E-03     125.667E-03
            1045            1834     107.880E-03     110.718E-03
            1045            1840     132.340E-03     135.473E-03
            1045            1841     117.784E-03     122.437E-03
            1046            1834     107.880E-03     110.718E-03
            1046            1835     93.2487E-03     94.1579E-03
            1046            1841     117.784E-03     122.437E-03
            1046            1842     101.768E-03     104.912E-03
            1047            1835     93.2487E-03     94.1579E-03
            1047            1836     67.4508E-03     63.3996E-03
            1047            1842     101.768E-03     104.912E-03
            1047            1843     84.4524E-03     84.6573E-03
            1048             247     48.4198E-03     42.0362E-03
            1048             248     76.4352E-03     74.8421E-03
            1048            1836     67.4508E-03     63.3996E-03
            1048            1843     84.4524E-03     84.6573E-03
            1049             345     169.217E-03     168.443E-03
            1049             346     169.255E-03     168.092E-03
            1049            1837     166.857E-03     165.453E-03
            1049            1844     167.408E-03     166.417E-03
            1050            1837     166.857E-03     165.453E-03
            1050            1838     159.504E-03     158.003E-03
            1050            1844     167.408E-03     166.417E-03
            1050            1845     161.864E-03     160.934E-03
            1051            1838     159.504E-03     158.003E-03
            1051            1839     147.364E-03     147.308E-03
            1051            1845     161.864E-03     160.934E-03
            1051            1846     152.829E-03     153.532E-03
            1052            1839     147.364E-03     147.308E-03
            1052            1840     132.340E-03     135.473E-03
            1052            1846     152.829E-03     153.532E-03
            1052            1847     141.836E-03     144.802E-03
            1053            1840     132.340E-03     135.473E-03
            1053            1841     117.784E-03     122.437E-03
            1053            1847     141.836E-03     144.802E-03
            1053            1848     129.342E-03     132.333E-03
            1054            1841     117.784E-03     122.437E-03
            1054            1842     101.768E-03     104.912E-03
            1054            1848     129.342E-03     132.333E-03
            1054            1849     115.529E-03     118.163E-03
            1055            1842     101.768E-03     104.912E-03
            1055            1843     84.4524E-03     84.6573E-03
            1055            1849     115.529E-03     118.163E-03
            1055            1850     108.666E-03     109.626E-03
            1056             248     76.4352E-03     74.8421E-03
            1056             249     108.817E-03     107.576E-03
            1056            1843     84.4524E-03     84.6573E-03
            1056            1850     108.666E-03     109.626E-03
            1057             344     168.812E-03     168.408E-03
            1057             345     169.217E-03     168.443E-03
            1057            1844     167.408E-03     166.417E-03
            1057            1851     167.785E-03     167.267E-03
            1058            1844     167.408E-03     166.417E-03
            1058            1845     161.864E-03     160.934E-03
            1058            1851     167.785E-03     167.267E-03
            1058            1852     164.500E-03     164.458E-03
            1059            1845     161.864E-03     160.934E-03
            1059            1846     152.829E-03     153.532E-03
            1059            1852     164.500E-03     164.458E-03
            1059            1853     159.253E-03     160.717E-03
            1060            1846     152.829E-03     153.532E-03
            1060            1847     141.836E-03     144.802E-03
            1060            1853     159.253E-03     160.717E-03
            1060            1854     152.721E-03     154.669E-03
            1061            1847     141.836E-03     144.802E-03
            1061            1848     129.342E-03     132.333E-03
            1061            1854     152.721E-03     154.669E-03
            1061            1855     143.675E-03     145.282E-03
            1062            1848     129.342E-03     132.333E-03
            1062            1849     115.529E-03     118.163E-03
            1062            1855     143.675E-03     145.282E-03
            1062            1856     134.198E-03     138.212E-03
            1063            1849     115.529E-03     118.163E-03
            1063            1850     108.666E-03     109.626E-03
            1063            1856     134.198E-03     138.212E-03
            1063            1857     134.307E-03     137.269E-03
            1064             249     108.817E-03     107.576E-03
            1064             250     138.390E-03     137.982E-03
            1064            1850     108.666E-03     109.626E-03
            1064            1857     134.307E-03     137.269E-03
            1065             343     168.817E-03     168.389E-03
            1065             344     168.812E-03     168.408E-03
            1065            1851     167.785E-03     167.267E-03
            1065            1858     168.724E-03     168.412E-03
            1066            1851     167.785E-03     167.267E-03
            1066            1852     164.500E-03     164.458E-03
            1066            1858     168.724E-03     168.412E-03
            1066            1859     168.335E-03     168.368E-03
            1067            1852     164.500E-03     164.458E-03
            1067            1853     159.253E-03     160.717E-03
            1067            1859     168.335E-03     168.368E-03
            1067            1860     167.599E-03     167.676E-03
            1068            1853     159.253E-03     160.717E-03
            1068            1854     152.721E-03     154.669E-03
            1068            1860     167.599E-03     167.676E-03
            1068            1861     165.740E-03     164.530E-03
            1069            1854     152.721E-03     154.669E-03
            1069            1855     143.675E-03     145.282E-03
            1069            1861     165.740E-03     164.530E-03
            1069            1862     161.628E-03     160.498E-03
            1070            1855     143.675E-03     145.282E-03
            1070            1856     134.198E-03     138.212E-03
            1070            1862     161.628E-03     160.498E-03
            1070            1863     157.681E-03     160.824E-03
            1071            1856     134.198E-03     138.212E-03
            1071            1857     134.307E-03     137.269E-03
            1071            1863     157.681E-03     160.824E-03
            1071            1864     161.703E-03     165.299E-03
            1072             250     138.390E-03     137.982E-03
            1072             251     166.982E-03     167.938E-03
            1072            1857     134.307E-03     137.269E-03
            1072            1864     161.703E-03     165.299E-03
            1073             342     168.624E-03     167.696E-03
            1073             343     168.817E-03     168.389E-03
            1073            1858     168.724E-03     168.412E-03
            1073            1865     169.383E-03     168.899E-03
            1074            1858     168.724E-03     168.412E-03
            1074            1859     168.335E-03     168.368E-03
            1074            1865     169.383E-03     168.899E-03
            1074            1866     171.855E-03     171.752E-03
            1075            1859     168.335E-03     168.368E-03
            1075            1860     167.599E-03     167.676E-03
            1075            1866     171.855E-03     171.752E-03
            1075            1867     175.316E-03     173.881E-03
            1076            1860     167.599E-03     167.676E-03
            1076            1861     165.740E-03     164.530E-03
            1076            1867     175.316E-03     173.881E-03
            1076            1868     177.494E-03     174.597E-03
            1077            1861     165.740E-03     164.530E-03
            1077            1862     161.628E-03     160.498E-03
            1077            1868     177.494E-03     174.597E-03
            1077            1869     178.056E-03     176.308E-03
            1078            1862     161.628E-03     160.498E-03
            1078            1863     157.681E-03     160.824E-03
            1078            1869     178.056E-03     176.308E-03
            1078            1870     181.258E-03     182.127E-03
            1079            1863     157.681E-03     160.824E-03
            1079            1864     161.703E-03     165.299E-03
            1079            1870     181.258E-03     182.127E-03
            1079            1871     191.162E-03     189.912E-03
            1080             251     166.982E-03     167.938E-03
            1080             252     197.994E-03     193.352E-03
            1080            1864     161.703E-03     165.299E-03
            1080            1871     191.162E-03     189.912E-03
            1081             341     167.317E-03     168.427E-03
            1081             342     168.624E-03     167.696E-03
            1081            1865     169.383E-03     168.899E-03
            1081            1872     168.702E-03     171.253E-03
            1082            1865     169.383E-03     168.899E-03
            1082            1866     171.855E-03     171.752E-03
            1082            1872     168.702E-03     171.253E-03
            1082            1873     173.422E-03     178.408E-03
            1083            1866     171.855E-03     171.752E-03
            1083            1867     175.316E-03     173.881E-03
            1083            1873     173.422E-03     178.408E-03
            1083            1874     180.477E-03     186.731E-03
            1084            1867     175.316E-03     173.881E-03
            1084            1868     177.494E-03     174.597E-03
            1084            1874     180.477E-03     186.731E-03
            1084            1875     186.442E-03     194.357E-03
            1085            1868     177.494E-03     174.597E-03
            1085            1869     178.056E-03     176.308E-03
            1085            1875     186.442E-03     194.357E-03
            1085            1876     190.810E-03     205.467E-03
            1086            1869     178.056E-03     176.308E-03
            1086            1870     181.258E-03     182.127E-03
            1086            1876     190.810E-03     205.467E-03
            1086            1877     197.260E-03     220.403E-03
            1087            1870     181.258E-03     182.127E-03
            1087            1871     191.162E-03     189.912E-03
            1087            1877     197.260E-03     220.403E-03
            1087            1878     211.126E-03     230.139E-03
            1088             252     197.994E-03     193.352E-03
            1088             253     220.665E-03     232.417E-03
            1088            1871     191.162E-03     189.912E-03
            1088            1878     211.126E-03     230.139E-03
            1089             340     169.613E-03     169.067E-03
            1089             341     167.317E-03     168.427E-03
            1089            1872     168.702E-03     171.253E-03
            1089            1879     173.418E-03     172.064E-03
            1090            1872     168.702E-03     171.253E-03
            1090            1873     173.422E-03     178.408E-03
            1090            1879     173.418E-03     172.064E-03
            1090            1880     184.009E-03     179.486E-03
            1091            1873     173.422E-03     178.408E-03
            1091            1874     180.477E-03     186.731E-03
            1091            1880     184.009E-03     179.486E-03
            1091            1881     200.078E-03     188.778E-03
            1092            1874     180.477E-03     186.731E-03
            1092            1875     186.442E-03     194.357E-03
            1092            1881     200.078E-03     188.778E-03
            1092            1882     217.874E-03     198.373E-03
            1093            1875     186.442E-03     194.357E-03
            1093            1876     190.810E-03     205.467E-03
            1093            1882     217.874E-03     198.373E-03
            1093            1883     234.125E-03     209.726E-03
            1094            1876     190.810E-03     205.467E-03
            1094            1877     197.260E-03     220.403E-03
            1094            1883     234.125E-03     209.726E-03
            1094            1884     251.817E-03     229.635E-03
            1095            1877     197.260E-03     220.403E-03
            1095            1878     211.126E-03     230.139E-03
            1095            1884     251.817E-03     229.635E-03
            1095            1885     267.105E-03     249.943E-03
            1096             253     220.665E-03     232.417E-03
            1096             254     272.440E-03     256.964E-03
            1096            1878     211.126E-03     230.139E-03
            1096            1885     267.105E-03     249.943E-03
            1097             339     169.180E-03     164.108E-03
            1097             340     169.613E-03     169.067E-03
            1097            1879     173.418E-03     172.064E-03
            1097            1886     172.786E-03     167.963E-03
            1098            1879     173.418E-03     172.064E-03
            1098            1880     184.009E-03     179.486E-03
            1098            1886     172.786E-03     167.963E-03
            1098            1887     183.258E-03     178.443E-03
            1099            1880     184.009E-03     179.486E-03
            1099            1881     200.078E-03     188.778E-03
            1099            1887     183.258E-03     178.443E-03
            1099            1888     198.366E-03     192.704E-03
            1100            1881     200.078E-03     188.778E-03
            1100            1882     217.874E-03     198.373E-03
            1100            1888     198.366E-03     192.704E-03
            1100            1889     216.719E-03     210.414E-03
            1101            1882     217.874E-03     198.373E-03
            1101            1883     234.125E-03     209.726E-03
            1101            1889     216.719E-03     210.414E-03
            1101            1890     234.720E-03     230.476E-03
            1102            1883     234.125E-03     209.726E-03
            1102            1884     251.817E-03     229.635E-03
            1102            1890     234.720E-03     230.476E-03
            1102            1891     254.893E-03     254.564E-03
            1103            1884     251.817E-03     229.635E-03
            1103            1885     267.105E-03     249.943E-03
            1103            1891     254.893E-03     254.564E-03
            1103            1892     287.467E-03     284.877E-03
            1104             254     272.440E-03     256.964E-03
            1104             255     307.756E-03     301.088E-03
            1104            1885     267.105E-03     249.943E-03
            1104            1892     287.467E-03     284.877E-03
            1105             338     168.942E-03     168.144E-03
            1105             339     169.180E-03     164.108E-03
            1105            1886     172.786E-03     167.963E-03
            1105            1893     170.364E-03     171.747E-03
            1106            1886     172.786E-03     167.963E-03
            1106            1887     183.258E-03     178.443E-03
            1106            1893     170.364E-03     171.747E-03
            1106            1894     174.857E-03     182.131E-03
            1107            1887     183.258E-03     178.443E-03
            1107            1888     198.366E-03     192.704E-03
            1107            1894     174.857E-03     182.131E-03
            1107            1895     182.205E-03     199.224E-03
            1108            1888     198.366E-03     192.704E-03
            1108            1889     216.719E-03     210.414E-03
            1108            1895     182.205E-03     199.224E-03
            1108            1896     192.686E-03     224.673E-03
            1109            1889     216.719E-03     210.414E-03
            1109            1890     234.720E-03     230.476E-03
            1109            1896     192.686E-03     224.673E-03
            1109            1897     204.836E-03     258.167E-03
            1110            1890     234.720E-03     230.476E-03
            1110            1891     254.893E-03     254.564E-03
            1110            1897     204.836E-03     258.167E-03
            1110            1898     218.505E-03     284.736E-03
            1111            1891     254.893E-03     254.564E-03
            1111            1892     287.467E-03     284.877E-03
            1111            1898     218.505E-03     284.736E-03
            1111            1899     241.304E-03     290.122E-03
            1112             255     307.756E-03     301.088E-03
            1112             256     256.381E-03     287.298E-03
            1112            1892     287.467E-03     284.877E-03
            1112            1899     241.304E-03     290.122E-03
            1113             337     172.007E-03     173.091E-03
            1113             338     168.942E-03     168.144E-03
            1113            1893     170.364E-03     171.747E-03
            1113            1900     175.292E-03     175.195E-03
            1114            1893     170.364E-03     171.747E-03
            1114            1894     174.857E-03     182.131E-03
            1114            1900     175.292E-03     175.195E-03
            1114            1901     184.712E-03     181.869E-03
            1115            1894     174.857E-03     182.131E-03
            1115            1895     182.205E-03     199.224E-03
            1115            1901     184.712E-03     181.869E-03
            1115            1902     199.699E-03     194.979E-03
            1116            1895     182.205E-03     199.224E-03
            1116            1896     192.686E-03     224.673E-03
            1116            1902     199.699E-03     194.979E-03
            1116            1903     220.131E-03     216.333E-03
            1117            1896     192.686E-03     224.673E-03
            1117            1897     204.836E-03     258.167E-03
            1117            1903     220.131E-03     216.333E-03
            1117            1904     243.175E-03     242.033E-03
            1118            1897     204.836E-03     258.167E-03
            1118            1898     218.505E-03     284.736E-03
            1118            1904     243.175E-03     242.033E-03
            1118            1905     259.929E-03     258.560E-03
            1119            1898     218.505E-03     284.736E-03
            1119            1899     241.304E-03     290.122E-03
            1119            1905     259.929E-03     258.560E-03
            1119            1906     253.779E-03     243.815E-03
            1120             256     256.381E-03     287.298E-03
            1120             257     242.336E-03     225.426E-03
            1120            1899     241.304E-03     290.122E-03
            1120            1906     253.779E-03     243.815E-03
            1121             336     173.045E-03     170.415E-03
            1121             337     172.007E-03     173.091E-03
            1121            1900     175.292E-03     175.195E-03
            1121            1907     178.161E-03     174.895E-03
            1122            1900     175.292E-03     175.195E-03
            1122            1901     184.712E-03     181.869E-03
            1122            1907     178.161E-03     174.895E-03
            1122            1908     192.117E-03     187.892E-03
            1123            1901     184.712E-03     181.869E-03
            1123            1902     199.699E-03     194.979E-03
            1123            1908     192.117E-03     187.892E-03
            1123            1909     212.879E-03     208.448E-03
            1124            1902     199.699E-03     194.979E-03
            1124            1903     220.131E-03     216.333E-03
            1124            1909     212.879E-03     208.448E-03
            1124            1910     238.344E-03     233.644E-03
            1125            1903     220.131E-03     216.333E-03
            1125            1904     243.175E-03     242.033E-03
            1125            1910     238.344E-03     233.644E-03
            1125            1911     262.720E-03     254.975E-03
            1126            1904     243.175E-03     242.033E-03
            1126            1905     259.929E-03     258.560E-03
            1126            1911     262.720E-03     254.975E-03
            1126            1912     274.896E-03     266.770E-03
            1127            1905     259.929E-03     258.560E-03
            1127            1906     253.779E-03     243.815E-03
            1127            1912     274.896E-03     266.770E-03
            1127            1913     272.295E-03     262.729E-03
            1128             257     242.336E-03     225.426E-03
            1128             258     268.350E-03     255.069E-03
            1128            1906     253.779E-03     243.815E-03
            1128            1913     272.295E-03     262.729E-03
            1129             335     174.052E-03     171.811E-03
            1129             336     173.045E-03     170.415E-03
            1129            1907     178.161E-03     174.895E-03
            1129            1914     179.958E-03     178.419E-03
            1130            1907     178.161E-03     174.895E-03
            1130            1908     192.117E-03     187.892E-03
            1130            1914     179.958E-03     178.419E-03
            1130            1915     195.915E-03     196.995E-03
            1131            1908     192.117E-03     187.892E-03
            1131            1909     212.879E-03     208.448E-03
            1131            1915     195.915E-03     196.995E-03
            1131            1916     217.986E-03     223.888E-03
            1132            1909     212.879E-03     208.448E-03
            1132            1910     238.344E-03     233.644E-03
            1132            1916     217.986E-03     223.888E-03
            1132            1917     241.826E-03     251.912E-03
            1133            1910     238.344E-03     233.644E-03
            1133            1911     262.720E-03     254.975E-03
            1133            1917     241.826E-03     251.912E-03
            1133            1918     259.777E-03     273.543E-03
            1134            1911     262.720E-03     254.975E-03
            1134            1912     274.896E-03     266.770E-03
            1134            1918     259.777E-03     273.543E-03
            1134            1919     268.655E-03     288.523E-03
            1135            1912     274.896E-03     266.770E-03
            1135            1913     272.295E-03     262.729E-03
            1135            1919     268.655E-03     288.523E-03
            1135            1920     280.016E-03     293.346E-03
            1136             258     268.350E-03     255.069E-03
            1136             259     288.626E-03     291.721E-03
            1136            1913     272.295E-03     262.729E-03
            1136            1920     280.016E-03     293.346E-03
            1137             334     173.206E-03     171.997E-03
            1137             335     174.052E-03     171.811E-03
            1137            1914     179.958E-03     178.419E-03
            1137            1921     181.421E-03     180.241E-03
            1138            1914     179.958E-03     178.419E-03
            1138            1915     195.915E-03     196.995E-03
            1138            1921     181.421E-03     180.241E-03
            1138            1922     202.918E-03     202.313E-03
            1139            1915     195.915E-03     196.995E-03
            1139            1916     217.986E-03     223.888E-03
            1139            1922     202.918E-03     202.313E-03
            1139            1923     231.418E-03     231.283E-03
            1140            1916     217.986E-03     223.888E-03
            1140            1917     241.826E-03     251.912E-03
            1140            1923     231.418E-03     231.283E-03
            1140            1924     258.950E-03     257.929E-03
            1141            1917     241.826E-03     251.912E-03
            1141            1918     259.777E-03     273.543E-03
            1141            1924     258.950E-03     257.929E-03
            1141            1925     279.243E-03     278.785E-03
            1142            1918     259.777E-03     273.543E-03
            1142            1919     268.655E-03     288.523E-03
            1142            1925     279.243E-03     278.785E-03
            1142            1926     294.226E-03     298.628E-03
            1143            1919     268.655E-03     288.523E-03
            1143            1920     280.016E-03     293.346E-03
            1143            1926     294.226E-03     298.628E-03
            1143            1927     310.599E-03     313.288E-03
            1144             259     288.626E-03     291.721E-03
            1144             260     319.967E-03     317.456E-03
            1144            1920     280.016E-03     293.346E-03
            1144            1927     310.599E-03     313.288E-03
            1145             333     172.552E-03     171.975E-03
            1145             334     173.206E-03     171.997E-03
            1145            1921     181.421E-03     180.241E-03
            1145            1928     182.548E-03     182.735E-03
            1146            1921     181.421E-03     180.241E-03
            1146            1922     202.918E-03     202.313E-03
            1146            1928     182.548E-03     182.735E-03
            1146            1929     208.664E-03     210.282E-03
            1147            1922     202.918E-03     202.313E-03
            1147            1923     231.418E-03     231.283E-03
            1147            1929     208.664E-03     210.282E-03
            1147            1930     241.816E-03     243.360E-03
            1148            1923     231.418E-03     231.283E-03
            1148            1924     258.950E-03     257.929E-03
            1148            1930     241.816E-03     243.360E-03
            1148            1931     272.209E-03     272.905E-03
            1149            1924     258.950E-03     257.929E-03
            1149            1925     279.243E-03     278.785E-03
            1149            1931     272.209E-03     272.905E-03
            1149            1932     294.234E-03     299.349E-03
            1150            1925     279.243E-03     278.785E-03
            1150            1926     294.226E-03     298.628E-03
            1150            1932     294.234E-03     299.349E-03
            1150            1933     311.946E-03     325.505E-03
            1151            1926     294.226E-03     298.628E-03
            1151            1927     310.599E-03     313.288E-03
            1151            1933     311.946E-03     325.505E-03
            1151            1934     334.293E-03     342.803E-03
            1152             260     319.967E-03     317.456E-03
            1152             261     347.591E-03     347.137E-03
            1152            1927     310.599E-03     313.288E-03
            1152            1934     334.293E-03     342.803E-03
            1153             332     172.077E-03     172.278E-03
            1153             333     172.552E-03     171.975E-03
            1153            1928     182.548E-03     182.735E-03
            1153            1935     184.295E-03     185.297E-03
            1154            1928     182.548E-03     182.735E-03
            1154            1929     208.664E-03     210.282E-03
            1154            1935     184.295E-03     185.297E-03
            1154            1936     215.786E-03     216.843E-03
            1155            1929     208.664E-03     210.282E-03
            1155            1930     241.816E-03     243.360E-03
            1155            1936     215.786E-03     216.843E-03
            1155            1937     254.692E-03     253.106E-03
            1156            1930     241.816E-03     243.360E-03
            1156            1931     272.209E-03     272.905E-03
            1156            1937     254.692E-03     253.106E-03
            1156            1938     289.331E-03     286.063E-03
            1157            1931     272.209E-03     272.905E-03
            1157            1932     294.234E-03     299.349E-03
            1157            1938     289.331E-03     286.063E-03
            1157            1939     315.937E-03     317.335E-03
            1158            1932     294.234E-03     299.349E-03
            1158            1933     311.946E-03     325.505E-03
            1158            1939     315.937E-03     317.335E-03
            1158            1940     338.150E-03     348.792E-03
            1159            1933     311.946E-03     325.505E-03
            1159            1934     334.293E-03     342.803E-03
            1159            1940     338.150E-03     348.792E-03
            1159            1941     361.474E-03     370.301E-03
            1160             261     347.591E-03     347.137E-03
            1160             262     374.184E-03     376.405E-03
            1160            1934     334.293E-03     342.803E-03
            1160            1941     361.474E-03     370.301E-03
            1161             331     171.460E-03     171.288E-03
            1161             332     172.077E-03     172.278E-03
            1161            1935     184.295E-03     185.297E-03
            1161            1942     185.417E-03     185.926E-03
            1162            1935     184.295E-03     185.297E-03
            1162            1936     215.786E-03     216.843E-03
            1162            1942     185.417E-03     185.926E-03
            1162            1943     221.368E-03     221.254E-03
            1163            1936     215.786E-03     216.843E-03
            1163            1937     254.692E-03     253.106E-03
            1163            1943     221.368E-03     221.254E-03
            1163            1944     265.531E-03     261.242E-03
            1164            1937     254.692E-03     253.106E-03
            1164            1938     289.331E-03     286.063E-03
            1164            1944     265.531E-03     261.242E-03
            1164            1945     305.166E-03     298.431E-03
            1165            1938     289.331E-03     286.063E-03
            1165            1939     315.937E-03     317.335E-03
            1165            1945     305.166E-03     298.431E-03
            1165            1946     336.501E-03     334.244E-03
            1166            1939     315.937E-03     317.335E-03
            1166            1940     338.150E-03     348.792E-03
            1166            1946     336.501E-03     334.244E-03
            1166            1947     364.699E-03     368.727E-03
            1167            1940     338.150E-03     348.792E-03
            1167            1941     361.474E-03     370.301E-03
            1167            1947     364.699E-03     368.727E-03
            1167            1948     392.569E-03     391.911E-03
            1168             262     374.184E-03     376.405E-03
            1168             263     406.108E-03     398.534E-03
            1168            1941     361.474E-03     370.301E-03
            1168            1948     392.569E-03     391.911E-03
            1169             330     169.098E-03     172.739E-03
            1169             331     171.460E-03     171.288E-03
            1169            1942     185.417E-03     185.926E-03
            1169            1949     183.761E-03     190.141E-03
            1170            1942     185.417E-03     185.926E-03
            1170            1943     221.368E-03     221.254E-03
            1170            1949     183.761E-03     190.141E-03
            1170            1950     221.796E-03     232.441E-03
            1171            1943     221.368E-03     221.254E-03
            1171            1944     265.531E-03     261.242E-03
            1171            1950     221.796E-03     232.441E-03
            1171            1951     269.630E-03     282.411E-03
            1172            1944     265.531E-03     261.242E-03
            1172            1945     305.166E-03     298.431E-03
            1172            1951     269.630E-03     282.411E-03
            1172            1952     313.787E-03     329.704E-03
            1173            1945     305.166E-03     298.431E-03
            1173            1946     336.501E-03     334.244E-03
            1173            1952     313.787E-03     329.704E-03
            1173            1953     348.412E-03     375.698E-03
            1174            1946     336.501E-03     334.244E-03
            1174            1947     364.699E-03     368.727E-03
            1174            1953     348.412E-03     375.698E-03
            1174            1954     376.634E-03     418.035E-03
            1175            1947     364.699E-03     368.727E-03
            1175            1948     392.569E-03     391.911E-03
            1175            1954     376.634E-03     418.035E-03
            1175            1955     407.269E-03     439.588E-03
            1176             263     406.108E-03     398.534E-03
            1176             264     424.611E-03     442.579E-03
            1176            1948     392.569E-03     391.911E-03
            1176            1955     407.269E-03     439.588E-03
            1177             329     173.188E-03     173.656E-03
            1177             330     169.098E-03     172.739E-03
            1177            1949     183.761E-03     190.141E-03
            1177            1956     192.356E-03     190.114E-03
            1178            1949     183.761E-03     190.141E-03
            1178            1950     221.796E-03     232.441E-03
            1178            1956     192.356E-03     190.114E-03
            1178            1957     240.260E-03     230.509E-03
            1179            1950     221.796E-03     232.441E-03
            1179            1951     269.630E-03     282.411E-03
            1179            1957     240.260E-03     230.509E-03
            1179            1958     301.240E-03     280.050E-03
            1180            1951     269.630E-03     282.411E-03
            1180            1952     313.787E-03     329.704E-03
            1180            1958     301.240E-03     280.050E-03
            1180            1959     362.446E-03     329.448E-03
            1181            1952     313.787E-03     329.704E-03
            1181            1953     348.412E-03     375.698E-03
            1181            1959     362.446E-03     329.448E-03
            1181            1960     414.193E-03     374.003E-03
            1182            1953     348.412E-03     375.698E-03
            1182            1954     376.634E-03     418.035E-03
            1182            1960     414.193E-03     374.003E-03
            1182            1961     455.564E-03     420.208E-03
            1183            1954     376.634E-03     418.035E-03
            1183            1955     407.269E-03     439.588E-03
            1183            1961     455.564E-03     420.208E-03
            1183            1962     481.339E-03     453.560E-03
            1184             264     424.611E-03     442.579E-03
            1184             265     488.526E-03     461.466E-03
            1184            1955     407.269E-03     439.588E-03
            1184            1962     481.339E-03     453.560E-03
            1185             328     172.701E-03     165.343E-03
            1185             329     173.188E-03     173.656E-03
            1185            1956     192.356E-03     190.114E-03
            1185            1963     190.273E-03     182.783E-03
            1186            1956     192.356E-03     190.114E-03
            1186            1957     240.260E-03     230.509E-03
            1186            1963     190.273E-03     182.783E-03
            1186            1964     235.361E-03     226.721E-03
            1187            1957     240.260E-03     230.509E-03
            1187            1958     301.240E-03     280.050E-03
            1187            1964     235.361E-03     226.721E-03
            1187            1965     292.652E-03     281.967E-03
            1188            1958     301.240E-03     280.050E-03
            1188            1959     362.446E-03     329.448E-03
            1188            1965     292.652E-03     281.967E-03
            1188            1966     352.929E-03     341.606E-03
            1189            1959     362.446E-03     329.448E-03
            1189            1960     414.193E-03     374.003E-03
            1189            1966     352.929E-03     341.606E-03
            1189            1967     406.907E-03     399.001E-03
            1190            1960     414.193E-03     374.003E-03
            1190            1961     455.564E-03     420.208E-03
            1190            1967     406.907E-03     399.001E-03
            1190            1968     452.800E-03     450.570E-03
            1191            1961     455.564E-03     420.208E-03
            1191            1962     481.339E-03     453.560E-03
            1191            1968     452.800E-03     450.570E-03
            1191            1969     500.757E-03     493.058E-03
            1192             265     488.526E-03     461.466E-03
            1192             266     526.294E-03     510.481E-03
            1192            1962     481.339E-03     453.560E-03
            1192            1969     500.757E-03     493.058E-03
            1193             327     171.984E-03     172.443E-03
            1193             328     172.701E-03     165.343E-03
            1193            1963     190.273E-03     182.783E-03
            1193            1970     183.731E-03     189.903E-03
            1194            1963     190.273E-03     182.783E-03
            1194            1964     235.361E-03     226.721E-03
            1194            1970     183.731E-03     189.903E-03
            1194            1971     214.699E-03     234.625E-03
            1195            1964     235.361E-03     226.721E-03
            1195            1965     292.652E-03     281.967E-03
            1195            1971     214.699E-03     234.625E-03
            1195            1972     256.837E-03     295.412E-03
            1196            1965     292.652E-03     281.967E-03
            1196            1966     352.929E-03     341.606E-03
            1196            1972     256.837E-03     295.412E-03
            1196            1973     302.831E-03     366.935E-03
            1197            1966     352.929E-03     341.606E-03
            1197            1967     406.907E-03     399.001E-03
            1197            1973     302.831E-03     366.935E-03
            1197            1974     345.874E-03     444.863E-03
            1198            1967     406.907E-03     399.001E-03
            1198            1968     452.800E-03     450.570E-03
            1198            1974     345.874E-03     444.863E-03
            1198            1975     382.915E-03     502.254E-03
            1199            1968     452.800E-03     450.570E-03
            1199            1969     500.757E-03     493.058E-03
            1199            1975     382.915E-03     502.254E-03
            1199            1976     429.069E-03     516.853E-03
            1200             266     526.294E-03     510.481E-03
            1200             267     458.148E-03     513.991E-03
            1200            1969     500.757E-03     493.058E-03
            1200            1976     429.069E-03     516.853E-03
            1201             326     176.964E-03     179.945E-03
            1201             327     171.984E-03     172.443E-03
            1201            1970     183.731E-03     189.903E-03
            1201            1977     193.568E-03     193.891E-03
            1202            1970     183.731E-03     189.903E-03
            1202            1971     214.699E-03     234.625E-03
            1202            1977     193.568E-03     193.891E-03
            1202            1978     236.257E-03     230.932E-03
            1203            1971     214.699E-03     234.625E-03
            1203            1972     256.837E-03     295.412E-03
            1203            1978     236.257E-03     230.932E-03
            1203            1979     292.634E-03     283.400E-03
            1204            1972     256.837E-03     295.412E-03
            1204            1973     302.831E-03     366.935E-03
            1204            1979     292.634E-03     283.400E-03
            1204            1980     354.606E-03     345.939E-03
            1205            1973     302.831E-03     366.935E-03
            1205            1974     345.874E-03     444.863E-03
            1205            1980     354.606E-03     345.939E-03
            1205            1981     413.061E-03     408.359E-03
            1206            1974     345.874E-03     444.863E-03
            1206            1975     382.915E-03     502.254E-03
            1206            1981     413.061E-03     408.359E-03
            1206            1982     455.040E-03     452.068E-03
            1207            1975     382.915E-03     502.254E-03
            1207            1976     429.069E-03     516.853E-03
            1207            1982     455.040E-03     452.068E-03
            1207            1983     464.398E-03     449.448E-03
            1208             267     458.148E-03     513.991E-03
            1208             268     458.549E-03     432.375E-03
            1208            1976     429.069E-03     516.853E-03
            1208            1983     464.398E-03     449.448E-03
            1209             325     178.690E-03     174.771E-03
            1209             326     176.964E-03     179.945E-03
            1209            1977     193.568E-03     193.891E-03
            1209            1984     199.094E-03     193.478E-03
            1210            1977     193.568E-03     193.891E-03
            1210            1978     236.257E-03     230.932E-03
            1210            1984     199.094E-03     193.478E-03
            1210            1985     250.065E-03     241.012E-03
            1211            1978     236.257E-03     230.932E-03
            1211            1979     292.634E-03     283.400E-03
            1211            1985     250.065E-03     241.012E-03
            1211            1986     315.110E-03     302.495E-03
            1212            1979     292.634E-03     283.400E-03
            1212            1980     354.606E-03     345.939E-03
            1212            1986     315.110E-03     302.495E-03
            1212            1987     383.060E-03     366.315E-03
            1213            1980     354.606E-03     345.939E-03
            1213            1981     413.061E-03     408.359E-03
            1213            1987     383.060E-03     366.315E-03
            1213            1988     441.386E-03     418.542E-03
            1214            1981     413.061E-03     408.359E-03
            1214            1982     455.040E-03     452.068E-03
            1214            1988     441.386E-03     418.542E-03
            1214            1989     475.663E-03     454.735E-03
            1215            1982     455.040E-03     452.068E-03
            1215            1983     464.398E-03     449.448E-03
            1215            1989     475.663E-03     454.735E-03
            1215            1990     483.393E-03     463.268E-03
            1216             268     458.549E-03     432.375E-03
            1216             269     481.701E-03     456.671E-03
            1216            1983     464.398E-03     449.448E-03
            1216            1990     483.393E-03     463.268E-03
            1217             324     180.542E-03     177.451E-03
            1217             325     178.690E-03     174.771E-03
            1217            1984     199.094E-03     193.478E-03
            1217            1991     200.893E-03     200.202E-03
            1218            1984     199.094E-03     193.478E-03
            1218            1985     250.065E-03     241.012E-03
            1218            1991     200.893E-03     200.202E-03
            1218            1992     251.498E-03     256.612E-03
            1219            1985     250.065E-03     241.012E-03
            1219            1986     315.110E-03     302.495E-03
            1219            1992     251.498E-03     256.612E-03
            1219            1993     313.825E-03     326.073E-03
            1220            1986     315.110E-03     302.495E-03
            1220            1987     383.060E-03     366.315E-03
            1220            1993     313.825E-03     326.073E-03
            1220            1994     373.890E-03     391.655E-03
            1221            1987     383.060E-03     366.315E-03
            1221            1988     441.386E-03     418.542E-03
            1221            1994     373.890E-03     391.655E-03
            1221            1995     418.724E-03     444.026E-03
            1222            1988     441.386E-03     418.542E-03
            1222            1989     475.663E-03     454.735E-03
            1222            1995     418.724E-03     444.026E-03
            1222            1996     445.781E-03     483.309E-03
            1223            1989     475.663E-03     454.735E-03
            1223            1990     483.393E-03     463.268E-03
            1223            1996     445.781E-03     483.309E-03
            1223            1997     472.716E-03     499.161E-03
            1224             269     481.701E-03     456.671E-03
            1224             270     489.435E-03     498.323E-03
            1224            1990     483.393E-03     463.268E-03
            1224            1997     472.716E-03     499.161E-03
            1225             323     179.173E-03     177.932E-03
            1225             324     180.542E-03     177.451E-03
            1225            1991     200.893E-03     200.202E-03
            1225            1998     203.506E-03     202.455E-03
            1226            1991     200.893E-03     200.202E-03
            1226            1992     251.498E-03     256.612E-03
            1226            1998     203.506E-03     202.455E-03
            1226            1999     262.411E-03     261.801E-03
            1227            1992     251.498E-03     256.612E-03
            1227            1993     313.825E-03     326.073E-03
            1227            1999     262.411E-03     261.801E-03
            1227            2000     332.048E-03     330.425E-03
            1228            1993     313.825E-03     326.073E-03
            1228            1994     373.890E-03     391.655E-03
            1228            2000     332.048E-03     330.425E-03
            1228            2001     394.516E-03     390.807E-03
            1229            1994     373.890E-03     391.655E-03
            1229            1995     418.724E-03     444.026E-03
            1229            2001     394.516E-03     390.807E-03
            1229            2002     440.827E-03     439.685E-03
            1230            1995     418.724E-03     444.026E-03
            1230            1996     445.781E-03     483.309E-03
            1230            2002     440.827E-03     439.685E-03
            1230            2003     475.827E-03     482.985E-03
            1231            1996     445.781E-03     483.309E-03
            1231            1997     472.716E-03     499.161E-03
            1231            2003     475.827E-03     482.985E-03
            1231            2004     508.055E-03     511.409E-03
            1232             270     489.435E-03     498.323E-03
            1232             271     524.190E-03     518.832E-03
            1232            1997     472.716E-03     499.161E-03
            1232            2004     508.055E-03     511.409E-03
            1233             322     178.228E-03     177.872E-03
            1233             323     179.173E-03     177.932E-03
            1233            1998     203.506E-03     202.455E-03
            1233            2005     205.106E-03     206.223E-03
            1234            1998     203.506E-03     202.455E-03
            1234            1999     262.411E-03     261.801E-03
            1234            2005     205.106E-03     206.223E-03
            1234            2006     269.734E-03     272.530E-03
            1235            1999     262.411E-03     261.801E-03
            1235            2000     332.048E-03     330.425E-03
            1235            2006     269.734E-03     272.530E-03
            1235            2007     343.752E-03     344.924E-03
            1236            2000     332.048E-03     330.425E-03
            1236            2001     394.516E-03     390.807E-03
            1236            2007     343.752E-03     344.924E-03
            1236            2008     407.734E-03     407.454E-03
            1237            2001     394.516E-03     390.807E-03
            1237            2002     440.827E-03     439.685E-03
            1237            2008     407.734E-03     407.454E-03
            1237            2009     454.673E-03     462.093E-03
            1238            2002     440.827E-03     439.685E-03
            1238            2003     475.827E-03     482.985E-03
            1238            2009     454.673E-03     462.093E-03
            1238            2010     491.451E-03     512.294E-03
            1239            2003     475.827E-03     482.985E-03
            1239            2004     508.055E-03     511.409E-03
            1239            2010     491.451E-03     512.294E-03
            1239            2011     529.795E-03     543.288E-03
            1240             271     524.190E-03     518.832E-03
            1240             272     550.587E-03     550.629E-03
            1240            2004     508.055E-03     511.409E-03
            1240            2011     529.795E-03     543.288E-03
            1241             321     177.507E-03     178.330E-03
            1241             322     178.228E-03     177.872E-03
            1241            2005     205.106E-03     206.223E-03
            1241            2012     207.312E-03     209.571E-03
            1242            2005     205.106E-03     206.223E-03
            1242            2006     269.734E-03     272.530E-03
            1242            2012     207.312E-03     209.571E-03
            1242            2013     278.192E-03     280.417E-03
            1243            2006     269.734E-03     272.530E-03
            1243            2007     343.752E-03     344.924E-03
            1243            2013     278.192E-03     280.417E-03
            1243            2014     357.942E-03     355.729E-03
            1244            2007     343.752E-03     344.924E-03
            1244            2008     407.734E-03     407.454E-03
            1244            2014     357.942E-03     355.729E-03
            1244            2015     425.744E-03     421.329E-03
            1245            2008     407.734E-03     407.454E-03
            1245            2009     454.673E-03     462.093E-03
            1245            2015     425.744E-03     421.329E-03
            1245            2016     476.877E-03     480.488E-03
            1246            2009     454.673E-03     462.093E-03
            1246            2010     491.451E-03     512.294E-03
            1246            2016     476.877E-03     480.488E-03
            1246            2017     517.848E-03     535.732E-03
            1247            2010     491.451E-03     512.294E-03
            1247            2011     529.795E-03     543.288E-03
            1247            2017     517.848E-03     535.732E-03
            1247            2018     557.010E-03     570.820E-03
            1248             272     550.587E-03     550.629E-03
            1248             273     577.208E-03     579.928E-03
            1248            2011     529.795E-03     543.288E-03
            1248            2018     557.010E-03     570.820E-03
            1249             320     176.528E-03     176.859E-03
            1249             321     177.507E-03     178.330E-03
            1249            2012     207.312E-03     209.571E-03
            1249            2019     208.515E-03     209.747E-03
            1250            2012     207.312E-03     209.571E-03
            1250            2013     278.192E-03     280.417E-03
            1250            2019     208.515E-03     209.747E-03
            1250            2020     284.366E-03     284.475E-03
            1251            2013     278.192E-03     280.417E-03
            1251            2014     357.942E-03     355.729E-03
            1251            2020     284.366E-03     284.475E-03
            1251            2021     369.726E-03     363.633E-03
            1252            2014     357.942E-03     355.729E-03
            1252            2015     425.744E-03     421.329E-03
            1252            2021     369.726E-03     363.633E-03
            1252            2022     443.172E-03     433.490E-03
            1253            2015     425.744E-03     421.329E-03
            1253            2016     476.877E-03     480.488E-03
            1253            2022     443.172E-03     433.490E-03
            1253            2023     499.443E-03     496.432E-03
            1254            2016     476.877E-03     480.488E-03
            1254            2017     517.848E-03     535.732E-03
            1254            2023     499.443E-03     496.432E-03
            1254            2024     546.829E-03     553.563E-03
            1255            2017     517.848E-03     535.732E-03
            1255            2018     557.010E-03     570.820E-03
            1255            2024     546.829E-03     553.563E-03
            1255            2025     590.150E-03     590.138E-03
            1256             273     577.208E-03     579.928E-03
            1256             274     610.408E-03     599.984E-03
            1256            2018     557.010E-03     570.820E-03
            1256            2025     590.150E-03     590.138E-03
            1257             319     173.012E-03     178.852E-03
            1257             320     176.528E-03     176.859E-03
            1257            2019     208.515E-03     209.747E-03
            1257            2026     205.356E-03     215.438E-03
            1258            2019     208.515E-03     209.747E-03
            1258            2020     284.366E-03     284.475E-03
            1258            2026     205.356E-03     215.438E-03
            1258            2027     282.457E-03     298.857E-03
            1259            2020     284.366E-03     284.475E-03
            1259            2021     369.726E-03     363.633E-03
            1259            2027     282.457E-03     298.857E-03
            1259            2028     371.093E-03     390.546E-03
            1260            2021     369.726E-03     363.633E-03
            1260            2022     443.172E-03     433.490E-03
            1260            2028     371.093E-03     390.546E-03
            1260            2029     449.777E-03     473.346E-03
            1261            2022     443.172E-03     433.490E-03
            1261            2023     499.443E-03     496.432E-03
            1261            2029     449.777E-03     473.346E-03
            1261            2030     509.512E-03     548.426E-03
            1262            2023     499.443E-03     496.432E-03
            1262            2024     546.829E-03     553.563E-03
            1262            2030     509.512E-03     548.426E-03
            1262            2031     554.686E-03     613.740E-03
            1263            2024     546.829E-03     553.563E-03
            1263            2025     590.150E-03     590.138E-03
            1263            2031     554.686E-03     613.740E-03
            1263            2032     600.213E-03     645.608E-03
            1264             274     610.408E-03     599.984E-03
            1264             275     625.493E-03     649.297E-03
            1264            2025     590.150E-03     590.138E-03
            1264            2032     600.213E-03     645.608E-03
            1265             318     178.855E-03     179.688E-03
            1265             319     173.012E-03     178.852E-03
            1265            2026     205.356E-03     215.438E-03
            1265            2033     217.421E-03     213.755E-03
            1266            2026     205.356E-03     215.438E-03
            1266            2027     282.457E-03     298.857E-03
            1266            2033     217.421E-03     213.755E-03
            1266            2034     307.293E-03     292.542E-03
            1267            2027     282.457E-03     298.857E-03
            1267            2028     371.093E-03     390.546E-03
            1267            2034     307.293E-03     292.542E-03
            1267            2035     412.196E-03     382.184E-03
            1268            2028     371.093E-03     390.546E-03
            1268            2029     449.777E-03     473.346E-03
            1268            2035     412.196E-03     382.184E-03
            1268            2036     512.954E-03     467.478E-03
            1269            2029     449.777E-03     473.346E-03
            1269            2030     509.512E-03     548.426E-03
            1269            2036     512.954E-03     467.478E-03
            1269            2037     595.859E-03     540.575E-03
            1270            2030     509.512E-03     548.426E-03
            1270            2031     554.686E-03     613.740E-03
            1270            2037     595.859E-03     540.575E-03
            1270            2038     657.706E-03     609.558E-03
            1271            2031     554.686E-03     613.740E-03
            1271            2032     600.213E-03     645.608E-03
            1271            2038     657.706E-03     609.558E-03
            1271            2039     692.860E-03     654.519E-03
            1272             275     625.493E-03     649.297E-03
            1272             276     701.912E-03     663.224E-03
            1272            2032     600.213E-03     645.608E-03
            1272            2039     692.860E-03     654.519E-03
            1273             317     177.937E-03     168.217E-03
            1273             318     178.855E-03     179.688E-03
            1273            2033     217.421E-03     213.755E-03
            1273            2040     213.140E-03     203.212E-03
            1274            2033     217.421E-03     213.755E-03
            1274            2034     307.293E-03     292.542E-03
            1274            2040     213.140E-03     203.212E-03
            1274            2041     297.174E-03     285.229E-03
            1275            2034     307.293E-03     292.542E-03
            1275            2035     412.196E-03     382.184E-03
            1275            2041     297.174E-03     285.229E-03
            1275            2042     395.879E-03     380.554E-03
            1276            2035     412.196E-03     382.184E-03
            1276            2036     512.954E-03     467.478E-03
            1276            2042     395.879E-03     380.554E-03
            1276            2043     494.492E-03     478.292E-03
            1277            2036     512.954E-03     467.478E-03
            1277            2037     595.859E-03     540.575E-03
            1277            2043     494.492E-03     478.292E-03
            1277            2044     580.538E-03     569.203E-03
            1278            2037     595.859E-03     540.575E-03
            1278            2038     657.706E-03     609.558E-03
            1278            2044     580.538E-03     569.203E-03
            1278            2045     649.621E-03     645.907E-03
            1279            2038     657.706E-03     609.558E-03
            1279            2039     692.860E-03     654.519E-03
            1279            2045     649.621E-03     645.907E-03
            1279            2046     712.068E-03     699.407E-03
            1280             276     701.912E-03     663.224E-03
            1280             277     742.740E-03     717.677E-03
            1280            2039     692.860E-03     654.519E-03
            1280            2046     712.068E-03     699.407E-03
            1281             316     176.109E-03     179.026E-03
            1281             317     177.937E-03     168.217E-03
            1281            2040     213.140E-03     203.212E-03
            1281            2047     201.867E-03     214.579E-03
            1282            2040     213.140E-03     203.212E-03
            1282            2041     297.174E-03     285.229E-03
            1282            2047     201.867E-03     214.579E-03
            1282            2048     264.820E-03     298.494E-03
            1283            2041     297.174E-03     285.229E-03
            1283            2042     395.879E-03     380.554E-03
            1283            2048     264.820E-03     298.494E-03
            1283            2049     341.792E-03     401.006E-03
            1284            2042     395.879E-03     380.554E-03
            1284            2043     494.492E-03     478.292E-03
            1284            2049     341.792E-03     401.006E-03
            1284            2050     419.368E-03     513.190E-03
            1285            2043     494.492E-03     478.292E-03
            1285            2044     580.538E-03     569.203E-03
            1285            2050     419.368E-03     513.190E-03
            1285            2051     489.108E-03     631.382E-03
            1286            2044     580.538E-03     569.203E-03
            1286            2045     649.621E-03     645.907E-03
            1286            2051     489.108E-03     631.382E-03
            1286            2052     546.676E-03     718.104E-03
            1287            2045     649.621E-03     645.907E-03
            1287            2046     712.068E-03     699.407E-03
            1287            2052     546.676E-03     718.104E-03
            1287            2053     615.347E-03     741.849E-03
            1288             277     742.740E-03     717.677E-03
            1288             278     658.394E-03     739.032E-03
            1288            2046     712.068E-03     699.407E-03
            1288            2053     615.347E-03     741.849E-03
            1289             315     182.838E-03     189.123E-03
            1289             316     176.109E-03     179.026E-03
            1289            2047     201.867E-03     214.579E-03
            1289            2054     217.900E-03     219.295E-03
            1290            2047     201.867E-03     214.579E-03
            1290            2048     264.820E-03     298.494E-03
            1290            2054     217.900E-03     219.295E-03
            1290            2055     299.936E-03     292.384E-03
            1291            2048     264.820E-03     298.494E-03
            1291            2049     341.792E-03     401.006E-03
            1291            2055     299.936E-03     292.384E-03
            1291            2056     396.366E-03     382.508E-03
            1292            2049     341.792E-03     401.006E-03
            1292            2050     419.368E-03     513.190E-03
            1292            2056     396.366E-03     382.508E-03
            1292            2057     494.591E-03     480.817E-03
            1293            2050     419.368E-03     513.190E-03
            1293            2051     489.108E-03     631.382E-03
            1293            2057     494.591E-03     480.817E-03
            1293            2058     583.319E-03     575.231E-03
            1294            2051     489.108E-03     631.382E-03
            1294            2052     546.676E-03     718.104E-03
            1294            2058     583.319E-03     575.231E-03
            1294            2059     648.432E-03     643.952E-03
            1295            2052     546.676E-03     718.104E-03
            1295            2053     615.347E-03     741.849E-03
            1295            2059     648.432E-03     643.952E-03
            1295            2060     673.201E-03     653.901E-03
            1296             278     658.394E-03     739.032E-03
            1296             279     672.814E-03     638.440E-03
            1296            2053     615.347E-03     741.849E-03
            1296            2060     673.201E-03     653.901E-03
            1297             314     185.227E-03     181.839E-03
            1297             315     182.838E-03     189.123E-03
            1297            2054     217.900E-03     219.295E-03
            1297            2061     225.900E-03     219.043E-03
            1298            2054     217.900E-03     219.295E-03
            1298            2055     299.936E-03     292.384E-03
            1298            2061     225.900E-03     219.043E-03
            1298            2062     320.102E-03     305.968E-03
            1299            2055     299.936E-03     292.384E-03
            1299            2056     396.366E-03     382.508E-03
            1299            2062     320.102E-03     305.968E-03
            1299            2063     428.233E-03     406.586E-03
            1300            2056     396.366E-03     382.508E-03
            1300            2057     494.591E-03     480.817E-03
            1300            2063     428.233E-03     406.586E-03
            1300            2064     533.955E-03     503.939E-03
            1301            2057     494.591E-03     480.817E-03
            1301            2058     583.319E-03     575.231E-03
            1301            2064     533.955E-03     503.939E-03
            1301            2065     621.958E-03     582.964E-03
            1302            2058     583.319E-03     575.231E-03
            1302            2059     648.432E-03     643.952E-03
            1302            2065     621.958E-03     582.964E-03
            1302            2066     675.290E-03     642.009E-03
            1303            2059     648.432E-03     643.952E-03
            1303            2060     673.201E-03     653.901E-03
            1303            2066     675.290E-03     642.009E-03
            1303            2067     693.222E-03     662.919E-03
            1304             279     672.814E-03     638.440E-03
            1304             280     694.704E-03     657.355E-03
            1304            2060     673.201E-03     653.901E-03
            1304            2067     693.222E-03     662.919E-03
            1305             313     187.045E-03     185.471E-03
            1305             314     185.227E-03     181.839E-03
            1305            2061     225.900E-03     219.043E-03
            1305            2068     226.290E-03     228.427E-03
            1306            2061     225.900E-03     219.043E-03
            1306            2062     320.102E-03     305.968E-03
            1306            2068     226.290E-03     228.427E-03
            1306            2069     316.860E-03     326.853E-03
            1307            2062     320.102E-03     305.968E-03
            1307            2063     428.233E-03     406.586E-03
            1307            2069     316.860E-03     326.853E-03
            1307            2070     419.547E-03     437.141E-03
            1308            2063     428.233E-03     406.586E-03
            1308            2064     533.955E-03     503.939E-03
            1308            2070     419.547E-03     437.141E-03
            1308            2071     512.538E-03     535.882E-03
            1309            2064     533.955E-03     503.939E-03
            1309            2065     621.958E-03     582.964E-03
            1309            2071     512.538E-03     535.882E-03
            1309            2072     580.561E-03     614.396E-03
            1310            2065     621.958E-03     582.964E-03
            1310            2066     675.290E-03     642.009E-03
            1310            2072     580.561E-03     614.396E-03
            1310            2073     624.299E-03     675.664E-03
            1311            2066     675.290E-03     642.009E-03
            1311            2067     693.222E-03     662.919E-03
            1311            2073     624.299E-03     675.664E-03
            1311            2074     665.569E-03     703.859E-03
            1312             280     694.704E-03     657.355E-03
            1312             281     689.498E-03     705.377E-03
            1312            2067     693.222E-03     662.919E-03
            1312            2074     665.569E-03     703.859E-03
            1313             312     184.715E-03     186.039E-03
            1313             313     187.045E-03     185.471E-03
            1313            2068     226.290E-03     228.427E-03
            1313            2075     228.656E-03     230.674E-03
            1314            2068     226.290E-03     228.427E-03
            1314            2069     316.860E-03     326.853E-03
            1314            2075     228.656E-03     230.674E-03
            1314            2076     329.479E-03     332.144E-03
            1315            2069     316.860E-03     326.853E-03
            1315            2070     419.547E-03     437.141E-03
            1315            2076     329.479E-03     332.144E-03
            1315            2077     439.933E-03     440.510E-03
            1316            2070     419.547E-03     437.141E-03
            1316            2071     512.538E-03     535.882E-03
            1316            2077     439.933E-03     440.510E-03
            1316            2078     534.994E-03     532.338E-03
            1317            2071     512.538E-03     535.882E-03
            1317            2072     580.561E-03     614.396E-03
            1317            2078     534.994E-03     532.338E-03
            1317            2079     603.124E-03     606.507E-03
            1318            2072     580.561E-03     614.396E-03
            1318            2073     624.299E-03     675.664E-03
            1318            2079     603.124E-03     606.507E-03
            1318            2080     654.072E-03     670.938E-03
            1319            2073     624.299E-03     675.664E-03
            1319            2074     665.569E-03     703.859E-03
            1319            2080     654.072E-03     670.938E-03
            1319            2081     703.997E-03     710.982E-03
            1320             281     689.498E-03     705.377E-03
            1320             282     729.613E-03     720.466E-03
            1320            2074     665.569E-03     703.859E-03
            1320            2081     703.997E-03     710.982E-03
            1321             311     184.522E-03     185.053E-03
            1321             312     184.715E-03     186.039E-03
            1321            2075     228.656E-03     230.674E-03
            1321            2082     232.029E-03     234.118E-03
            1322            2075     228.656E-03     230.674E-03
            1322            2076     329.479E-03     332.144E-03
            1322            2082     232.029E-03     234.118E-03
            1322            2083     340.211E-03     342.345E-03
            1323            2076     329.479E-03     332.144E-03
            1323            2077     439.933E-03     440.510E-03
            1323            2083     340.211E-03     342.345E-03
            1323            2084     457.700E-03     453.387E-03
            1324            2077     439.933E-03     440.510E-03
            1324            2078     534.994E-03     532.338E-03
            1324            2084     457.700E-03     453.387E-03
            1324            2085     556.210E-03     546.056E-03
            1325            2078     534.994E-03     532.338E-03
            1325            2079     603.124E-03     606.507E-03
            1325            2085     556.210E-03     546.056E-03
            1325            2086     627.826E-03     625.258E-03
            1326            2079     603.124E-03     606.507E-03
            1326            2080     654.072E-03     670.938E-03
            1326            2086     627.826E-03     625.258E-03
            1326            2087     680.916E-03     698.910E-03
            1327            2080     654.072E-03     670.938E-03
            1327            2081     703.997E-03     710.982E-03
            1327            2087     680.916E-03     698.910E-03
            1327            2088     729.029E-03     746.170E-03
            1328             282     729.613E-03     720.466E-03
            1328             283     753.970E-03     758.189E-03
            1328            2081     703.997E-03     710.982E-03
            1328            2088     729.029E-03     746.170E-03
            1329             310     183.928E-03     183.083E-03
            1329             311     184.522E-03     185.053E-03
            1329            2082     232.029E-03     234.118E-03
            1329            2089     232.947E-03     234.633E-03
            1330            2082     232.029E-03     234.118E-03
            1330            2083     340.211E-03     342.345E-03
            1330            2089     232.947E-03     234.633E-03
            1330            2090     345.106E-03     347.787E-03
            1331            2083     340.211E-03     342.345E-03
            1331            2084     457.700E-03     453.387E-03
            1331            2090     345.106E-03     347.787E-03
            1331            2091     466.421E-03     462.544E-03
            1332            2084     457.700E-03     453.387E-03
            1332            2085     556.210E-03     546.056E-03
            1332            2091     466.421E-03     462.544E-03
            1332            2092     568.561E-03     559.413E-03
            1333            2085     556.210E-03     546.056E-03
            1333            2086     627.826E-03     625.258E-03
            1333            2092     568.561E-03     559.413E-03
            1333            2093     643.289E-03     642.535E-03
            1334            2086     627.826E-03     625.258E-03
            1334            2087     680.916E-03     698.910E-03
            1334            2093     643.289E-03     642.535E-03
            1334            2094     703.703E-03     717.028E-03
            1335            2087     680.916E-03     698.910E-03
            1335            2088     729.029E-03     746.170E-03
            1335            2094     703.703E-03     717.028E-03
            1335            2095     761.538E-03     764.203E-03
            1336             283     753.970E-03     758.189E-03
            1336             284     789.720E-03     776.290E-03
            1336            2088     729.029E-03     746.170E-03
            1336            2095     761.538E-03     764.203E-03
            1337             309     179.068E-03     185.391E-03
            1337             310     183.928E-03     183.083E-03
            1337            2089     232.947E-03     234.633E-03
            1337            2096     228.626E-03     241.442E-03
            1338            2089     232.947E-03     234.633E-03
            1338            2090     345.106E-03     347.787E-03
            1338            2096     228.626E-03     241.442E-03
            1338            2097     341.604E-03     363.922E-03
            1339            2090     345.106E-03     347.787E-03
            1339            2091     466.421E-03     462.544E-03
            1339            2097     341.604E-03     363.922E-03
            1339            2098     465.805E-03     491.534E-03
            1340            2091     466.421E-03     462.544E-03
            1340            2092     568.561E-03     559.413E-03
            1340            2098     465.805E-03     491.534E-03
            1340            2099     573.504E-03     602.370E-03
            1341            2092     568.561E-03     559.413E-03
            1341            2093     643.289E-03     642.535E-03
            1341            2099     573.504E-03     602.370E-03
            1341            2100     652.853E-03     699.213E-03
            1342            2093     643.289E-03     642.535E-03
            1342            2094     703.703E-03     717.028E-03
            1342            2100     652.853E-03     699.213E-03
            1342            2101     711.217E-03     783.388E-03
            1343            2094     703.703E-03     717.028E-03
            1343            2095     761.538E-03     764.203E-03
            1343            2101     711.217E-03     783.388E-03
            1343            2102     769.584E-03     825.797E-03
            1344             284     789.720E-03     776.290E-03
            1344             285     802.015E-03     831.220E-03
            1344            2095     761.538E-03     764.203E-03
            1344            2102     769.584E-03     825.797E-03
            1345             308     186.532E-03     185.905E-03
            1345             309     179.068E-03     185.391E-03
            1345            2096     228.626E-03     241.442E-03
            1345            2103     243.750E-03     238.237E-03
            1346            2096     228.626E-03     241.442E-03
            1346            2097     341.604E-03     363.922E-03
            1346            2103     243.750E-03     238.237E-03
            1346            2104     371.764E-03     353.650E-03
            1347            2097     341.604E-03     363.922E-03
            1347            2098     465.805E-03     491.534E-03
            1347            2104     371.764E-03     353.650E-03
            1347            2105     513.970E-03     477.142E-03
            1348            2098     465.805E-03     491.534E-03
            1348            2099     573.504E-03     602.370E-03
            1348            2105     513.970E-03     477.142E-03
            1348            2106     647.702E-03     590.679E-03
            1349            2099     573.504E-03     602.370E-03
            1349            2100     652.853E-03     699.213E-03
            1349            2106     647.702E-03     590.679E-03
            1349            2107     756.221E-03     686.382E-03
            1350            2100     652.853E-03     699.213E-03
            1350            2101     711.217E-03     783.388E-03
            1350            2107     756.221E-03     686.382E-03
            1350            2108     834.763E-03     775.320E-03
            1351            2101     711.217E-03     783.388E-03
            1351            2102     769.584E-03     825.797E-03
            1351            2108     834.763E-03     775.320E-03
            1351            2109     879.083E-03     831.383E-03
            1352             285     802.015E-03     831.220E-03
            1352             286     891.055E-03     841.086E-03
            1352            2102     769.584E-03     825.797E-03
            1352            2109     879.083E-03     831.383E-03
            1353             307     184.643E-03     172.171E-03
            1353             308     186.532E-03     185.905E-03
            1353            2103     243.750E-03     238.237E-03
            1353            2110     237.244E-03     225.334E-03
            1354            2103     243.750E-03     238.237E-03
            1354            2104     371.764E-03     353.650E-03
            1354            2110     237.244E-03     225.334E-03
            1354            2111     356.768E-03     343.137E-03
            1355            2104     371.764E-03     353.650E-03
            1355            2105     513.970E-03     477.142E-03
            1355            2111     356.768E-03     343.137E-03
            1355            2112     490.024E-03     471.185E-03
            1356            2105     513.970E-03     477.142E-03
            1356            2106     647.702E-03     590.679E-03
            1356            2112     490.024E-03     471.185E-03
            1356            2113     620.059E-03     599.188E-03
            1357            2106     647.702E-03     590.679E-03
            1357            2107     756.221E-03     686.382E-03
            1357            2113     620.059E-03     599.188E-03
            1357            2114     732.641E-03     718.031E-03
            1358            2107     756.221E-03     686.382E-03
            1358            2108     834.763E-03     775.320E-03
            1358            2114     732.641E-03     718.031E-03
            1358            2115     822.187E-03     817.472E-03
            1359            2108     834.763E-03     775.320E-03
            1359            2109     879.083E-03     831.383E-03
            1359            2115     822.187E-03     817.472E-03
            1359            2116     898.784E-03     882.132E-03
            1360             286     891.055E-03     841.086E-03
            1360             287     934.714E-03     901.597E-03
            1360            2109     879.083E-03     831.383E-03
            1360            2116     898.784E-03     882.132E-03
            1361             306     176.525E-03     185.169E-03
            1361             307     184.643E-03     172.171E-03
            1361            2110     237.244E-03     225.334E-03
            1361            2117     219.105E-03     242.308E-03
            1362            2110     237.244E-03     225.334E-03
            1362            2111     356.768E-03     343.137E-03
            1362            2117     219.105E-03     242.308E-03
            1362            2118     316.010E-03     366.858E-03
            1363            2111     356.768E-03     343.137E-03
            1363            2112     490.024E-03     471.185E-03
            1363            2118     316.010E-03     366.858E-03
            1363            2119     423.071E-03     501.999E-03
            1364            2112     490.024E-03     471.185E-03
            1364            2113     620.059E-03     599.188E-03
            1364            2119     423.071E-03     501.999E-03
            1364            2120     523.512E-03     639.966E-03
            1365            2113     620.059E-03     599.188E-03
            1365            2114     732.641E-03     718.031E-03
            1365            2120     523.512E-03     639.966E-03
            1365            2121     610.567E-03     785.155E-03
            1366            2114     732.641E-03     718.031E-03
            1366            2115     822.187E-03     817.472E-03
            1366            2121     610.567E-03     785.155E-03
            1366            2122     682.640E-03     896.366E-03
            1367            2115     822.187E-03     817.472E-03
            1367            2116     898.784E-03     882.132E-03
            1367            2122     682.640E-03     896.366E-03
            1367            2123     772.851E-03     933.007E-03
            1368             287     934.714E-03     901.597E-03
            1368             288     830.336E-03     933.387E-03
            1368            2116     898.784E-03     882.132E-03
            1368            2123     772.851E-03     933.007E-03
            1369             305     181.958E-03     194.424E-03
            1369             306     176.525E-03     185.169E-03
            1369            2117     219.105E-03     242.308E-03
            1369            2124     240.942E-03     245.864E-03
            1370            2117     219.105E-03     242.308E-03
            1370            2118     316.010E-03     366.858E-03
            1370            2124     240.942E-03     245.864E-03
            1370            2125     368.205E-03     359.681E-03
            1371            2118     316.010E-03     366.858E-03
            1371            2119     423.071E-03     501.999E-03
            1371            2125     368.205E-03     359.681E-03
            1371            2126     500.779E-03     480.909E-03
            1372            2119     423.071E-03     501.999E-03
            1372            2120     523.512E-03     639.966E-03
            1372            2126     500.779E-03     480.909E-03
            1372            2127     623.336E-03     597.549E-03
            1373            2120     523.512E-03     639.966E-03
            1373            2121     610.567E-03     785.155E-03
            1373            2127     623.336E-03     597.549E-03
            1373            2128     730.049E-03     705.407E-03
            1374            2121     610.567E-03     785.155E-03
            1374            2122     682.640E-03     896.366E-03
            1374            2128     730.049E-03     705.407E-03
            1374            2129     809.380E-03     793.614E-03
            1375            2122     682.640E-03     896.366E-03
            1375            2123     772.851E-03     933.007E-03
            1375            2129     809.380E-03     793.614E-03
            1375            2130     845.288E-03     823.196E-03
            1376             288     830.336E-03     933.387E-03
            1376             289     850.314E-03     814.640E-03
            1376            2123     772.851E-03     933.007E-03
            1376            2130     845.288E-03     823.196E-03
            1377             304     185.552E-03     181.596E-03
            1377             305     181.958E-03     194.424E-03
            1377            2124     240.942E-03     245.864E-03
            1377            2131     249.393E-03     239.781E-03
            1378            2124     240.942E-03     245.864E-03
            1378            2125     368.205E-03     359.681E-03
            1378            2131     249.393E-03     239.781E-03
            1378            2132     388.649E-03     369.021E-03
            1379            2125     368.205E-03     359.681E-03
            1379            2126     500.779E-03     480.909E-03
            1379            2132     388.649E-03     369.021E-03
            1379            2133     535.837E-03     505.590E-03
            1380            2126     500.779E-03     480.909E-03
            1380            2127     623.336E-03     597.549E-03
            1380            2133     535.837E-03     505.590E-03
            1380            2134     670.909E-03     625.605E-03
            1381            2127     623.336E-03     597.549E-03
            1381            2128     730.049E-03     705.407E-03
            1381            2134     670.909E-03     625.605E-03
            1381            2135     778.352E-03     715.771E-03
            1382            2128     730.049E-03     705.407E-03
            1382            2129     809.380E-03     793.614E-03
            1382            2135     778.352E-03     715.771E-03
            1382            2136     846.788E-03     787.758E-03
            1383            2129     809.380E-03     793.614E-03
            1383            2130     845.288E-03     823.196E-03
            1383            2136     846.788E-03     787.758E-03
            1383            2137     877.374E-03     824.058E-03
            1384             289     850.314E-03     814.640E-03
            1384             290     883.668E-03     824.039E-03
            1384            2130     845.288E-03     823.196E-03
            1384            2137     877.374E-03     824.058E-03
            1385             303     184.045E-03     189.091E-03
            1385             304     185.552E-03     181.596E-03
            1385            2131     249.393E-03     239.781E-03
            1385            2138     239.572E-03     255.706E-03
            1386            2131     249.393E-03     239.781E-03
            1386            2132     388.649E-03     369.021E-03
            1386            2138     239.572E-03     255.706E-03
            1386            2139     364.656E-03     402.819E-03
            1387            2132     388.649E-03     369.021E-03
            1387            2133     535.837E-03     505.590E-03
            1387            2139     364.656E-03     402.819E-03
            1387            2140     503.413E-03     560.106E-03
            1388            2133     535.837E-03     505.590E-03
            1388            2134     670.909E-03     625.605E-03
            1388            2140     503.413E-03     560.106E-03
            1388            2141     628.338E-03     693.387E-03
            1389            2134     670.909E-03     625.605E-03
            1389            2135     778.352E-03     715.771E-03
            1389            2141     628.338E-03     693.387E-03
            1389            2142     714.566E-03     795.427E-03
            1390            2135     778.352E-03     715.771E-03
            1390            2136     846.788E-03     787.758E-03
            1390            2142     714.566E-03     795.427E-03
            1390            2143     763.056E-03     875.892E-03
            1391            2136     846.788E-03     787.758E-03
            1391            2137     877.374E-03     824.058E-03
            1391            2143     763.056E-03     875.892E-03
            1391            2144     819.539E-03     910.718E-03
            1392             290     883.668E-03     824.039E-03
            1392             291     858.034E-03     910.628E-03
            1392            2137     877.374E-03     824.058E-03
            1392            2144     819.539E-03     910.718E-03
            1393             302     193.507E-03     189.932E-03
            1393             303     184.045E-03     189.091E-03
            1393            2138     239.572E-03     255.706E-03
            1393            2145     259.917E-03     249.812E-03
            1394            2138     239.572E-03     255.706E-03
            1394            2139     364.656E-03     402.819E-03
            1394            2145     259.917E-03     249.812E-03
            1394            2146     405.853E-03     384.390E-03
            1395            2139     364.656E-03     402.819E-03
            1395            2140     503.413E-03     560.106E-03
            1395            2146     405.853E-03     384.390E-03
            1395            2147     564.597E-03     528.383E-03
            1396            2140     503.413E-03     560.106E-03
            1396            2141     628.338E-03     693.387E-03
            1396            2147     564.597E-03     528.383E-03
            1396            2148     712.727E-03     651.299E-03
            1397            2141     628.338E-03     693.387E-03
            1397            2142     714.566E-03     795.427E-03
            1397            2148     712.727E-03     651.299E-03
            1397            2149     828.340E-03     742.037E-03
            1398            2142     714.566E-03     795.427E-03
            1398            2143     763.056E-03     875.892E-03
            1398            2149     828.340E-03     742.037E-03
            1398            2150     907.874E-03     828.664E-03
            1399            2143     763.056E-03     875.892E-03
            1399            2144     819.539E-03     910.718E-03
            1399            2150     907.874E-03     828.664E-03
            1399            2151     955.443E-03     890.759E-03
            1400             291     858.034E-03     910.628E-03
            1400             292     970.181E-03     903.344E-03
            1400            2144     819.539E-03     910.718E-03
            1400            2151     955.443E-03     890.759E-03
            1401             301     192.537E-03     175.157E-03
            1401             302     193.507E-03     189.932E-03
            1401            2145     259.917E-03     249.812E-03
            1401            2152     254.206E-03     239.441E-03
            1402            2145     259.917E-03     249.812E-03
            1402            2146     405.853E-03     384.390E-03
            1402            2152     254.206E-03     239.441E-03
            1402            2153     391.009E-03     378.450E-03
            1403            2146     405.853E-03     384.390E-03
            1403            2147     564.597E-03     528.383E-03
            1403            2153     391.009E-03     378.450E-03
            1403            2154     538.908E-03     520.684E-03
            1404            2147     564.597E-03     528.383E-03
            1404            2148     712.727E-03     651.299E-03
            1404            2154     538.908E-03     520.684E-03
            1404            2155     678.900E-03     651.692E-03
            1405            2148     712.727E-03     651.299E-03
            1405            2149     828.340E-03     742.037E-03
            1405            2155     678.900E-03     651.692E-03
            1405            2156     797.392E-03     769.902E-03
            1406            2149     828.340E-03     742.037E-03
            1406            2150     907.874E-03     828.664E-03
            1406            2156     797.392E-03     769.902E-03
            1406            2157     890.701E-03     878.020E-03
            1407            2150     907.874E-03     828.664E-03
            1407            2151     955.443E-03     890.759E-03
            1407            2157     890.701E-03     878.020E-03
            1407            2158     973.613E-03     955.818E-03
            1408             292     970.181E-03     903.344E-03
            1408             293         1.01448     980.210E-03
            1408            2151     955.443E-03     890.759E-03
            1408            2158     973.613E-03     955.818E-03
            1409              12     181.967E-03     190.285E-03
            1409             300     232.703E-03     260.489E-03
            1409             301     192.537E-03     175.157E-03
            1409            2152     254.206E-03     239.441E-03
            1410             299     345.822E-03     407.829E-03
            1410             300     232.703E-03     260.489E-03
            1410            2152     254.206E-03     239.441E-03
            1410            2153     391.009E-03     378.450E-03
            1411             298     468.868E-03     558.149E-03
            1411             299     345.822E-03     407.829E-03
            1411            2153     391.009E-03     378.450E-03
            1411            2154     538.908E-03     520.684E-03
            1412             297     580.293E-03     702.157E-03
            1412             298     468.868E-03     558.149E-03
            1412            2154     538.908E-03     520.684E-03
            1412            2155     678.900E-03     651.692E-03
            1413             296     673.827E-03     853.620E-03
            1413             297     580.293E-03     702.157E-03
            1413            2155     678.900E-03     651.692E-03
            1413            2156     797.392E-03     769.902E-03
            1414             295     750.220E-03     978.398E-03
            1414             296     673.827E-03     853.620E-03
            1414            2156     797.392E-03     769.902E-03
            1414            2157     890.701E-03     878.020E-03
            1415             294     849.254E-03         1.02880
            1415             295     750.220E-03     978.398E-03
            1415            2157     890.701E-03     878.020E-03
            1415            2158     973.613E-03     955.818E-03
            1416              11     914.670E-03         1.03506
            1416             293         1.01448     980.210E-03
            1416             294     849.254E-03         1.02880
            1416            2158     973.613E-03     955.818E-03
            2705               5     12.6750E-03     25.3556E-03
            2705             183     14.6548E-15     14.7922E-15
            2705             242     18.1440E-03     23.5792E-03
            2705            3271     14.8439E-15     14.1671E-15
            2706             241     30.1324E-03     28.5880E-03
            2706             242     18.1440E-03     23.5792E-03
            2706            3271     14.8439E-15     14.1671E-15
            2706            3272     9.96447E-15     9.00334E-15
            2707             240     44.3380E-03     43.2933E-03
            2707             241     30.1324E-03     28.5880E-03
            2707            3272     9.96447E-15     9.00334E-15
            2707            3273     5.57915E-15     5.68604E-15
            2708             239     56.8913E-03     56.2131E-03
            2708             240     44.3380E-03     43.2933E-03
            2708            3273     5.57915E-15     5.68604E-15
            2708            3274     9.73441E-15     11.1571E-15
            2709             238     66.6293E-03     66.0345E-03
            2709             239     56.8913E-03     56.2131E-03
            2709            3274     9.73441E-15     11.1571E-15
            2709            3275     11.6375E-15     13.3584E-15
            2710             237     74.1684E-03     73.6923E-03
            2710             238     66.6293E-03     66.0345E-03
            2710            3275     11.6375E-15     13.3584E-15
            2710            3276     6.26564E-15     7.48371E-15
            2711             236     78.4766E-03     78.1369E-03
            2711             237     74.1684E-03     73.6923E-03
            2711            3276     6.26564E-15     7.48371E-15
            2711            3277     5.26487E-15     5.83682E-15
            2712               8     80.1165E-03     79.7455E-03
            2712             235     7.74500E-15     7.07435E-15
            2712             236     78.4766E-03     78.1369E-03
            2712            3277     5.26487E-15     5.83682E-15
            2713             183     14.6548E-15     14.7922E-15
            2713             184     17.2047E-15     15.2974E-15
            2713            3271     14.8439E-15     14.1671E-15
            2713            3278     21.1452E-15     19.5086E-15
            2714            3271     14.8439E-15     14.1671E-15
            2714            3272     9.96447E-15     9.00334E-15
            2714            3278     21.1452E-15     19.5086E-15
            2714            3279     16.9209E-15     16.5282E-15
            2715            3272     9.96447E-15     9.00334E-15
            2715            3273     5.57915E-15     5.68604E-15
            2715            3279     16.9209E-15     16.5282E-15
            2715            3280     10.5989E-15     11.2122E-15
            2716            3273     5.57915E-15     5.68604E-15
            2716            3274     9.73441E-15     11.1571E-15
            2716            3280     10.5989E-15     11.2122E-15
            2716            3281     13.5305E-15     13.3037E-15
            2717            3274     9.73441E-15     11.1571E-15
            2717            3275     11.6375E-15     13.3584E-15
            2717            3281     13.5305E-15     13.3037E-15
            2717            3282     9.74763E-15     10.1148E-15
            2718            3275     11.6375E-15     13.3584E-15
            2718            3276     6.26564E-15     7.48371E-15
            2718            3282     9.74763E-15     10.1148E-15
            2718            3283     5.35077E-15     6.90304E-15
            2719            3276     6.26564E-15     7.48371E-15
            2719            3277     5.26487E-15     5.83682E-15
            2719            3283     5.35077E-15     6.90304E-15
            2719            3284     8.50687E-15     9.85363E-15
            2720             234     11.7473E-15     11.8933E-15
            2720             235     7.74500E-15     7.07435E-15
            2720            3277     5.26487E-15     5.83682E-15
            2720            3284     8.50687E-15     9.85363E-15
            2721             184     17.2047E-15     15.2974E-15
            2721             185     17.5626E-15     14.9622E-15
            2721            3278     21.1452E-15     19.5086E-15
            2721            3285     19.8870E-15     16.7788E-15
            2722            3278     21.1452E-15     19.5086E-15
            2722            3279     16.9209E-15     16.5282E-15
            2722            3285     19.8870E-15     16.7788E-15
            2722            3286     18.5151E-15     16.5040E-15
            2723            3279     16.9209E-15     16.5282E-15
            2723            3280     10.5989E-15     11.2122E-15
            2723            3286     18.5151E-15     16.5040E-15
            2723            3287     13.8768E-15     13.5923E-15
            2724            3280     10.5989E-15     11.2122E-15
            2724            3281     13.5305E-15     13.3037E-15
            2724            3287     13.8768E-15     13.5923E-15
            2724            3288     12.2144E-15     12.0109E-15
            2725            3281     13.5305E-15     13.3037E-15
            2725            3282     9.74763E-15     10.1148E-15
            2725            3288     12.2144E-15     12.0109E-15
            2725            3289     8.87221E-15     8.80112E-15
            2726            3282     9.74763E-15     10.1148E-15
            2726            3283     5.35077E-15     6.90304E-15
            2726            3289     8.87221E-15     8.80112E-15
            2726            3290     7.82149E-15     8.42418E-15
            2727            3283     5.35077E-15     6.90304E-15
            2727            3284     8.50687E-15     9.85363E-15
            2727            3290     7.82149E-15     8.42418E-15
            2727            3291     9.66696E-15     10.9642E-15
            2728             233     10.5185E-15     10.6865E-15
            2728             234     11.7473E-15     11.8933E-15
            2728            3284     8.50687E-15     9.85363E-15
            2728            3291     9.66696E-15     10.9642E-15
            2729             185     17.5626E-15     14.9622E-15
            2729             186     12.1471E-15     11.5019E-15
            2729            3285     19.8870E-15     16.7788E-15
            2729            3292     11.1078E-15     10.0021E-15
            2730            3285     19.8870E-15     16.7788E-15
            2730            3286     18.5151E-15     16.5040E-15
            2730            3292     11.1078E-15     10.0021E-15
            2730            3293     11.5665E-15     11.2123E-15
            2731            3286     18.5151E-15     16.5040E-15
            2731            3287     13.8768E-15     13.5923E-15
            2731            3293     11.5665E-15     11.2123E-15
            2731            3294     14.1339E-15     13.7190E-15
            2732            3287     13.8768E-15     13.5923E-15
            2732            3288     12.2144E-15     12.0109E-15
            2732            3294     14.1339E-15     13.7190E-15
            2732            3295     12.0137E-15     11.4647E-15
            2733            3288     12.2144E-15     12.0109E-15
            2733            3289     8.87221E-15     8.80112E-15
            2733            3295     12.0137E-15     11.4647E-15
            2733            3296     7.35936E-15     7.20372E-15
            2734            3289     8.87221E-15     8.80112E-15
            2734            3290     7.82149E-15     8.42418E-15
            2734            3296     7.35936E-15     7.20372E-15
            2734            3297     6.96954E-15     7.06140E-15
            2735            3290     7.82149E-15     8.42418E-15
            2735            3291     9.66696E-15     10.9642E-15
            2735            3297     6.96954E-15     7.06140E-15
            2735            3298     10.3878E-15     11.6928E-15
            2736             232     8.53499E-15     9.23078E-15
            2736             233     10.5185E-15     10.6865E-15
            2736            3291     9.66696E-15     10.9642E-15
            2736            3298     10.3878E-15     11.6928E-15
            2737             186     12.1471E-15     11.5019E-15
            2737             187     14.4434E-15     16.6271E-15
            2737            3292     11.1078E-15     10.0021E-15
            2737            3299     17.6400E-15     20.2550E-15
            2738            3292     11.1078E-15     10.0021E-15
            2738            3293     11.5665E-15     11.2123E-15
            2738            3299     17.6400E-15     20.2550E-15
            2738            3300     15.8469E-15     17.6650E-15
            2739            3293     11.5665E-15     11.2123E-15
            2739            3294     14.1339E-15     13.7190E-15
            2739            3300     15.8469E-15     17.6650E-15
            2739            3301     14.7558E-15     12.8058E-15
            2740            3294     14.1339E-15     13.7190E-15
            2740            3295     12.0137E-15     11.4647E-15
            2740            3301     14.7558E-15     12.8058E-15
            2740            3302     15.0641E-15     12.4615E-15
            2741            3295     12.0137E-15     11.4647E-15
            2741            3296     7.35936E-15     7.20372E-15
            2741            3302     15.0641E-15     12.4615E-15
            2741            3303     9.89240E-15     8.29593E-15
            2742            3296     7.35936E-15     7.20372E-15
            2742            3297     6.96954E-15     7.06140E-15
            2742            3303     9.89240E-15     8.29593E-15
            2742            3304     8.36032E-15     7.60102E-15
            2743            3297     6.96954E-15     7.06140E-15
            2743            3298     10.3878E-15     11.6928E-15
            2743            3304     8.36032E-15     7.60102E-15
            2743            3305     11.4976E-15     12.6790E-15
            2744             231     10.3533E-15     10.6418E-15
            2744             232     8.53499E-15     9.23078E-15
            2744            3298     10.3878E-15     11.6928E-15
            2744            3305     11.4976E-15     12.6790E-15
            2745             187     14.4434E-15     16.6271E-15
            2745             188     10.6108E-15     11.5962E-15
            2745            3299     17.6400E-15     20.2550E-15
            2745            3306     22.6963E-15     22.7049E-15
            2746            3299     17.6400E-15     20.2550E-15
            2746            3300     15.8469E-15     17.6650E-15
            2746            3306     22.6963E-15     22.7049E-15
            2746            3307     22.7803E-15     21.6450E-15
            2747            3300     15.8469E-15     17.6650E-15
            2747            3301     14.7558E-15     12.8058E-15
            2747            3307     22.7803E-15     21.6450E-15
            2747            3308     12.5296E-15     9.28117E-15
            2748            3301     14.7558E-15     12.8058E-15
            2748            3302     15.0641E-15     12.4615E-15
            2748            3308     12.5296E-15     9.28117E-15
            2748            3309     14.8059E-15     12.3754E-15
            2749            3302     15.0641E-15     12.4615E-15
            2749            3303     9.89240E-15     8.29593E-15
            2749            3309     14.8059E-15     12.3754E-15
            2749            3310     15.4615E-15     15.0070E-15
            2750            3303     9.89240E-15     8.29593E-15
            2750            3304     8.36032E-15     7.60102E-15
            2750            3310     15.4615E-15     15.0070E-15
            2750            3311     13.1610E-15     12.4308E-15
            2751            3304     8.36032E-15     7.60102E-15
            2751            3305     11.4976E-15     12.6790E-15
            2751            3311     13.1610E-15     12.4308E-15
            2751            3312     10.9796E-15     11.1370E-15
            2752             230     10.2274E-15     9.95678E-15
            2752             231     10.3533E-15     10.6418E-15
            2752            3305     11.4976E-15     12.6790E-15
            2752            3312     10.9796E-15     11.1370E-15
            2753               6     1.97269E-15     2.91443E-15
            2753             188     10.6108E-15     11.5962E-15
            2753             488     18.0667E-15     16.9371E-15
            2753            3306     22.6963E-15     22.7049E-15
            2754             487     20.2369E-15     19.0198E-15
            2754             488     18.0667E-15     16.9371E-15
            2754            3306     22.6963E-15     22.7049E-15
            2754            3307     22.7803E-15     21.6450E-15
            2755             486     9.17922E-15     7.19055E-15
            2755             487     20.2369E-15     19.0198E-15
            2755            3307     22.7803E-15     21.6450E-15
            2755            3308     12.5296E-15     9.28117E-15
            2756             485     16.2137E-15     14.3478E-15
            2756             486     9.17922E-15     7.19055E-15
            2756            3308     12.5296E-15     9.28117E-15
            2756            3309     14.8059E-15     12.3754E-15
            2757             484     19.2456E-15     20.2850E-15
            2757             485     16.2137E-15     14.3478E-15
            2757            3309     14.8059E-15     12.3754E-15
            2757            3310     15.4615E-15     15.0070E-15
            2758             483     14.9156E-15     14.9849E-15
            2758             484     19.2456E-15     20.2850E-15
            2758            3310     15.4615E-15     15.0070E-15
            2758            3311     13.1610E-15     12.4308E-15
            2759             482     11.0402E-15     10.3994E-15
            2759             483     14.9156E-15     14.9849E-15
            2759            3311     13.1610E-15     12.4308E-15
            2759            3312     10.9796E-15     11.1370E-15
            2760              10     10.9439E-15     10.3761E-15
            2760             230     10.2274E-15     9.95678E-15
            2760             482     11.0402E-15     10.3994E-15
            2760            3312     10.9796E-15     11.1370E-15
            2761               3     914.670E-03         1.03506
            2761             433     960.108E-03     907.303E-03
            2761             489     849.254E-03         1.02880
            2761            3313     949.718E-03     909.391E-03
            2762             489     849.254E-03         1.02880
            2762             490     750.220E-03     978.398E-03
            2762            3313     949.718E-03     909.391E-03
            2762            3314     901.843E-03     873.345E-03
            2763             490     750.220E-03     978.398E-03
            2763             491     673.827E-03     853.620E-03
            2763            3314     901.843E-03     873.345E-03
            2763            3315     812.363E-03     781.421E-03
            2764             491     673.827E-03     853.620E-03
            2764             492     580.293E-03     702.157E-03
            2764            3315     812.363E-03     781.421E-03
            2764            3316     695.206E-03     665.241E-03
            2765             492     580.293E-03     702.157E-03
            2765             493     468.868E-03     558.149E-03
            2765            3316     695.206E-03     665.241E-03
            2765            3317     557.038E-03     535.092E-03
            2766             493     468.868E-03     558.149E-03
            2766             494     345.822E-03     407.829E-03
            2766            3317     557.038E-03     535.092E-03
            2766            3318     404.040E-03     393.477E-03
            2767             494     345.822E-03     407.829E-03
            2767             495     232.703E-03     260.489E-03
            2767            3318     404.040E-03     393.477E-03
            2767            3319     255.178E-03     258.001E-03
            2768              12     181.967E-03     190.285E-03
            2768             495     232.703E-03     260.489E-03
            2768             496     186.305E-03     196.385E-03
            2768            3319     255.178E-03     258.001E-03
            2769             433     960.108E-03     907.303E-03
            2769             434     972.676E-03     955.571E-03
            2769            3313     949.718E-03     909.391E-03
            2769            3320     960.640E-03     958.841E-03
            2770            3313     949.718E-03     909.391E-03
            2770            3314     901.843E-03     873.345E-03
            2770            3320     960.640E-03     958.841E-03
            2770            3321     928.534E-03     921.950E-03
            2771            3314     901.843E-03     873.345E-03
            2771            3315     812.363E-03     781.421E-03
            2771            3321     928.534E-03     921.950E-03
            2771            3322     859.810E-03     837.379E-03
            2772            3315     812.363E-03     781.421E-03
            2772            3316     695.206E-03     665.241E-03
            2772            3322     859.810E-03     837.379E-03
            2772            3323     739.009E-03     729.350E-03
            2773            3316     695.206E-03     665.241E-03
            2773            3317     557.038E-03     535.092E-03
            2773            3323     739.009E-03     729.350E-03
            2773            3324     585.063E-03     584.946E-03
            2774            3317     557.038E-03     535.092E-03
            2774            3318     404.040E-03     393.477E-03
            2774            3324     585.063E-03     584.946E-03
            2774            3325     418.598E-03     419.095E-03
            2775            3318     404.040E-03     393.477E-03
            2775            3319     255.178E-03     258.001E-03
            2775            3325     418.598E-03     419.095E-03
            2775            3326     259.653E-03     260.915E-03
            2776             496     186.305E-03     196.385E-03
            2776             497     185.373E-03     187.803E-03
            2776            3319     255.178E-03     258.001E-03
            2776            3326     259.653E-03     260.915E-03
            2777             434     972.676E-03     955.571E-03
            2777             435         1.03067     992.071E-03
            2777            3320     960.640E-03     958.841E-03
            2777            3327         1.01209     985.983E-03
            2778            3320     960.640E-03     958.841E-03
            2778            3321     928.534E-03     921.950E-03
            2778            3327         1.01209     985.983E-03
            2778            3328     967.118E-03     931.315E-03
            2779            3321     928.534E-03     921.950E-03
            2779            3322     859.810E-03     837.379E-03
            2779            3328     967.118E-03     931.315E-03
            2779            3329     891.080E-03     841.335E-03
            2780            3322     859.810E-03     837.379E-03
            2780            3323     739.009E-03     729.350E-03
            2780            3329     891.080E-03     841.335E-03
            2780            3330     765.309E-03     737.180E-03
            2781            3323     739.009E-03     729.350E-03
            2781            3324     585.063E-03     584.946E-03
            2781            3330     765.309E-03     737.180E-03
            2781            3331     604.075E-03     591.994E-03
            2782            3324     585.063E-03     584.946E-03
            2782            3325     418.598E-03     419.095E-03
            2782            3331     604.075E-03     591.994E-03
            2782            3332     433.556E-03     424.351E-03
            2783            3325     418.598E-03     419.095E-03
            2783            3326     259.653E-03     260.915E-03
            2783            3332     433.556E-03     424.351E-03
            2783            3333     273.931E-03     266.663E-03
            2784             497     185.373E-03     187.803E-03
            2784             498     199.725E-03     194.185E-03
            2784            3326     259.653E-03     260.915E-03
            2784            3333     273.931E-03     266.663E-03
            2785             435         1.03067     992.071E-03
            2785             436         1.09228         1.04634
            2785            3327         1.01209     985.983E-03
            2785            3334         1.04876         1.01634
            2786            3327         1.01209     985.983E-03
            2786            3328     967.118E-03     931.315E-03
            2786            3334         1.04876         1.01634
            2786            3335     959.703E-03     933.945E-03
            2787            3328     967.118E-03     931.315E-03
            2787            3329     891.080E-03     841.335E-03
            2787            3335     959.703E-03     933.945E-03
            2787            3336     860.683E-03     826.629E-03
            2788            3329     891.080E-03     841.335E-03
            2788            3330     765.309E-03     737.180E-03
            2788            3336     860.683E-03     826.629E-03
            2788            3337     734.531E-03     705.192E-03
            2789            3330     765.309E-03     737.180E-03
            2789            3331     604.075E-03     591.994E-03
            2789            3337     734.531E-03     705.192E-03
            2789            3338     583.272E-03     563.425E-03
            2790            3331     604.075E-03     591.994E-03
            2790            3332     433.556E-03     424.351E-03
            2790            3338     583.272E-03     563.425E-03
            2790            3339     420.677E-03     405.214E-03
            2791            3332     433.556E-03     424.351E-03
            2791            3333     273.931E-03     266.663E-03
            2791            3339     420.677E-03     405.214E-03
            2791            3340     266.069E-03     250.340E-03
            2792             498     199.725E-03     194.185E-03
            2792             499     195.453E-03     178.435E-03
            2792            3333     273.931E-03     266.663E-03
            2792            3340     266.069E-03     250.340E-03
            2793             436         1.09228         1.04634
            2793             437     997.149E-03         1.08220
            2793            3334         1.04876         1.01634
            2793            3341     941.163E-03         1.05721
            2794            3334         1.04876         1.01634
            2794            3335     959.703E-03     933.945E-03
            2794            3341     941.163E-03         1.05721
            2794            3342     849.641E-03     987.569E-03
            2795            3335     959.703E-03     933.945E-03
            2795            3336     860.683E-03     826.629E-03
            2795            3342     849.641E-03     987.569E-03
            2795            3343     765.377E-03     873.227E-03
            2796            3336     860.683E-03     826.629E-03
            2796            3337     734.531E-03     705.192E-03
            2796            3343     765.377E-03     873.227E-03
            2796            3344     655.282E-03     731.624E-03
            2797            3337     734.531E-03     705.192E-03
            2797            3338     583.272E-03     563.425E-03
            2797            3344     655.282E-03     731.624E-03
            2797            3345     521.884E-03     579.201E-03
            2798            3338     583.272E-03     563.425E-03
            2798            3339     420.677E-03     405.214E-03
            2798            3345     521.884E-03     579.201E-03
            2798            3346     372.925E-03     410.325E-03
            2799            3339     420.677E-03     405.214E-03
            2799            3340     266.069E-03     250.340E-03
            2799            3346     372.925E-03     410.325E-03
            2799            3347     227.848E-03     238.594E-03
            2800             499     195.453E-03     178.435E-03
            2800             500     159.699E-03     155.229E-03
            2800            3340     266.069E-03     250.340E-03
            2800            3347     227.848E-03     238.594E-03
            2801              16         1.02702         1.11881
            2801             437     997.149E-03         1.08220
            2801             507     961.257E-03         1.08862
            2801            3341     941.163E-03         1.05721
            2802             506     858.514E-03         1.01329
            2802             507     961.257E-03         1.08862
            2802            3341     941.163E-03         1.05721
            2802            3342     849.641E-03     987.569E-03
            2803             505     774.321E-03     896.371E-03
            2803             506     858.514E-03         1.01329
            2803            3342     849.641E-03     987.569E-03
            2803            3343     765.377E-03     873.227E-03
            2804             504     667.074E-03     750.726E-03
            2804             505     774.321E-03     896.371E-03
            2804            3343     765.377E-03     873.227E-03
            2804            3344     655.282E-03     731.624E-03
            2805             503     538.825E-03     597.770E-03
            2805             504     667.074E-03     750.726E-03
            2805            3344     655.282E-03     731.624E-03
            2805            3345     521.884E-03     579.201E-03
            2806             502     399.769E-03     434.833E-03
            2806             503     538.825E-03     597.770E-03
            2806            3345     521.884E-03     579.201E-03
            2806            3346     372.925E-03     410.325E-03
            2807             501     270.406E-03     277.034E-03
            2807             502     399.769E-03     434.833E-03
            2807            3346     372.925E-03     410.325E-03
            2807            3347     227.848E-03     238.594E-03
            2808              19     211.883E-03     203.082E-03
            2808             500     159.699E-03     155.229E-03
            2808             501     270.406E-03     277.034E-03
            2808            3347     227.848E-03     238.594E-03
            3001              19     211.883E-03     203.082E-03
            3001             553     270.406E-03     277.034E-03
            3001             576     296.592E-03     275.152E-03
            3001            3498     348.403E-03     330.017E-03
            3002             553     270.406E-03     277.034E-03
            3002             554     399.769E-03     434.833E-03
            3002            3498     348.403E-03     330.017E-03
            3002            3499     472.575E-03     458.015E-03
            3003             554     399.769E-03     434.833E-03
            3003             555     538.825E-03     597.770E-03
            3003            3499     472.575E-03     458.015E-03
            3003            3500     619.157E-03     600.045E-03
            3004             555     538.825E-03     597.770E-03
            3004             556     667.074E-03     750.726E-03
            3004            3500     619.157E-03     600.045E-03
            3004            3501     764.218E-03     734.739E-03
            3005             556     667.074E-03     750.726E-03
            3005             557     774.321E-03     896.371E-03
            3005            3501     764.218E-03     734.739E-03
            3005            3502     888.118E-03     857.968E-03
            3006             557     774.321E-03     896.371E-03
            3006             558     858.514E-03         1.01329
            3006            3502     888.118E-03     857.968E-03
            3006            3503     988.328E-03     975.871E-03
            3007             558     858.514E-03         1.01329
            3007             559     961.257E-03         1.08862
            3007            3503     988.328E-03     975.871E-03
            3007            3504         1.08985         1.07209
            3008              20         1.02702         1.11881
            3008             559     961.257E-03         1.08862
            3008             560         1.14422         1.10784
            3008            3504         1.08985         1.07209
            3009             575     297.277E-03     293.500E-03
            3009             576     296.592E-03     275.152E-03
            3009            3498     348.403E-03     330.017E-03
            3009            3505     353.500E-03     343.022E-03
            3010            3498     348.403E-03     330.017E-03
            3010            3499     472.575E-03     458.015E-03
            3010            3505     353.500E-03     343.022E-03
            3010            3506     486.136E-03     463.223E-03
            3011            3499     472.575E-03     458.015E-03
            3011            3500     619.157E-03     600.045E-03
            3011            3506     486.136E-03     463.223E-03
            3011            3507     643.754E-03     603.425E-03
            3012            3500     619.157E-03     600.045E-03
            3012            3501     764.218E-03     734.739E-03
            3012            3507     643.754E-03     603.425E-03
            3012            3508     796.966E-03     726.425E-03
            3013            3501     764.218E-03     734.739E-03
            3013            3502     888.118E-03     857.968E-03
            3013            3508     796.966E-03     726.425E-03
            3013            3509     917.730E-03     817.290E-03
            3014            3502     888.118E-03     857.968E-03
            3014            3503     988.328E-03     975.871E-03
            3014            3509     917.730E-03     817.290E-03
            3014            3510         1.00275     909.932E-03
            3015            3503     988.328E-03     975.871E-03
            3015            3504         1.08985         1.07209
            3015            3510         1.00275     909.932E-03
            3015            3511         1.05693     982.464E-03
            3016             560         1.14422         1.10784
            3016             561         1.07486     999.742E-03
            3016            3504         1.08985         1.07209
            3016            3511         1.05693     982.464E-03
            3017             574     287.335E-03     291.397E-03
            3017             575     297.277E-03     293.500E-03
            3017            3505     353.500E-03     343.022E-03
            3017            3512     331.759E-03     346.517E-03
            3018            3505     353.500E-03     343.022E-03
            3018            3506     486.136E-03     463.223E-03
            3018            3512     331.759E-03     346.517E-03
            3018            3513     440.191E-03     477.861E-03
            3019            3506     486.136E-03     463.223E-03
            3019            3507     643.754E-03     603.425E-03
            3019            3513     440.191E-03     477.861E-03
            3019            3514     571.817E-03     630.704E-03
            3020            3507     643.754E-03     603.425E-03
            3020            3508     796.966E-03     726.425E-03
            3020            3514     571.817E-03     630.704E-03
            3020            3515     695.325E-03     764.688E-03
            3021            3508     796.966E-03     726.425E-03
            3021            3509     917.730E-03     817.290E-03
            3021            3515     695.325E-03     764.688E-03
            3021            3516     781.469E-03     868.377E-03
            3022            3509     917.730E-03     817.290E-03
            3022            3510         1.00275     909.932E-03
            3022            3516     781.469E-03     868.377E-03
            3022            3517     828.958E-03     950.381E-03
            3023            3510         1.00275     909.932E-03
            3023            3511         1.05693     982.464E-03
            3023            3517     828.958E-03     950.381E-03
            3023            3518     887.243E-03     985.700E-03
            3024             561         1.07486     999.742E-03
            3024             562     928.291E-03     985.340E-03
            3024            3511         1.05693     982.464E-03
            3024            3518     887.243E-03     985.700E-03
            3025             573     287.506E-03     283.752E-03
            3025             574     287.335E-03     291.397E-03
            3025            3512     331.759E-03     346.517E-03
            3025            3519     338.937E-03     329.893E-03
            3026            3512     331.759E-03     346.517E-03
            3026            3513     440.191E-03     477.861E-03
            3026            3519     338.937E-03     329.893E-03
            3026            3520     459.703E-03     440.447E-03
            3027            3513     440.191E-03     477.861E-03
            3027            3514     571.817E-03     630.704E-03
            3027            3520     459.703E-03     440.447E-03
            3027            3521     597.790E-03     567.768E-03
            3028            3514     571.817E-03     630.704E-03
            3028            3515     695.325E-03     764.688E-03
            3028            3521     597.790E-03     567.768E-03
            3028            3522     728.856E-03     685.285E-03
            3029            3515     695.325E-03     764.688E-03
            3029            3516     781.469E-03     868.377E-03
            3029            3522     728.856E-03     685.285E-03
            3029            3523     835.480E-03     774.954E-03
            3030            3516     781.469E-03     868.377E-03
            3030            3517     828.958E-03     950.381E-03
            3030            3523     835.480E-03     774.954E-03
            3030            3524     901.701E-03     843.229E-03
            3031            3517     828.958E-03     950.381E-03
            3031            3518     887.243E-03     985.700E-03
            3031            3524     901.701E-03     843.229E-03
            3031            3525     927.305E-03     872.414E-03
            3032             562     928.291E-03     985.340E-03
            3032             563     930.997E-03     868.383E-03
            3032            3518     887.243E-03     985.700E-03
            3032            3525     927.305E-03     872.414E-03
            3033             572     284.025E-03     297.975E-03
            3033             573     287.506E-03     283.752E-03
            3033            3519     338.937E-03     329.893E-03
            3033            3526     330.663E-03     337.103E-03
            3034            3519     338.937E-03     329.893E-03
            3034            3520     459.703E-03     440.447E-03
            3034            3526     330.663E-03     337.103E-03
            3034            3527     438.284E-03     429.795E-03
            3035            3520     459.703E-03     440.447E-03
            3035            3521     597.790E-03     567.768E-03
            3035            3527     438.284E-03     429.795E-03
            3035            3528     559.245E-03     537.429E-03
            3036            3521     597.790E-03     567.768E-03
            3036            3522     728.856E-03     685.285E-03
            3036            3528     559.245E-03     537.429E-03
            3036            3529     674.785E-03     647.292E-03
            3037            3522     728.856E-03     685.285E-03
            3037            3523     835.480E-03     774.954E-03
            3037            3529     674.785E-03     647.292E-03
            3037            3530     778.413E-03     752.541E-03
            3038            3523     835.480E-03     774.954E-03
            3038            3524     901.701E-03     843.229E-03
            3038            3530     778.413E-03     752.541E-03
            3038            3531     854.995E-03     836.974E-03
            3039            3524     901.701E-03     843.229E-03
            3039            3525     927.305E-03     872.414E-03
            3039            3531     854.995E-03     836.974E-03
            3039            3532     877.796E-03     852.535E-03
            3040             563     930.997E-03     868.383E-03
            3040             564     872.083E-03     833.117E-03
            3040            3525     927.305E-03     872.414E-03
            3040            3532     877.796E-03     852.535E-03
            3041              24     278.781E-03     285.247E-03
            3041             571     308.421E-03     327.888E-03
            3041             572     284.025E-03     297.975E-03
            3041            3526     330.663E-03     337.103E-03
            3042             570     381.950E-03     428.793E-03
            3042             571     308.421E-03     327.888E-03
            3042            3526     330.663E-03     337.103E-03
            3042            3527     438.284E-03     429.795E-03
            3043             569     470.124E-03     545.231E-03
            3043             570     381.950E-03     428.793E-03
            3043            3527     438.284E-03     429.795E-03
            3043            3528     559.245E-03     537.429E-03
            3044             568     555.984E-03     662.138E-03
            3044             569     470.124E-03     545.231E-03
            3044            3528     559.245E-03     537.429E-03
            3044            3529     674.785E-03     647.292E-03
            3045             567     628.991E-03     785.969E-03
            3045             568     555.984E-03     662.138E-03
            3045            3529     674.785E-03     647.292E-03
            3045            3530     778.413E-03     752.541E-03
            3046             566     688.240E-03     887.460E-03
            3046             567     628.991E-03     785.969E-03
            3046            3530     778.413E-03     752.541E-03
            3046            3531     854.995E-03     836.974E-03
            3047             565     774.297E-03     929.416E-03
            3047             566     688.240E-03     887.460E-03
            3047            3531     854.995E-03     836.974E-03
            3047            3532     877.796E-03     852.535E-03
            3048              23     832.537E-03     934.978E-03
            3048             564     872.083E-03     833.117E-03
            3048             565     774.297E-03     929.416E-03
            3048            3532     877.796E-03     852.535E-03
            3049               2     12.6750E-03     25.3556E-03
            3049              51     22.6885E-03     44.7090E-03
            3049             216     18.1440E-03     23.5792E-03
            3049            3533     33.4437E-03     47.1018E-03
            3050             215     30.1324E-03     28.5880E-03
            3050             216     18.1440E-03     23.5792E-03
            3050            3533     33.4437E-03     47.1018E-03
            3050            3534     59.7930E-03     64.6680E-03
            3051             214     44.3380E-03     43.2933E-03
            3051             215     30.1324E-03     28.5880E-03
            3051            3534     59.7930E-03     64.6680E-03
            3051            3535     89.3357E-03     92.1146E-03
            3052             213     56.8913E-03     56.2131E-03
            3052             214     44.3380E-03     43.2933E-03
            3052            3535     89.3357E-03     92.1146E-03
            3052            3536     114.200E-03     114.851E-03
            3053             212     66.6293E-03     66.0345E-03
            3053             213     56.8913E-03     56.2131E-03
            3053            3536     114.200E-03     114.851E-03
            3053            3537     134.076E-03     134.027E-03
            3054             211     74.1684E-03     73.6923E-03
            3054             212     66.6293E-03     66.0345E-03
            3054            3537     134.076E-03     134.027E-03
            3054            3538     148.810E-03     148.491E-03
            3055             210     78.4766E-03     78.1369E-03
            3055             211     74.1684E-03     73.6923E-03
            3055            3538     148.810E-03     148.491E-03
            3055            3539     157.709E-03     157.275E-03
            3056               8     80.1165E-03     79.7455E-03
            3056             210     78.4766E-03     78.1369E-03
            3056             351     160.835E-03     160.308E-03
            3056            3539     157.709E-03     157.275E-03
            3057              51     22.6885E-03     44.7090E-03
            3057              52     52.5930E-03     46.1572E-03
            3057            3533     33.4437E-03     47.1018E-03
            3057            3540     57.2625E-03     49.1398E-03
            3058            3533     33.4437E-03     47.1018E-03
            3058            3534     59.7930E-03     64.6680E-03
            3058            3540     57.2625E-03     49.1398E-03
            3058            3541     74.0562E-03     68.2364E-03
            3059            3534     59.7930E-03     64.6680E-03
            3059            3535     89.3357E-03     92.1146E-03
            3059            3541     74.0562E-03     68.2364E-03
            3059            3542     97.4367E-03     94.9979E-03
            3060            3535     89.3357E-03     92.1146E-03
            3060            3536     114.200E-03     114.851E-03
            3060            3542     97.4367E-03     94.9979E-03
            3060            3543     119.183E-03     116.566E-03
            3061            3536     114.200E-03     114.851E-03
            3061            3537     134.076E-03     134.027E-03
            3061            3543     119.183E-03     116.566E-03
            3061            3544     137.309E-03     135.503E-03
            3062            3537     134.076E-03     134.027E-03
            3062            3538     148.810E-03     148.491E-03
            3062            3544     137.309E-03     135.503E-03
            3062            3545     150.816E-03     149.399E-03
            3063            3538     148.810E-03     148.491E-03
            3063            3539     157.709E-03     157.275E-03
            3063            3545     150.816E-03     149.399E-03
            3063            3546     159.452E-03     158.194E-03
            3064             350     162.217E-03     161.110E-03
            3064             351     160.835E-03     160.308E-03
            3064            3539     157.709E-03     157.275E-03
            3064            3546     159.452E-03     158.194E-03
            3065              52     52.5930E-03     46.1572E-03
            3065              53     89.5380E-03     90.5193E-03
            3065            3540     57.2625E-03     49.1398E-03
            3065            3547     79.6862E-03     80.5181E-03
            3066            3540     57.2625E-03     49.1398E-03
            3066            3541     74.0562E-03     68.2364E-03
            3066            3547     79.6862E-03     80.5181E-03
            3066            3548     78.8104E-03     79.8469E-03
            3067            3541     74.0562E-03     68.2364E-03
            3067            3542     97.4367E-03     94.9979E-03
            3067            3548     78.8104E-03     79.8469E-03
            3067            3549     99.6911E-03     100.166E-03
            3068            3542     97.4367E-03     94.9979E-03
            3068            3543     119.183E-03     116.566E-03
            3068            3549     99.6911E-03     100.166E-03
            3068            3550     120.273E-03     119.976E-03
            3069            3543     119.183E-03     116.566E-03
            3069            3544     137.309E-03     135.503E-03
            3069            3550     120.273E-03     119.976E-03
            3069            3551     137.041E-03     136.354E-03
            3070            3544     137.309E-03     135.503E-03
            3070            3545     150.816E-03     149.399E-03
            3070            3551     137.041E-03     136.354E-03
            3070            3552     150.434E-03     148.930E-03
            3071            3545     150.816E-03     149.399E-03
            3071            3546     159.452E-03     158.194E-03
            3071            3552     150.434E-03     148.930E-03
            3071            3553     158.596E-03     156.681E-03
            3072             349     161.454E-03     159.413E-03
            3072             350     162.217E-03     161.110E-03
            3072            3546     159.452E-03     158.194E-03
            3072            3553     158.596E-03     156.681E-03
            3073              53     89.5380E-03     90.5193E-03
            3073              54     66.7441E-03     76.0830E-03
            3073            3547     79.6862E-03     80.5181E-03
            3073            3554     68.4762E-03     81.6180E-03
            3074            3547     79.6862E-03     80.5181E-03
            3074            3548     78.8104E-03     79.8469E-03
            3074            3554     68.4762E-03     81.6180E-03
            3074            3555     78.1567E-03     92.6569E-03
            3075            3548     78.8104E-03     79.8469E-03
            3075            3549     99.6911E-03     100.166E-03
            3075            3555     78.1567E-03     92.6569E-03
            3075            3556     98.3592E-03     106.488E-03
            3076            3549     99.6911E-03     100.166E-03
            3076            3550     120.273E-03     119.976E-03
            3076            3556     98.3592E-03     106.488E-03
            3076            3557     119.441E-03     122.542E-03
            3077            3550     120.273E-03     119.976E-03
            3077            3551     137.041E-03     136.354E-03
            3077            3557     119.441E-03     122.542E-03
            3077            3558     137.579E-03     138.382E-03
            3078            3551     137.041E-03     136.354E-03
            3078            3552     150.434E-03     148.930E-03
            3078            3558     137.579E-03     138.382E-03
            3078            3559     152.312E-03     151.825E-03
            3079            3552     150.434E-03     148.930E-03
            3079            3553     158.596E-03     156.681E-03
            3079            3559     152.312E-03     151.825E-03
            3079            3560     160.941E-03     160.209E-03
            3080             348     164.148E-03     163.261E-03
            3080             349     161.454E-03     159.413E-03
            3080            3553     158.596E-03     156.681E-03
            3080            3560     160.941E-03     160.209E-03
            3081              54     66.7441E-03     76.0830E-03
            3081              55     48.4198E-03     42.0362E-03
            3081            3554     68.4762E-03     81.6180E-03
            3081            3561     67.4508E-03     63.3996E-03
            3082            3554     68.4762E-03     81.6180E-03
            3082            3555     78.1567E-03     92.6569E-03
            3082            3561     67.4508E-03     63.3996E-03
            3082            3562     93.2487E-03     94.1579E-03
            3083            3555     78.1567E-03     92.6569E-03
            3083            3556     98.3592E-03     106.488E-03
            3083            3562     93.2487E-03     94.1579E-03
            3083            3563     107.880E-03     110.718E-03
            3084            3556     98.3592E-03     106.488E-03
            3084            3557     119.441E-03     122.542E-03
            3084            3563     107.880E-03     110.718E-03
            3084            3564     125.236E-03     125.667E-03
            3085            3557     119.441E-03     122.542E-03
            3085            3558     137.579E-03     138.382E-03
            3085            3564     125.236E-03     125.667E-03
            3085            3565     143.063E-03     141.523E-03
            3086            3558     137.579E-03     138.382E-03
            3086            3559     152.312E-03     151.825E-03
            3086            3565     143.063E-03     141.523E-03
            3086            3566     157.216E-03     155.675E-03
            3087            3559     152.312E-03     151.825E-03
            3087            3560     160.941E-03     160.209E-03
            3087            3566     157.216E-03     155.675E-03
            3087            3567     165.856E-03     164.977E-03
            3088             347     168.677E-03     168.200E-03
            3088             348     164.148E-03     163.261E-03
            3088            3560     160.941E-03     160.209E-03
            3088            3567     165.856E-03     164.977E-03
            3089              55     48.4198E-03     42.0362E-03
            3089              56     76.4352E-03     74.8421E-03
            3089            3561     67.4508E-03     63.3996E-03
            3089            3568     84.4524E-03     84.6573E-03
            3090            3561     67.4508E-03     63.3996E-03
            3090            3562     93.2487E-03     94.1579E-03
            3090            3568     84.4524E-03     84.6573E-03
            3090            3569     101.768E-03     104.912E-03
            3091            3562     93.2487E-03     94.1579E-03
            3091            3563     107.880E-03     110.718E-03
            3091            3569     101.768E-03     104.912E-03
            3091            3570     117.784E-03     122.437E-03
            3092            3563     107.880E-03     110.718E-03
            3092            3564     125.236E-03     125.667E-03
            3092            3570     117.784E-03     122.437E-03
            3092            3571     132.340E-03     135.473E-03
            3093            3564     125.236E-03     125.667E-03
            3093            3565     143.063E-03     141.523E-03
            3093            3571     132.340E-03     135.473E-03
            3093            3572     147.364E-03     147.308E-03
            3094            3565     143.063E-03     141.523E-03
            3094            3566     157.216E-03     155.675E-03
            3094            3572     147.364E-03     147.308E-03
            3094            3573     159.504E-03     158.003E-03
            3095            3566     157.216E-03     155.675E-03
            3095            3567     165.856E-03     164.977E-03
            3095            3573     159.504E-03     158.003E-03
            3095            3574     166.857E-03     165.453E-03
            3096             346     169.255E-03     168.092E-03
            3096             347     168.677E-03     168.200E-03
            3096            3567     165.856E-03     164.977E-03
            3096            3574     166.857E-03     165.453E-03
            3097              56     76.4352E-03     74.8421E-03
            3097              57     108.817E-03     107.576E-03
            3097            3568     84.4524E-03     84.6573E-03
            3097            3575     108.666E-03     109.626E-03
            3098            3568     84.4524E-03     84.6573E-03
            3098            3569     101.768E-03     104.912E-03
            3098            3575     108.666E-03     109.626E-03
            3098            3576     115.529E-03     118.163E-03
            3099            3569     101.768E-03     104.912E-03
            3099            3570     117.784E-03     122.437E-03
            3099            3576     115.529E-03     118.163E-03
            3099            3577     129.342E-03     132.333E-03
            3100            3570     117.784E-03     122.437E-03
            3100            3571     132.340E-03     135.473E-03
            3100            3577     129.342E-03     132.333E-03
            3100            3578     141.836E-03     144.802E-03
            3101            3571     132.340E-03     135.473E-03
            3101            3572     147.364E-03     147.308E-03
            3101            3578     141.836E-03     144.802E-03
            3101            3579     152.829E-03     153.532E-03
            3102            3572     147.364E-03     147.308E-03
            3102            3573     159.504E-03     158.003E-03
            3102            3579     152.829E-03     153.532E-03
            3102            3580     161.864E-03     160.934E-03
            3103            3573     159.504E-03     158.003E-03
            3103            3574     166.857E-03     165.453E-03
            3103            3580     161.864E-03     160.934E-03
            3103            3581     167.408E-03     166.417E-03
            3104             345     169.217E-03     168.443E-03
            3104             346     169.255E-03     168.092E-03
            3104            3574     166.857E-03     165.453E-03
            3104            3581     167.408E-03     166.417E-03
            3105              57     108.817E-03     107.576E-03
            3105              58     138.390E-03     137.982E-03
            3105            3575     108.666E-03     109.626E-03
            3105            3582     134.307E-03     137.269E-03
            3106            3575     108.666E-03     109.626E-03
            3106            3576     115.529E-03     118.163E-03
            3106            3582     134.307E-03     137.269E-03
            3106            3583     134.198E-03     138.212E-03
            3107            3576     115.529E-03     118.163E-03
            3107            3577     129.342E-03     132.333E-03
            3107            3583     134.198E-03     138.212E-03
            3107            3584     143.675E-03     145.282E-03
            3108            3577     129.342E-03     132.333E-03
            3108            3578     141.836E-03     144.802E-03
            3108            3584     143.675E-03     145.282E-03
            3108            3585     152.721E-03     154.669E-03
            3109            3578     141.836E-03     144.802E-03
            3109            3579     152.829E-03     153.532E-03
            3109            3585     152.721E-03     154.669E-03
            3109            3586     159.253E-03     160.717E-03
            3110            3579     152.829E-03     153.532E-03
            3110            3580     161.864E-03     160.934E-03
            3110            3586     159.253E-03     160.717E-03
            3110            3587     164.500E-03     164.458E-03
            3111            3580     161.864E-03     160.934E-03
            3111            3581     167.408E-03     166.417E-03
            3111            3587     164.500E-03     164.458E-03
            3111            3588     167.785E-03     167.267E-03
            3112             344     168.812E-03     168.408E-03
            3112             345     169.217E-03     168.443E-03
            3112            3581     167.408E-03     166.417E-03
            3112            3588     167.785E-03     167.267E-03
            3113              58     138.390E-03     137.982E-03
            3113              59     166.982E-03     167.938E-03
            3113            3582     134.307E-03     137.269E-03
            3113            3589     161.703E-03     165.299E-03
            3114            3582     134.307E-03     137.269E-03
            3114            3583     134.198E-03     138.212E-03
            3114            3589     161.703E-03     165.299E-03
            3114            3590     157.681E-03     160.824E-03
            3115            3583     134.198E-03     138.212E-03
            3115            3584     143.675E-03     145.282E-03
            3115            3590     157.681E-03     160.824E-03
            3115            3591     161.628E-03     160.498E-03
            3116            3584     143.675E-03     145.282E-03
            3116            3585     152.721E-03     154.669E-03
            3116            3591     161.628E-03     160.498E-03
            3116            3592     165.740E-03     164.530E-03
            3117            3585     152.721E-03     154.669E-03
            3117            3586     159.253E-03     160.717E-03
            3117            3592     165.740E-03     164.530E-03
            3117            3593     167.599E-03     167.676E-03
            3118            3586     159.253E-03     160.717E-03
            3118            3587     164.500E-03     164.458E-03
            3118            3593     167.599E-03     167.676E-03
            3118            3594     168.335E-03     168.368E-03
            3119            3587     164.500E-03     164.458E-03
            3119            3588     167.785E-03     167.267E-03
            3119            3594     168.335E-03     168.368E-03
            3119            3595     168.724E-03     168.412E-03
            3120             343     168.817E-03     168.389E-03
            3120             344     168.812E-03     168.408E-03
            3120            3588     167.785E-03     167.267E-03
            3120            3595     168.724E-03     168.412E-03
            3121              59     166.982E-03     167.938E-03
            3121              60     197.994E-03     193.352E-03
            3121            3589     161.703E-03     165.299E-03
            3121            3596     191.162E-03     189.912E-03
            3122            3589     161.703E-03     165.299E-03
            3122            3590     157.681E-03     160.824E-03
            3122            3596     191.162E-03     189.912E-03
            3122            3597     181.258E-03     182.127E-03
            3123            3590     157.681E-03     160.824E-03
            3123            3591     161.628E-03     160.498E-03
            3123            3597     181.258E-03     182.127E-03
            3123            3598     178.056E-03     176.308E-03
            3124            3591     161.628E-03     160.498E-03
            3124            3592     165.740E-03     164.530E-03
            3124            3598     178.056E-03     176.308E-03
            3124            3599     177.494E-03     174.597E-03
            3125            3592     165.740E-03     164.530E-03
            3125            3593     167.599E-03     167.676E-03
            3125            3599     177.494E-03     174.597E-03
            3125            3600     175.316E-03     173.881E-03
            3126            3593     167.599E-03     167.676E-03
            3126            3594     168.335E-03     168.368E-03
            3126            3600     175.316E-03     173.881E-03
            3126            3601     171.855E-03     171.752E-03
            3127            3594     168.335E-03     168.368E-03
            3127            3595     168.724E-03     168.412E-03
            3127            3601     171.855E-03     171.752E-03
            3127            3602     169.383E-03     168.899E-03
            3128             342     168.624E-03     167.696E-03
            3128             343     168.817E-03     168.389E-03
            3128            3595     168.724E-03     168.412E-03
            3128            3602     169.383E-03     168.899E-03
            3129              60     197.994E-03     193.352E-03
            3129              61     220.665E-03     232.417E-03
            3129            3596     191.162E-03     189.912E-03
            3129            3603     211.126E-03     230.139E-03
            3130            3596     191.162E-03     189.912E-03
            3130            3597     181.258E-03     182.127E-03
            3130            3603     211.126E-03     230.139E-03
            3130            3604     197.260E-03     220.403E-03
            3131            3597     181.258E-03     182.127E-03
            3131            3598     178.056E-03     176.308E-03
            3131            3604     197.260E-03     220.403E-03
            3131            3605     190.810E-03     205.467E-03
            3132            3598     178.056E-03     176.308E-03
            3132            3599     177.494E-03     174.597E-03
            3132            3605     190.810E-03     205.467E-03
            3132            3606     186.442E-03     194.357E-03
            3133            3599     177.494E-03     174.597E-03
            3133            3600     175.316E-03     173.881E-03
            3133            3606     186.442E-03     194.357E-03
            3133            3607     180.477E-03     186.731E-03
            3134            3600     175.316E-03     173.881E-03
            3134            3601     171.855E-03     171.752E-03
            3134            3607     180.477E-03     186.731E-03
            3134            3608     173.422E-03     178.408E-03
            3135            3601     171.855E-03     171.752E-03
            3135            3602     169.383E-03     168.899E-03
            3135            3608     173.422E-03     178.408E-03
            3135            3609     168.702E-03     171.253E-03
            3136             341     167.317E-03     168.427E-03
            3136             342     168.624E-03     167.696E-03
            3136            3602     169.383E-03     168.899E-03
            3136            3609     168.702E-03     171.253E-03
            3137              61     220.665E-03     232.417E-03
            3137              62     272.440E-03     256.964E-03
            3137            3603     211.126E-03     230.139E-03
            3137            3610     267.105E-03     249.943E-03
            3138            3603     211.126E-03     230.139E-03
            3138            3604     197.260E-03     220.403E-03
            3138            3610     267.105E-03     249.943E-03
            3138            3611     251.817E-03     229.635E-03
            3139            3604     197.260E-03     220.403E-03
            3139            3605     190.810E-03     205.467E-03
            3139            3611     251.817E-03     229.635E-03
            3139            3612     234.125E-03     209.726E-03
            3140            3605     190.810E-03     205.467E-03
            3140            3606     186.442E-03     194.357E-03
            3140            3612     234.125E-03     209.726E-03
            3140            3613     217.874E-03     198.373E-03
            3141            3606     186.442E-03     194.357E-03
            3141            3607     180.477E-03     186.731E-03
            3141            3613     217.874E-03     198.373E-03
            3141            3614     200.078E-03     188.778E-03
            3142            3607     180.477E-03     186.731E-03
            3142            3608     173.422E-03     178.408E-03
            3142            3614     200.078E-03     188.778E-03
            3142            3615     184.009E-03     179.486E-03
            3143            3608     173.422E-03     178.408E-03
            3143            3609     168.702E-03     171.253E-03
            3143            3615     184.009E-03     179.486E-03
            3143            3616     173.418E-03     172.064E-03
            3144             340     169.613E-03     169.067E-03
            3144             341     167.317E-03     168.427E-03
            3144            3609     168.702E-03     171.253E-03
            3144            3616     173.418E-03     172.064E-03
            3145              62     272.440E-03     256.964E-03
            3145              63     307.756E-03     301.088E-03
            3145            3610     267.105E-03     249.943E-03
            3145            3617     287.467E-03     284.877E-03
            3146            3610     267.105E-03     249.943E-03
            3146            3611     251.817E-03     229.635E-03
            3146            3617     287.467E-03     284.877E-03
            3146            3618     254.893E-03     254.564E-03
            3147            3611     251.817E-03     229.635E-03
            3147            3612     234.125E-03     209.726E-03
            3147            3618     254.893E-03     254.564E-03
            3147            3619     234.720E-03     230.476E-03
            3148            3612     234.125E-03     209.726E-03
            3148            3613     217.874E-03     198.373E-03
            3148            3619     234.720E-03     230.476E-03
            3148            3620     216.719E-03     210.414E-03
            3149            3613     217.874E-03     198.373E-03
            3149            3614     200.078E-03     188.778E-03
            3149            3620     216.719E-03     210.414E-03
            3149            3621     198.366E-03     192.704E-03
            3150            3614     200.078E-03     188.778E-03
            3150            3615     184.009E-03     179.486E-03
            3150            3621     198.366E-03     192.704E-03
            3150            3622     183.258E-03     178.443E-03
            3151            3615     184.009E-03     179.486E-03
            3151            3616     173.418E-03     172.064E-03
            3151            3622     183.258E-03     178.443E-03
            3151            3623     172.786E-03     167.963E-03
            3152             339     169.180E-03     164.108E-03
            3152             340     169.613E-03     169.067E-03
            3152            3616     173.418E-03     172.064E-03
            3152            3623     172.786E-03     167.963E-03
            3153              63     307.756E-03     301.088E-03
            3153              64     256.381E-03     287.298E-03
            3153            3617     287.467E-03     284.877E-03
            3153            3624     241.304E-03     290.122E-03
            3154            3617     287.467E-03     284.877E-03
            3154            3618     254.893E-03     254.564E-03
            3154            3624     241.304E-03     290.122E-03
            3154            3625     218.505E-03     284.736E-03
            3155            3618     254.893E-03     254.564E-03
            3155            3619     234.720E-03     230.476E-03
            3155            3625     218.505E-03     284.736E-03
            3155            3626     204.836E-03     258.167E-03
            3156            3619     234.720E-03     230.476E-03
            3156            3620     216.719E-03     210.414E-03
            3156            3626     204.836E-03     258.167E-03
            3156            3627     192.686E-03     224.673E-03
            3157            3620     216.719E-03     210.414E-03
            3157            3621     198.366E-03     192.704E-03
            3157            3627     192.686E-03     224.673E-03
            3157            3628     182.205E-03     199.224E-03
            3158            3621     198.366E-03     192.704E-03
            3158            3622     183.258E-03     178.443E-03
            3158            3628     182.205E-03     199.224E-03
            3158            3629     174.857E-03     182.131E-03
            3159            3622     183.258E-03     178.443E-03
            3159            3623     172.786E-03     167.963E-03
            3159            3629     174.857E-03     182.131E-03
            3159            3630     170.364E-03     171.747E-03
            3160             338     168.942E-03     168.144E-03
            3160             339     169.180E-03     164.108E-03
            3160            3623     172.786E-03     167.963E-03
            3160            3630     170.364E-03     171.747E-03
            3161              64     256.381E-03     287.298E-03
            3161              65     242.336E-03     225.426E-03
            3161            3624     241.304E-03     290.122E-03
            3161            3631     253.779E-03     243.815E-03
            3162            3624     241.304E-03     290.122E-03
            3162            3625     218.505E-03     284.736E-03
            3162            3631     253.779E-03     243.815E-03
            3162            3632     259.929E-03     258.560E-03
            3163            3625     218.505E-03     284.736E-03
            3163            3626     204.836E-03     258.167E-03
            3163            3632     259.929E-03     258.560E-03
            3163            3633     243.175E-03     242.033E-03
            3164            3626     204.836E-03     258.167E-03
            3164            3627     192.686E-03     224.673E-03
            3164            3633     243.175E-03     242.033E-03
            3164            3634     220.131E-03     216.333E-03
            3165            3627     192.686E-03     224.673E-03
            3165            3628     182.205E-03     199.224E-03
            3165            3634     220.131E-03     216.333E-03
            3165            3635     199.699E-03     194.979E-03
            3166            3628     182.205E-03     199.224E-03
            3166            3629     174.857E-03     182.131E-03
            3166            3635     199.699E-03     194.979E-03
            3166            3636     184.712E-03     181.869E-03
            3167            3629     174.857E-03     182.131E-03
            3167            3630     170.364E-03     171.747E-03
            3167            3636     184.712E-03     181.869E-03
            3167            3637     175.292E-03     175.195E-03
            3168             337     172.007E-03     173.091E-03
            3168             338     168.942E-03     168.144E-03
            3168            3630     170.364E-03     171.747E-03
            3168            3637     175.292E-03     175.195E-03
            3169              65     242.336E-03     225.426E-03
            3169              66     268.350E-03     255.069E-03
            3169            3631     253.779E-03     243.815E-03
            3169            3638     272.295E-03     262.729E-03
            3170            3631     253.779E-03     243.815E-03
            3170            3632     259.929E-03     258.560E-03
            3170            3638     272.295E-03     262.729E-03
            3170            3639     274.896E-03     266.770E-03
            3171            3632     259.929E-03     258.560E-03
            3171            3633     243.175E-03     242.033E-03
            3171            3639     274.896E-03     266.770E-03
            3171            3640     262.720E-03     254.975E-03
            3172            3633     243.175E-03     242.033E-03
            3172            3634     220.131E-03     216.333E-03
            3172            3640     262.720E-03     254.975E-03
            3172            3641     238.344E-03     233.644E-03
            3173            3634     220.131E-03     216.333E-03
            3173            3635     199.699E-03     194.979E-03
            3173            3641     238.344E-03     233.644E-03
            3173            3642     212.879E-03     208.448E-03
            3174            3635     199.699E-03     194.979E-03
            3174            3636     184.712E-03     181.869E-03
            3174            3642     212.879E-03     208.448E-03
            3174            3643     192.117E-03     187.892E-03
            3175            3636     184.712E-03     181.869E-03
            3175            3637     175.292E-03     175.195E-03
            3175            3643     192.117E-03     187.892E-03
            3175            3644     178.161E-03     174.895E-03
            3176             336     173.045E-03     170.415E-03
            3176             337     172.007E-03     173.091E-03
            3176            3637     175.292E-03     175.195E-03
            3176            3644     178.161E-03     174.895E-03
            3177              66     268.350E-03     255.069E-03
            3177              67     288.626E-03     291.721E-03
            3177            3638     272.295E-03     262.729E-03
            3177            3645     280.016E-03     293.346E-03
            3178            3638     272.295E-03     262.729E-03
            3178            3639     274.896E-03     266.770E-03
            3178            3645     280.016E-03     293.346E-03
            3178            3646     268.655E-03     288.523E-03
            3179            3639     274.896E-03     266.770E-03
            3179            3640     262.720E-03     254.975E-03
            3179            3646     268.655E-03     288.523E-03
            3179            3647     259.777E-03     273.543E-03
            3180            3640     262.720E-03     254.975E-03
            3180            3641     238.344E-03     233.644E-03
            3180            3647     259.777E-03     273.543E-03
            3180            3648     241.826E-03     251.912E-03
            3181            3641     238.344E-03     233.644E-03
            3181            3642     212.879E-03     208.448E-03
            3181            3648     241.826E-03     251.912E-03
            3181            3649     217.986E-03     223.888E-03
            3182            3642     212.879E-03     208.448E-03
            3182            3643     192.117E-03     187.892E-03
            3182            3649     217.986E-03     223.888E-03
            3182            3650     195.915E-03     196.995E-03
            3183            3643     192.117E-03     187.892E-03
            3183            3644     178.161E-03     174.895E-03
            3183            3650     195.915E-03     196.995E-03
            3183            3651     179.958E-03     178.419E-03
            3184             335     174.052E-03     171.811E-03
            3184             336     173.045E-03     170.415E-03
            3184            3644     178.161E-03     174.895E-03
            3184            3651     179.958E-03     178.419E-03
            3185              67     288.626E-03     291.721E-03
            3185              68     319.967E-03     317.456E-03
            3185            3645     280.016E-03     293.346E-03
            3185            3652     310.599E-03     313.288E-03
            3186            3645     280.016E-03     293.346E-03
            3186            3646     268.655E-03     288.523E-03
            3186            3652     310.599E-03     313.288E-03
            3186            3653     294.226E-03     298.628E-03
            3187            3646     268.655E-03     288.523E-03
            3187            3647     259.777E-03     273.543E-03
            3187            3653     294.226E-03     298.628E-03
            3187            3654     279.243E-03     278.785E-03
            3188            3647     259.777E-03     273.543E-03
            3188            3648     241.826E-03     251.912E-03
            3188            3654     279.243E-03     278.785E-03
            3188            3655     258.950E-03     257.929E-03
            3189            3648     241.826E-03     251.912E-03
            3189            3649     217.986E-03     223.888E-03
            3189            3655     258.950E-03     257.929E-03
            3189            3656     231.418E-03     231.283E-03
            3190            3649     217.986E-03     223.888E-03
            3190            3650     195.915E-03     196.995E-03
            3190            3656     231.418E-03     231.283E-03
            3190            3657     202.918E-03     202.313E-03
            3191            3650     195.915E-03     196.995E-03
            3191            3651     179.958E-03     178.419E-03
            3191            3657     202.918E-03     202.313E-03
            3191            3658     181.421E-03     180.241E-03
            3192             334     173.206E-03     171.997E-03
            3192             335     174.052E-03     171.811E-03
            3192            3651     179.958E-03     178.419E-03
            3192            3658     181.421E-03     180.241E-03
            3193              68     319.967E-03     317.456E-03
            3193              69     347.591E-03     347.137E-03
            3193            3652     310.599E-03     313.288E-03
            3193            3659     334.293E-03     342.803E-03
            3194            3652     310.599E-03     313.288E-03
            3194            3653     294.226E-03     298.628E-03
            3194            3659     334.293E-03     342.803E-03
            3194            3660     311.946E-03     325.505E-03
            3195            3653     294.226E-03     298.628E-03
            3195            3654     279.243E-03     278.785E-03
            3195            3660     311.946E-03     325.505E-03
            3195            3661     294.234E-03     299.349E-03
            3196            3654     279.243E-03     278.785E-03
            3196            3655     258.950E-03     257.929E-03
            3196            3661     294.234E-03     299.349E-03
            3196            3662     272.209E-03     272.905E-03
            3197            3655     258.950E-03     257.929E-03
            3197            3656     231.418E-03     231.283E-03
            3197            3662     272.209E-03     272.905E-03
            3197            3663     241.816E-03     243.360E-03
            3198            3656     231.418E-03     231.283E-03
            3198            3657     202.918E-03     202.313E-03
            3198            3663     241.816E-03     243.360E-03
            3198            3664     208.664E-03     210.282E-03
            3199            3657     202.918E-03     202.313E-03
            3199            3658     181.421E-03     180.241E-03
            3199            3664     208.664E-03     210.282E-03
            3199            3665     182.548E-03     182.735E-03
            3200             333     172.552E-03     171.975E-03
            3200             334     173.206E-03     171.997E-03
            3200            3658     181.421E-03     180.241E-03
            3200            3665     182.548E-03     182.735E-03
            3201              69     347.591E-03     347.137E-03
            3201              70     374.184E-03     376.405E-03
            3201            3659     334.293E-03     342.803E-03
            3201            3666     361.474E-03     370.301E-03
            3202            3659     334.293E-03     342.803E-03
            3202            3660     311.946E-03     325.505E-03
            3202            3666     361.474E-03     370.301E-03
            3202            3667     338.150E-03     348.792E-03
            3203            3660     311.946E-03     325.505E-03
            3203            3661     294.234E-03     299.349E-03
            3203            3667     338.150E-03     348.792E-03
            3203            3668     315.937E-03     317.335E-03
            3204            3661     294.234E-03     299.349E-03
            3204            3662     272.209E-03     272.905E-03
            3204            3668     315.937E-03     317.335E-03
            3204            3669     289.331E-03     286.063E-03
            3205            3662     272.209E-03     272.905E-03
            3205            3663     241.816E-03     243.360E-03
            3205            3669     289.331E-03     286.063E-03
            3205            3670     254.692E-03     253.106E-03
            3206            3663     241.816E-03     243.360E-03
            3206            3664     208.664E-03     210.282E-03
            3206            3670     254.692E-03     253.106E-03
            3206            3671     215.786E-03     216.843E-03
            3207            3664     208.664E-03     210.282E-03
            3207            3665     182.548E-03     182.735E-03
            3207            3671     215.786E-03     216.843E-03
            3207            3672     184.295E-03     185.297E-03
            3208             332     172.077E-03     172.278E-03
            3208             333     172.552E-03     171.975E-03
            3208            3665     182.548E-03     182.735E-03
            3208            3672     184.295E-03     185.297E-03
            3209              70     374.184E-03     376.405E-03
            3209              71     406.108E-03     398.534E-03
            3209            3666     361.474E-03     370.301E-03
            3209            3673     392.569E-03     391.911E-03
            3210            3666     361.474E-03     370.301E-03
            3210            3667     338.150E-03     348.792E-03
            3210            3673     392.569E-03     391.911E-03
            3210            3674     364.699E-03     368.727E-03
            3211            3667     338.150E-03     348.792E-03
            3211            3668     315.937E-03     317.335E-03
            3211            3674     364.699E-03     368.727E-03
            3211            3675     336.501E-03     334.244E-03
            3212            3668     315.937E-03     317.335E-03
            3212            3669     289.331E-03     286.063E-03
            3212            3675     336.501E-03     334.244E-03
            3212            3676     305.166E-03     298.431E-03
            3213            3669     289.331E-03     286.063E-03
            3213            3670     254.692E-03     253.106E-03
            3213            3676     305.166E-03     298.431E-03
            3213            3677     265.531E-03     261.242E-03
            3214            3670     254.692E-03     253.106E-03
            3214            3671     215.786E-03     216.843E-03
            3214            3677     265.531E-03     261.242E-03
            3214            3678     221.368E-03     221.254E-03
            3215            3671     215.786E-03     216.843E-03
            3215            3672     184.295E-03     185.297E-03
            3215            3678     221.368E-03     221.254E-03
            3215            3679     185.417E-03     185.926E-03
            3216             331     171.460E-03     171.288E-03
            3216             332     172.077E-03     172.278E-03
            3216            3672     184.295E-03     185.297E-03
            3216            3679     185.417E-03     185.926E-03
            3217              71     406.108E-03     398.534E-03
            3217              72     424.611E-03     442.579E-03
            3217            3673     392.569E-03     391.911E-03
            3217            3680     407.269E-03     439.588E-03
            3218            3673     392.569E-03     391.911E-03
            3218            3674     364.699E-03     368.727E-03
            3218            3680     407.269E-03     439.588E-03
            3218            3681     376.634E-03     418.035E-03
            3219            3674     364.699E-03     368.727E-03
            3219            3675     336.501E-03     334.244E-03
            3219            3681     376.634E-03     418.035E-03
            3219            3682     348.412E-03     375.698E-03
            3220            3675     336.501E-03     334.244E-03
            3220            3676     305.166E-03     298.431E-03
            3220            3682     348.412E-03     375.698E-03
            3220            3683     313.787E-03     329.704E-03
            3221            3676     305.166E-03     298.431E-03
            3221            3677     265.531E-03     261.242E-03
            3221            3683     313.787E-03     329.704E-03
            3221            3684     269.630E-03     282.411E-03
            3222            3677     265.531E-03     261.242E-03
            3222            3678     221.368E-03     221.254E-03
            3222            3684     269.630E-03     282.411E-03
            3222            3685     221.796E-03     232.441E-03
            3223            3678     221.368E-03     221.254E-03
            3223            3679     185.417E-03     185.926E-03
            3223            3685     221.796E-03     232.441E-03
            3223            3686     183.761E-03     190.141E-03
            3224             330     169.098E-03     172.739E-03
            3224             331     171.460E-03     171.288E-03
            3224            3679     185.417E-03     185.926E-03
            3224            3686     183.761E-03     190.141E-03
            3225              72     424.611E-03     442.579E-03
            3225              73     488.526E-03     461.466E-03
            3225            3680     407.269E-03     439.588E-03
            3225            3687     481.339E-03     453.560E-03
            3226            3680     407.269E-03     439.588E-03
            3226            3681     376.634E-03     418.035E-03
            3226            3687     481.339E-03     453.560E-03
            3226            3688     455.564E-03     420.208E-03
            3227            3681     376.634E-03     418.035E-03
            3227            3682     348.412E-03     375.698E-03
            3227            3688     455.564E-03     420.208E-03
            3227            3689     414.193E-03     374.003E-03
            3228            3682     348.412E-03     375.698E-03
            3228            3683     313.787E-03     329.704E-03
            3228            3689     414.193E-03     374.003E-03
            3228            3690     362.446E-03     329.448E-03
            3229            3683     313.787E-03     329.704E-03
            3229            3684     269.630E-03     282.411E-03
            3229            3690     362.446E-03     329.448E-03
            3229            3691     301.240E-03     280.050E-03
            3230            3684     269.630E-03     282.411E-03
            3230            3685     221.796E-03     232.441E-03
            3230            3691     301.240E-03     280.050E-03
            3230            3692     240.260E-03     230.509E-03
            3231            3685     221.796E-03     232.441E-03
            3231            3686     183.761E-03     190.141E-03
            3231            3692     240.260E-03     230.509E-03
            3231            3693     192.356E-03     190.114E-03
            3232             329     173.188E-03     173.656E-03
            3232             330     169.098E-03     172.739E-03
            3232            3686     183.761E-03     190.141E-03
            3232            3693     192.356E-03     190.114E-03
            3233              73     488.526E-03     461.466E-03
            3233              74     526.294E-03     510.481E-03
            3233            3687     481.339E-03     453.560E-03
            3233            3694     500.757E-03     493.058E-03
            3234            3687     481.339E-03     453.560E-03
            3234            3688     455.564E-03     420.208E-03
            3234            3694     500.757E-03     493.058E-03
            3234            3695     452.800E-03     450.570E-03
            3235            3688     455.564E-03     420.208E-03
            3235            3689     414.193E-03     374.003E-03
            3235            3695     452.800E-03     450.570E-03
            3235            3696     406.907E-03     399.001E-03
            3236            3689     414.193E-03     374.003E-03
            3236            3690     362.446E-03     329.448E-03
            3236            3696     406.907E-03     399.001E-03
            3236            3697     352.929E-03     341.606E-03
            3237            3690     362.446E-03     329.448E-03
            3237            3691     301.240E-03     280.050E-03
            3237            3697     352.929E-03     341.606E-03
            3237            3698     292.652E-03     281.967E-03
            3238            3691     301.240E-03     280.050E-03
            3238            3692     240.260E-03     230.509E-03
            3238            3698     292.652E-03     281.967E-03
            3238            3699     235.361E-03     226.721E-03
            3239            3692     240.260E-03     230.509E-03
            3239            3693     192.356E-03     190.114E-03
            3239            3699     235.361E-03     226.721E-03
            3239            3700     190.273E-03     182.783E-03
            3240             328     172.701E-03     165.343E-03
            3240             329     173.188E-03     173.656E-03
            3240            3693     192.356E-03     190.114E-03
            3240            3700     190.273E-03     182.783E-03
            3241              74     526.294E-03     510.481E-03
            3241              75     458.148E-03     513.991E-03
            3241            3694     500.757E-03     493.058E-03
            3241            3701     429.069E-03     516.853E-03
            3242            3694     500.757E-03     493.058E-03
            3242            3695     452.800E-03     450.570E-03
            3242            3701     429.069E-03     516.853E-03
            3242            3702     382.915E-03     502.254E-03
            3243            3695     452.800E-03     450.570E-03
            3243            3696     406.907E-03     399.001E-03
            3243            3702     382.915E-03     502.254E-03
            3243            3703     345.874E-03     444.863E-03
            3244            3696     406.907E-03     399.001E-03
            3244            3697     352.929E-03     341.606E-03
            3244            3703     345.874E-03     444.863E-03
            3244            3704     302.831E-03     366.935E-03
            3245            3697     352.929E-03     341.606E-03
            3245            3698     292.652E-03     281.967E-03
            3245            3704     302.831E-03     366.935E-03
            3245            3705     256.837E-03     295.412E-03
            3246            3698     292.652E-03     281.967E-03
            3246            3699     235.361E-03     226.721E-03
            3246            3705     256.837E-03     295.412E-03
            3246            3706     214.699E-03     234.625E-03
            3247            3699     235.361E-03     226.721E-03
            3247            3700     190.273E-03     182.783E-03
            3247            3706     214.699E-03     234.625E-03
            3247            3707     183.731E-03     189.903E-03
            3248             327     171.984E-03     172.443E-03
            3248             328     172.701E-03     165.343E-03
            3248            3700     190.273E-03     182.783E-03
            3248            3707     183.731E-03     189.903E-03
            3249              75     458.148E-03     513.991E-03
            3249              76     458.549E-03     432.375E-03
            3249            3701     429.069E-03     516.853E-03
            3249            3708     464.398E-03     449.448E-03
            3250            3701     429.069E-03     516.853E-03
            3250            3702     382.915E-03     502.254E-03
            3250            3708     464.398E-03     449.448E-03
            3250            3709     455.040E-03     452.068E-03
            3251            3702     382.915E-03     502.254E-03
            3251            3703     345.874E-03     444.863E-03
            3251            3709     455.040E-03     452.068E-03
            3251            3710     413.061E-03     408.359E-03
            3252            3703     345.874E-03     444.863E-03
            3252            3704     302.831E-03     366.935E-03
            3252            3710     413.061E-03     408.359E-03
            3252            3711     354.606E-03     345.939E-03
            3253            3704     302.831E-03     366.935E-03
            3253            3705     256.837E-03     295.412E-03
            3253            3711     354.606E-03     345.939E-03
            3253            3712     292.634E-03     283.400E-03
            3254            3705     256.837E-03     295.412E-03
            3254            3706     214.699E-03     234.625E-03
            3254            3712     292.634E-03     283.400E-03
            3254            3713     236.257E-03     230.932E-03
            3255            3706     214.699E-03     234.625E-03
            3255            3707     183.731E-03     189.903E-03
            3255            3713     236.257E-03     230.932E-03
            3255            3714     193.568E-03     193.891E-03
            3256             326     176.964E-03     179.945E-03
            3256             327     171.984E-03     172.443E-03
            3256            3707     183.731E-03     189.903E-03
            3256            3714     193.568E-03     193.891E-03
            3257              76     458.549E-03     432.375E-03
            3257              77     481.701E-03     456.671E-03
            3257            3708     464.398E-03     449.448E-03
            3257            3715     483.393E-03     463.268E-03
            3258            3708     464.398E-03     449.448E-03
            3258            3709     455.040E-03     452.068E-03
            3258            3715     483.393E-03     463.268E-03
            3258            3716     475.663E-03     454.735E-03
            3259            3709     455.040E-03     452.068E-03
            3259            3710     413.061E-03     408.359E-03
            3259            3716     475.663E-03     454.735E-03
            3259            3717     441.386E-03     418.542E-03
            3260            3710     413.061E-03     408.359E-03
            3260            3711     354.606E-03     345.939E-03
            3260            3717     441.386E-03     418.542E-03
            3260            3718     383.060E-03     366.315E-03
            3261            3711     354.606E-03     345.939E-03
            3261            3712     292.634E-03     283.400E-03
            3261            3718     383.060E-03     366.315E-03
            3261            3719     315.110E-03     302.495E-03
            3262            3712     292.634E-03     283.400E-03
            3262            3713     236.257E-03     230.932E-03
            3262            3719     315.110E-03     302.495E-03
            3262            3720     250.065E-03     241.012E-03
            3263            3713     236.257E-03     230.932E-03
            3263            3714     193.568E-03     193.891E-03
            3263            3720     250.065E-03     241.012E-03
            3263            3721     199.094E-03     193.478E-03
            3264             325     178.690E-03     174.771E-03
            3264             326     176.964E-03     179.945E-03
            3264            3714     193.568E-03     193.891E-03
            3264            3721     199.094E-03     193.478E-03
            3265              77     481.701E-03     456.671E-03
            3265              78     489.435E-03     498.323E-03
            3265            3715     483.393E-03     463.268E-03
            3265            3722     472.716E-03     499.161E-03
            3266            3715     483.393E-03     463.268E-03
            3266            3716     475.663E-03     454.735E-03
            3266            3722     472.716E-03     499.161E-03
            3266            3723     445.781E-03     483.309E-03
            3267            3716     475.663E-03     454.735E-03
            3267            3717     441.386E-03     418.542E-03
            3267            3723     445.781E-03     483.309E-03
            3267            3724     418.724E-03     444.026E-03
            3268            3717     441.386E-03     418.542E-03
            3268            3718     383.060E-03     366.315E-03
            3268            3724     418.724E-03     444.026E-03
            3268            3725     373.890E-03     391.655E-03
            3269            3718     383.060E-03     366.315E-03
            3269            3719     315.110E-03     302.495E-03
            3269            3725     373.890E-03     391.655E-03
            3269            3726     313.825E-03     326.073E-03
            3270            3719     315.110E-03     302.495E-03
            3270            3720     250.065E-03     241.012E-03
            3270            3726     313.825E-03     326.073E-03
            3270            3727     251.498E-03     256.612E-03
            3271            3720     250.065E-03     241.012E-03
            3271            3721     199.094E-03     193.478E-03
            3271            3727     251.498E-03     256.612E-03
            3271            3728     200.893E-03     200.202E-03
            3272             324     180.542E-03     177.451E-03
            3272             325     178.690E-03     174.771E-03
            3272            3721     199.094E-03     193.478E-03
            3272            3728     200.893E-03     200.202E-03
            3273              78     489.435E-03     498.323E-03
            3273              79     524.190E-03     518.832E-03
            3273            3722     472.716E-03     499.161E-03
            3273            3729     508.055E-03     511.409E-03
            3274            3722     472.716E-03     499.161E-03
            3274            3723     445.781E-03     483.309E-03
            3274            3729     508.055E-03     511.409E-03
            3274            3730     475.827E-03     482.985E-03
            3275            3723     445.781E-03     483.309E-03
            3275            3724     418.724E-03     444.026E-03
            3275            3730     475.827E-03     482.985E-03
            3275            3731     440.827E-03     439.685E-03
            3276            3724     418.724E-03     444.026E-03
            3276            3725     373.890E-03     391.655E-03
            3276            3731     440.827E-03     439.685E-03
            3276            3732     394.516E-03     390.807E-03
            3277            3725     373.890E-03     391.655E-03
            3277            3726     313.825E-03     326.073E-03
            3277            3732     394.516E-03     390.807E-03
            3277            3733     332.048E-03     330.425E-03
            3278            3726     313.825E-03     326.073E-03
            3278            3727     251.498E-03     256.612E-03
            3278            3733     332.048E-03     330.425E-03
            3278            3734     262.411E-03     261.801E-03
            3279            3727     251.498E-03     256.612E-03
            3279            3728     200.893E-03     200.202E-03
            3279            3734     262.411E-03     261.801E-03
            3279            3735     203.506E-03     202.455E-03
            3280             323     179.173E-03     177.932E-03
            3280             324     180.542E-03     177.451E-03
            3280            3728     200.893E-03     200.202E-03
            3280            3735     203.506E-03     202.455E-03
            3281              79     524.190E-03     518.832E-03
            3281              80     550.587E-03     550.629E-03
            3281            3729     508.055E-03     511.409E-03
            3281            3736     529.795E-03     543.288E-03
            3282            3729     508.055E-03     511.409E-03
            3282            3730     475.827E-03     482.985E-03
            3282            3736     529.795E-03     543.288E-03
            3282            3737     491.451E-03     512.294E-03
            3283            3730     475.827E-03     482.985E-03
            3283            3731     440.827E-03     439.685E-03
            3283            3737     491.451E-03     512.294E-03
            3283            3738     454.673E-03     462.093E-03
            3284            3731     440.827E-03     439.685E-03
            3284            3732     394.516E-03     390.807E-03
            3284            3738     454.673E-03     462.093E-03
            3284            3739     407.734E-03     407.454E-03
            3285            3732     394.516E-03     390.807E-03
            3285            3733     332.048E-03     330.425E-03
            3285            3739     407.734E-03     407.454E-03
            3285            3740     343.752E-03     344.924E-03
            3286            3733     332.048E-03     330.425E-03
            3286            3734     262.411E-03     261.801E-03
            3286            3740     343.752E-03     344.924E-03
            3286            3741     269.734E-03     272.530E-03
            3287            3734     262.411E-03     261.801E-03
            3287            3735     203.506E-03     202.455E-03
            3287            3741     269.734E-03     272.530E-03
            3287            3742     205.106E-03     206.223E-03
            3288             322     178.228E-03     177.872E-03
            3288             323     179.173E-03     177.932E-03
            3288            3735     203.506E-03     202.455E-03
            3288            3742     205.106E-03     206.223E-03
            3289              80     550.587E-03     550.629E-03
            3289              81     577.208E-03     579.928E-03
            3289            3736     529.795E-03     543.288E-03
            3289            3743     557.010E-03     570.820E-03
            3290            3736     529.795E-03     543.288E-03
            3290            3737     491.451E-03     512.294E-03
            3290            3743     557.010E-03     570.820E-03
            3290            3744     517.848E-03     535.732E-03
            3291            3737     491.451E-03     512.294E-03
            3291            3738     454.673E-03     462.093E-03
            3291            3744     517.848E-03     535.732E-03
            3291            3745     476.877E-03     480.488E-03
            3292            3738     454.673E-03     462.093E-03
            3292            3739     407.734E-03     407.454E-03
            3292            3745     476.877E-03     480.488E-03
            3292            3746     425.744E-03     421.329E-03
            3293            3739     407.734E-03     407.454E-03
            3293            3740     343.752E-03     344.924E-03
            3293            3746     425.744E-03     421.329E-03
            3293            3747     357.942E-03     355.729E-03
            3294            3740     343.752E-03     344.924E-03
            3294            3741     269.734E-03     272.530E-03
            3294            3747     357.942E-03     355.729E-03
            3294            3748     278.192E-03     280.417E-03
            3295            3741     269.734E-03     272.530E-03
            3295            3742     205.106E-03     206.223E-03
            3295            3748     278.192E-03     280.417E-03
            3295            3749     207.312E-03     209.571E-03
            3296             321     177.507E-03     178.330E-03
            3296             322     178.228E-03     177.872E-03
            3296            3742     205.106E-03     206.223E-03
            3296            3749     207.312E-03     209.571E-03
            3297              81     577.208E-03     579.928E-03
            3297              82     610.408E-03     599.984E-03
            3297            3743     557.010E-03     570.820E-03
            3297            3750     590.150E-03     590.138E-03
            3298            3743     557.010E-03     570.820E-03
            3298            3744     517.848E-03     535.732E-03
            3298            3750     590.150E-03     590.138E-03
            3298            3751     546.829E-03     553.563E-03
            3299            3744     517.848E-03     535.732E-03
            3299            3745     476.877E-03     480.488E-03
            3299            3751     546.829E-03     553.563E-03
            3299            3752     499.443E-03     496.432E-03
            3300            3745     476.877E-03     480.488E-03
            3300            3746     425.744E-03     421.329E-03
            3300            3752     499.443E-03     496.432E-03
            3300            3753     443.172E-03     433.490E-03
            3301            3746     425.744E-03     421.329E-03
            3301            3747     357.942E-03     355.729E-03
            3301            3753     443.172E-03     433.490E-03
            3301            3754     369.726E-03     363.633E-03
            3302            3747     357.942E-03     355.729E-03
            3302            3748     278.192E-03     280.417E-03
            3302            3754     369.726E-03     363.633E-03
            3302            3755     284.366E-03     284.475E-03
            3303            3748     278.192E-03     280.417E-03
            3303            3749     207.312E-03     209.571E-03
            3303            3755     284.366E-03     284.475E-03
            3303            3756     208.515E-03     209.747E-03
            3304             320     176.528E-03     176.859E-03
            3304             321     177.507E-03     178.330E-03
            3304            3749     207.312E-03     209.571E-03
            3304            3756     208.515E-03     209.747E-03
            3305              82     610.408E-03     599.984E-03
            3305              83     625.493E-03     649.297E-03
            3305            3750     590.150E-03     590.138E-03
            3305            3757     600.213E-03     645.608E-03
            3306            3750     590.150E-03     590.138E-03
            3306            3751     546.829E-03     553.563E-03
            3306            3757     600.213E-03     645.608E-03
            3306            3758     554.686E-03     613.740E-03
            3307            3751     546.829E-03     553.563E-03
            3307            3752     499.443E-03     496.432E-03
            3307            3758     554.686E-03     613.740E-03
            3307            3759     509.512E-03     548.426E-03
            3308            3752     499.443E-03     496.432E-03
            3308            3753     443.172E-03     433.490E-03
            3308            3759     509.512E-03     548.426E-03
            3308            3760     449.777E-03     473.346E-03
            3309            3753     443.172E-03     433.490E-03
            3309            3754     369.726E-03     363.633E-03
            3309            3760     449.777E-03     473.346E-03
            3309            3761     371.093E-03     390.546E-03
            3310            3754     369.726E-03     363.633E-03
            3310            3755     284.366E-03     284.475E-03
            3310            3761     371.093E-03     390.546E-03
            3310            3762     282.457E-03     298.857E-03
            3311            3755     284.366E-03     284.475E-03
            3311            3756     208.515E-03     209.747E-03
            3311            3762     282.457E-03     298.857E-03
            3311            3763     205.356E-03     215.438E-03
            3312             319     173.012E-03     178.852E-03
            3312             320     176.528E-03     176.859E-03
            3312            3756     208.515E-03     209.747E-03
            3312            3763     205.356E-03     215.438E-03
            3313              83     625.493E-03     649.297E-03
            3313              84     701.912E-03     663.224E-03
            3313            3757     600.213E-03     645.608E-03
            3313            3764     692.860E-03     654.519E-03
            3314            3757     600.213E-03     645.608E-03
            3314            3758     554.686E-03     613.740E-03
            3314            3764     692.860E-03     654.519E-03
            3314            3765     657.706E-03     609.558E-03
            3315            3758     554.686E-03     613.740E-03
            3315            3759     509.512E-03     548.426E-03
            3315            3765     657.706E-03     609.558E-03
            3315            3766     595.859E-03     540.575E-03
            3316            3759     509.512E-03     548.426E-03
            3316            3760     449.777E-03     473.346E-03
            3316            3766     595.859E-03     540.575E-03
            3316            3767     512.954E-03     467.478E-03
            3317            3760     449.777E-03     473.346E-03
            3317            3761     371.093E-03     390.546E-03
            3317            3767     512.954E-03     467.478E-03
            3317            3768     412.196E-03     382.184E-03
            3318            3761     371.093E-03     390.546E-03
            3318            3762     282.457E-03     298.857E-03
            3318            3768     412.196E-03     382.184E-03
            3318            3769     307.293E-03     292.542E-03
            3319            3762     282.457E-03     298.857E-03
            3319            3763     205.356E-03     215.438E-03
            3319            3769     307.293E-03     292.542E-03
            3319            3770     217.421E-03     213.755E-03
            3320             318     178.855E-03     179.688E-03
            3320             319     173.012E-03     178.852E-03
            3320            3763     205.356E-03     215.438E-03
            3320            3770     217.421E-03     213.755E-03
            3321              84     701.912E-03     663.224E-03
            3321              85     742.740E-03     717.677E-03
            3321            3764     692.860E-03     654.519E-03
            3321            3771     712.068E-03     699.407E-03
            3322            3764     692.860E-03     654.519E-03
            3322            3765     657.706E-03     609.558E-03
            3322            3771     712.068E-03     699.407E-03
            3322            3772     649.621E-03     645.907E-03
            3323            3765     657.706E-03     609.558E-03
            3323            3766     595.859E-03     540.575E-03
            3323            3772     649.621E-03     645.907E-03
            3323            3773     580.538E-03     569.203E-03
            3324            3766     595.859E-03     540.575E-03
            3324            3767     512.954E-03     467.478E-03
            3324            3773     580.538E-03     569.203E-03
            3324            3774     494.492E-03     478.292E-03
            3325            3767     512.954E-03     467.478E-03
            3325            3768     412.196E-03     382.184E-03
            3325            3774     494.492E-03     478.292E-03
            3325            3775     395.879E-03     380.554E-03
            3326            3768     412.196E-03     382.184E-03
            3326            3769     307.293E-03     292.542E-03
            3326            3775     395.879E-03     380.554E-03
            3326            3776     297.174E-03     285.229E-03
            3327            3769     307.293E-03     292.542E-03
            3327            3770     217.421E-03     213.755E-03
            3327            3776     297.174E-03     285.229E-03
            3327            3777     213.140E-03     203.212E-03
            3328             317     177.937E-03     168.217E-03
            3328             318     178.855E-03     179.688E-03
            3328            3770     217.421E-03     213.755E-03
            3328            3777     213.140E-03     203.212E-03
            3329              85     742.740E-03     717.677E-03
            3329              86     658.394E-03     739.032E-03
            3329            3771     712.068E-03     699.407E-03
            3329            3778     615.347E-03     741.849E-03
            3330            3771     712.068E-03     699.407E-03
            3330            3772     649.621E-03     645.907E-03
            3330            3778     615.347E-03     741.849E-03
            3330            3779     546.676E-03     718.104E-03
            3331            3772     649.621E-03     645.907E-03
            3331            3773     580.538E-03     569.203E-03
            3331            3779     546.676E-03     718.104E-03
            3331            3780     489.108E-03     631.382E-03
            3332            3773     580.538E-03     569.203E-03
            3332            3774     494.492E-03     478.292E-03
            3332            3780     489.108E-03     631.382E-03
            3332            3781     419.368E-03     513.190E-03
            3333            3774     494.492E-03     478.292E-03
            3333            3775     395.879E-03     380.554E-03
            3333            3781     419.368E-03     513.190E-03
            3333            3782     341.792E-03     401.006E-03
            3334            3775     395.879E-03     380.554E-03
            3334            3776     297.174E-03     285.229E-03
            3334            3782     341.792E-03     401.006E-03
            3334            3783     264.820E-03     298.494E-03
            3335            3776     297.174E-03     285.229E-03
            3335            3777     213.140E-03     203.212E-03
            3335            3783     264.820E-03     298.494E-03
            3335            3784     201.867E-03     214.579E-03
            3336             316     176.109E-03     179.026E-03
            3336             317     177.937E-03     168.217E-03
            3336            3777     213.140E-03     203.212E-03
            3336            3784     201.867E-03     214.579E-03
            3337              86     658.394E-03     739.032E-03
            3337              87     672.814E-03     638.440E-03
            3337            3778     615.347E-03     741.849E-03
            3337            3785     673.201E-03     653.901E-03
            3338            3778     615.347E-03     741.849E-03
            3338            3779     546.676E-03     718.104E-03
            3338            3785     673.201E-03     653.901E-03
            3338            3786     648.432E-03     643.952E-03
            3339            3779     546.676E-03     718.104E-03
            3339            3780     489.108E-03     631.382E-03
            3339            3786     648.432E-03     643.952E-03
            3339            3787     583.319E-03     575.231E-03
            3340            3780     489.108E-03     631.382E-03
            3340            3781     419.368E-03     513.190E-03
            3340            3787     583.319E-03     575.231E-03
            3340            3788     494.591E-03     480.817E-03
            3341            3781     419.368E-03     513.190E-03
            3341            3782     341.792E-03     401.006E-03
            3341            3788     494.591E-03     480.817E-03
            3341            3789     396.366E-03     382.508E-03
            3342            3782     341.792E-03     401.006E-03
            3342            3783     264.820E-03     298.494E-03
            3342            3789     396.366E-03     382.508E-03
            3342            3790     299.936E-03     292.384E-03
            3343            3783     264.820E-03     298.494E-03
            3343            3784     201.867E-03     214.579E-03
            3343            3790     299.936E-03     292.384E-03
            3343            3791     217.900E-03     219.295E-03
            3344             315     182.838E-03     189.123E-03
            3344             316     176.109E-03     179.026E-03
            3344            3784     201.867E-03     214.579E-03
            3344            3791     217.900E-03     219.295E-03
            3345              87     672.814E-03     638.440E-03
            3345              88     694.704E-03     657.355E-03
            3345            3785     673.201E-03     653.901E-03
            3345            3792     693.222E-03     662.919E-03
            3346            3785     673.201E-03     653.901E-03
            3346            3786     648.432E-03     643.952E-03
            3346            3792     693.222E-03     662.919E-03
            3346            3793     675.290E-03     642.009E-03
            3347            3786     648.432E-03     643.952E-03
            3347            3787     583.319E-03     575.231E-03
            3347            3793     675.290E-03     642.009E-03
            3347            3794     621.958E-03     582.964E-03
            3348            3787     583.319E-03     575.231E-03
            3348            3788     494.591E-03     480.817E-03
            3348            3794     621.958E-03     582.964E-03
            3348            3795     533.955E-03     503.939E-03
            3349            3788     494.591E-03     480.817E-03
            3349            3789     396.366E-03     382.508E-03
            3349            3795     533.955E-03     503.939E-03
            3349            3796     428.233E-03     406.586E-03
            3350            3789     396.366E-03     382.508E-03
            3350            3790     299.936E-03     292.384E-03
            3350            3796     428.233E-03     406.586E-03
            3350            3797     320.102E-03     305.968E-03
            3351            3790     299.936E-03     292.384E-03
            3351            3791     217.900E-03     219.295E-03
            3351            3797     320.102E-03     305.968E-03
            3351            3798     225.900E-03     219.043E-03
            3352             314     185.227E-03     181.839E-03
            3352             315     182.838E-03     189.123E-03
            3352            3791     217.900E-03     219.295E-03
            3352            3798     225.900E-03     219.043E-03
            3353              88     694.704E-03     657.355E-03
            3353              89     689.498E-03     705.377E-03
            3353            3792     693.222E-03     662.919E-03
            3353            3799     665.569E-03     703.859E-03
            3354            3792     693.222E-03     662.919E-03
            3354            3793     675.290E-03     642.009E-03
            3354            3799     665.569E-03     703.859E-03
            3354            3800     624.299E-03     675.664E-03
            3355            3793     675.290E-03     642.009E-03
            3355            3794     621.958E-03     582.964E-03
            3355            3800     624.299E-03     675.664E-03
            3355            3801     580.561E-03     614.396E-03
            3356            3794     621.958E-03     582.964E-03
            3356            3795     533.955E-03     503.939E-03
            3356            3801     580.561E-03     614.396E-03
            3356            3802     512.538E-03     535.882E-03
            3357            3795     533.955E-03     503.939E-03
            3357            3796     428.233E-03     406.586E-03
            3357            3802     512.538E-03     535.882E-03
            3357            3803     419.547E-03     437.141E-03
            3358            3796     428.233E-03     406.586E-03
            3358            3797     320.102E-03     305.968E-03
            3358            3803     419.547E-03     437.141E-03
            3358            3804     316.860E-03     326.853E-03
            3359            3797     320.102E-03     305.968E-03
            3359            3798     225.900E-03     219.043E-03
            3359            3804     316.860E-03     326.853E-03
            3359            3805     226.290E-03     228.427E-03
            3360             313     187.045E-03     185.471E-03
            3360             314     185.227E-03     181.839E-03
            3360            3798     225.900E-03     219.043E-03
            3360            3805     226.290E-03     228.427E-03
            3361              89     689.498E-03     705.377E-03
            3361              90     729.613E-03     720.466E-03
            3361            3799     665.569E-03     703.859E-03
            3361            3806     703.997E-03     710.982E-03
            3362            3799     665.569E-03     703.859E-03
            3362            3800     624.299E-03     675.664E-03
            3362            3806     703.997E-03     710.982E-03
            3362            3807     654.072E-03     670.938E-03
            3363            3800     624.299E-03     675.664E-03
            3363            3801     580.561E-03     614.396E-03
            3363            3807     654.072E-03     670.938E-03
            3363            3808     603.124E-03     606.507E-03
            3364            3801     580.561E-03     614.396E-03
            3364            3802     512.538E-03     535.882E-03
            3364            3808     603.124E-03     606.507E-03
            3364            3809     534.994E-03     532.338E-03
            3365            3802     512.538E-03     535.882E-03
            3365            3803     419.547E-03     437.141E-03
            3365            3809     534.994E-03     532.338E-03
            3365            3810     439.933E-03     440.510E-03
            3366            3803     419.547E-03     437.141E-03
            3366            3804     316.860E-03     326.853E-03
            3366            3810     439.933E-03     440.510E-03
            3366            3811     329.479E-03     332.144E-03
            3367            3804     316.860E-03     326.853E-03
            3367            3805     226.290E-03     228.427E-03
            3367            3811     329.479E-03     332.144E-03
            3367            3812     228.656E-03     230.674E-03
            3368             312     184.715E-03     186.039E-03
            3368             313     187.045E-03     185.471E-03
            3368            3805     226.290E-03     228.427E-03
            3368            3812     228.656E-03     230.674E-03
            3369              90     729.613E-03     720.466E-03
            3369              91     753.970E-03     758.189E-03
            3369            3806     703.997E-03     710.982E-03
            3369            3813     729.029E-03     746.170E-03
            3370            3806     703.997E-03     710.982E-03
            3370            3807     654.072E-03     670.938E-03
            3370            3813     729.029E-03     746.170E-03
            3370            3814     680.916E-03     698.910E-03
            3371            3807     654.072E-03     670.938E-03
            3371            3808     603.124E-03     606.507E-03
            3371            3814     680.916E-03     698.910E-03
            3371            3815     627.826E-03     625.258E-03
            3372            3808     603.124E-03     606.507E-03
            3372            3809     534.994E-03     532.338E-03
            3372            3815     627.826E-03     625.258E-03
            3372            3816     556.210E-03     546.056E-03
            3373            3809     534.994E-03     532.338E-03
            3373            3810     439.933E-03     440.510E-03
            3373            3816     556.210E-03     546.056E-03
            3373            3817     457.700E-03     453.387E-03
            3374            3810     439.933E-03     440.510E-03
            3374            3811     329.479E-03     332.144E-03
            3374            3817     457.700E-03     453.387E-03
            3374            3818     340.211E-03     342.345E-03
            3375            3811     329.479E-03     332.144E-03
            3375            3812     228.656E-03     230.674E-03
            3375            3818     340.211E-03     342.345E-03
            3375            3819     232.029E-03     234.118E-03
            3376             311     184.522E-03     185.053E-03
            3376             312     184.715E-03     186.039E-03
            3376            3812     228.656E-03     230.674E-03
            3376            3819     232.029E-03     234.118E-03
            3377              91     753.970E-03     758.189E-03
            3377              92     789.720E-03     776.290E-03
            3377            3813     729.029E-03     746.170E-03
            3377            3820     761.538E-03     764.203E-03
            3378            3813     729.029E-03     746.170E-03
            3378            3814     680.916E-03     698.910E-03
            3378            3820     761.538E-03     764.203E-03
            3378            3821     703.703E-03     717.028E-03
            3379            3814     680.916E-03     698.910E-03
            3379            3815     627.826E-03     625.258E-03
            3379            3821     703.703E-03     717.028E-03
            3379            3822     643.289E-03     642.535E-03
            3380            3815     627.826E-03     625.258E-03
            3380            3816     556.210E-03     546.056E-03
            3380            3822     643.289E-03     642.535E-03
            3380            3823     568.561E-03     559.413E-03
            3381            3816     556.210E-03     546.056E-03
            3381            3817     457.700E-03     453.387E-03
            3381            3823     568.561E-03     559.413E-03
            3381            3824     466.421E-03     462.544E-03
            3382            3817     457.700E-03     453.387E-03
            3382            3818     340.211E-03     342.345E-03
            3382            3824     466.421E-03     462.544E-03
            3382            3825     345.106E-03     347.787E-03
            3383            3818     340.211E-03     342.345E-03
            3383            3819     232.029E-03     234.118E-03
            3383            3825     345.106E-03     347.787E-03
            3383            3826     232.947E-03     234.633E-03
            3384             310     183.928E-03     183.083E-03
            3384             311     184.522E-03     185.053E-03
            3384            3819     232.029E-03     234.118E-03
            3384            3826     232.947E-03     234.633E-03
            3385              92     789.720E-03     776.290E-03
            3385              93     802.015E-03     831.220E-03
            3385            3820     761.538E-03     764.203E-03
            3385            3827     769.584E-03     825.797E-03
            3386            3820     761.538E-03     764.203E-03
            3386            3821     703.703E-03     717.028E-03
            3386            3827     769.584E-03     825.797E-03
            3386            3828     711.217E-03     783.388E-03
            3387            3821     703.703E-03     717.028E-03
            3387            3822     643.289E-03     642.535E-03
            3387            3828     711.217E-03     783.388E-03
            3387            3829     652.853E-03     699.213E-03
            3388            3822     643.289E-03     642.535E-03
            3388            3823     568.561E-03     559.413E-03
            3388            3829     652.853E-03     699.213E-03
            3388            3830     573.504E-03     602.370E-03
            3389            3823     568.561E-03     559.413E-03
            3389            3824     466.421E-03     462.544E-03
            3389            3830     573.504E-03     602.370E-03
            3389            3831     465.805E-03     491.534E-03
            3390            3824     466.421E-03     462.544E-03
            3390            3825     345.106E-03     347.787E-03
            3390            3831     465.805E-03     491.534E-03
            3390            3832     341.604E-03     363.922E-03
            3391            3825     345.106E-03     347.787E-03
            3391            3826     232.947E-03     234.633E-03
            3391            3832     341.604E-03     363.922E-03
            3391            3833     228.626E-03     241.442E-03
            3392             309     179.068E-03     185.391E-03
            3392             310     183.928E-03     183.083E-03
            3392            3826     232.947E-03     234.633E-03
            3392            3833     228.626E-03     241.442E-03
            3393              93     802.015E-03     831.220E-03
            3393              94     891.055E-03     841.086E-03
            3393            3827     769.584E-03     825.797E-03
            3393            3834     879.083E-03     831.383E-03
            3394            3827     769.584E-03     825.797E-03
            3394            3828     711.217E-03     783.388E-03
            3394            3834     879.083E-03     831.383E-03
            3394            3835     834.763E-03     775.320E-03
            3395            3828     711.217E-03     783.388E-03
            3395            3829     652.853E-03     699.213E-03
            3395            3835     834.763E-03     775.320E-03
            3395            3836     756.221E-03     686.382E-03
            3396            3829     652.853E-03     699.213E-03
            3396            3830     573.504E-03     602.370E-03
            3396            3836     756.221E-03     686.382E-03
            3396            3837     647.702E-03     590.679E-03
            3397            3830     573.504E-03     602.370E-03
            3397            3831     465.805E-03     491.534E-03
            3397            3837     647.702E-03     590.679E-03
            3397            3838     513.970E-03     477.142E-03
            3398            3831     465.805E-03     491.534E-03
            3398            3832     341.604E-03     363.922E-03
            3398            3838     513.970E-03     477.142E-03
            3398            3839     371.764E-03     353.650E-03
            3399            3832     341.604E-03     363.922E-03
            3399            3833     228.626E-03     241.442E-03
            3399            3839     371.764E-03     353.650E-03
            3399            3840     243.750E-03     238.237E-03
            3400             308     186.532E-03     185.905E-03
            3400             309     179.068E-03     185.391E-03
            3400            3833     228.626E-03     241.442E-03
            3400            3840     243.750E-03     238.237E-03
            3401              94     891.055E-03     841.086E-03
            3401              95     934.714E-03     901.597E-03
            3401            3834     879.083E-03     831.383E-03
            3401            3841     898.784E-03     882.132E-03
            3402            3834     879.083E-03     831.383E-03
            3402            3835     834.763E-03     775.320E-03
            3402            3841     898.784E-03     882.132E-03
            3402            3842     822.187E-03     817.472E-03
            3403            3835     834.763E-03     775.320E-03
            3403            3836     756.221E-03     686.382E-03
            3403            3842     822.187E-03     817.472E-03
            3403            3843     732.641E-03     718.031E-03
            3404            3836     756.221E-03     686.382E-03
            3404            3837     647.702E-03     590.679E-03
            3404            3843     732.641E-03     718.031E-03
            3404            3844     620.059E-03     599.188E-03
            3405            3837     647.702E-03     590.679E-03
            3405            3838     513.970E-03     477.142E-03
            3405            3844     620.059E-03     599.188E-03
            3405            3845     490.024E-03     471.185E-03
            3406            3838     513.970E-03     477.142E-03
            3406            3839     371.764E-03     353.650E-03
            3406            3845     490.024E-03     471.185E-03
            3406            3846     356.768E-03     343.137E-03
            3407            3839     371.764E-03     353.650E-03
            3407            3840     243.750E-03     238.237E-03
            3407            3846     356.768E-03     343.137E-03
            3407            3847     237.244E-03     225.334E-03
            3408             307     184.643E-03     172.171E-03
            3408             308     186.532E-03     185.905E-03
            3408            3840     243.750E-03     238.237E-03
            3408            3847     237.244E-03     225.334E-03
            3409              95     934.714E-03     901.597E-03
            3409              96     830.336E-03     933.387E-03
            3409            3841     898.784E-03     882.132E-03
            3409            3848     772.851E-03     933.007E-03
            3410            3841     898.784E-03     882.132E-03
            3410            3842     822.187E-03     817.472E-03
            3410            3848     772.851E-03     933.007E-03
            3410            3849     682.640E-03     896.366E-03
            3411            3842     822.187E-03     817.472E-03
            3411            3843     732.641E-03     718.031E-03
            3411            3849     682.640E-03     896.366E-03
            3411            3850     610.567E-03     785.155E-03
            3412            3843     732.641E-03     718.031E-03
            3412            3844     620.059E-03     599.188E-03
            3412            3850     610.567E-03     785.155E-03
            3412            3851     523.512E-03     639.966E-03
            3413            3844     620.059E-03     599.188E-03
            3413            3845     490.024E-03     471.185E-03
            3413            3851     523.512E-03     639.966E-03
            3413            3852     423.071E-03     501.999E-03
            3414            3845     490.024E-03     471.185E-03
            3414            3846     356.768E-03     343.137E-03
            3414            3852     423.071E-03     501.999E-03
            3414            3853     316.010E-03     366.858E-03
            3415            3846     356.768E-03     343.137E-03
            3415            3847     237.244E-03     225.334E-03
            3415            3853     316.010E-03     366.858E-03
            3415            3854     219.105E-03     242.308E-03
            3416             306     176.525E-03     185.169E-03
            3416             307     184.643E-03     172.171E-03
            3416            3847     237.244E-03     225.334E-03
            3416            3854     219.105E-03     242.308E-03
            3417              96     830.336E-03     933.387E-03
            3417              97     850.314E-03     814.640E-03
            3417            3848     772.851E-03     933.007E-03
            3417            3855     845.288E-03     823.196E-03
            3418            3848     772.851E-03     933.007E-03
            3418            3849     682.640E-03     896.366E-03
            3418            3855     845.288E-03     823.196E-03
            3418            3856     809.380E-03     793.614E-03
            3419            3849     682.640E-03     896.366E-03
            3419            3850     610.567E-03     785.155E-03
            3419            3856     809.380E-03     793.614E-03
            3419            3857     730.049E-03     705.407E-03
            3420            3850     610.567E-03     785.155E-03
            3420            3851     523.512E-03     639.966E-03
            3420            3857     730.049E-03     705.407E-03
            3420            3858     623.336E-03     597.549E-03
            3421            3851     523.512E-03     639.966E-03
            3421            3852     423.071E-03     501.999E-03
            3421            3858     623.336E-03     597.549E-03
            3421            3859     500.779E-03     480.909E-03
            3422            3852     423.071E-03     501.999E-03
            3422            3853     316.010E-03     366.858E-03
            3422            3859     500.779E-03     480.909E-03
            3422            3860     368.205E-03     359.681E-03
            3423            3853     316.010E-03     366.858E-03
            3423            3854     219.105E-03     242.308E-03
            3423            3860     368.205E-03     359.681E-03
            3423            3861     240.942E-03     245.864E-03
            3424             305     181.958E-03     194.424E-03
            3424             306     176.525E-03     185.169E-03
            3424            3854     219.105E-03     242.308E-03
            3424            3861     240.942E-03     245.864E-03
            3425              97     850.314E-03     814.640E-03
            3425              98     883.668E-03     824.039E-03
            3425            3855     845.288E-03     823.196E-03
            3425            3862     877.374E-03     824.058E-03
            3426            3855     845.288E-03     823.196E-03
            3426            3856     809.380E-03     793.614E-03
            3426            3862     877.374E-03     824.058E-03
            3426            3863     846.788E-03     787.758E-03
            3427            3856     809.380E-03     793.614E-03
            3427            3857     730.049E-03     705.407E-03
            3427            3863     846.788E-03     787.758E-03
            3427            3864     778.352E-03     715.771E-03
            3428            3857     730.049E-03     705.407E-03
            3428            3858     623.336E-03     597.549E-03
            3428            3864     778.352E-03     715.771E-03
            3428            3865     670.909E-03     625.605E-03
            3429            3858     623.336E-03     597.549E-03
            3429            3859     500.779E-03     480.909E-03
            3429            3865     670.909E-03     625.605E-03
            3429            3866     535.837E-03     505.590E-03
            3430            3859     500.779E-03     480.909E-03
            3430            3860     368.205E-03     359.681E-03
            3430            3866     535.837E-03     505.590E-03
            3430            3867     388.649E-03     369.021E-03
            3431            3860     368.205E-03     359.681E-03
            3431            3861     240.942E-03     245.864E-03
            3431            3867     388.649E-03     369.021E-03
            3431            3868     249.393E-03     239.781E-03
            3432             304     185.552E-03     181.596E-03
            3432             305     181.958E-03     194.424E-03
            3432            3861     240.942E-03     245.864E-03
            3432            3868     249.393E-03     239.781E-03
            3433              98     883.668E-03     824.039E-03
            3433              99     858.034E-03     910.628E-03
            3433            3862     877.374E-03     824.058E-03
            3433            3869     819.539E-03     910.718E-03
            3434            3862     877.374E-03     824.058E-03
            3434            3863     846.788E-03     787.758E-03
            3434            3869     819.539E-03     910.718E-03
            3434            3870     763.056E-03     875.892E-03
            3435            3863     846.788E-03     787.758E-03
            3435            3864     778.352E-03     715.771E-03
            3435            3870     763.056E-03     875.892E-03
            3435            3871     714.566E-03     795.427E-03
            3436            3864     778.352E-03     715.771E-03
            3436            3865     670.909E-03     625.605E-03
            3436            3871     714.566E-03     795.427E-03
            3436            3872     628.338E-03     693.387E-03
            3437            3865     670.909E-03     625.605E-03
            3437            3866     535.837E-03     505.590E-03
            3437            3872     628.338E-03     693.387E-03
            3437            3873     503.413E-03     560.106E-03
            3438            3866     535.837E-03     505.590E-03
            3438            3867     388.649E-03     369.021E-03
            3438            3873     503.413E-03     560.106E-03
            3438            3874     364.656E-03     402.819E-03
            3439            3867     388.649E-03     369.021E-03
            3439            3868     249.393E-03     239.781E-03
            3439            3874     364.656E-03     402.819E-03
            3439            3875     239.572E-03     255.706E-03
            3440             303     184.045E-03     189.091E-03
            3440             304     185.552E-03     181.596E-03
            3440            3868     249.393E-03     239.781E-03
            3440            3875     239.572E-03     255.706E-03
            3441              99     858.034E-03     910.628E-03
            3441             100     970.181E-03     903.344E-03
            3441            3869     819.539E-03     910.718E-03
            3441            3876     955.443E-03     890.759E-03
            3442            3869     819.539E-03     910.718E-03
            3442            3870     763.056E-03     875.892E-03
            3442            3876     955.443E-03     890.759E-03
            3442            3877     907.874E-03     828.664E-03
            3443            3870     763.056E-03     875.892E-03
            3443            3871     714.566E-03     795.427E-03
            3443            3877     907.874E-03     828.664E-03
            3443            3878     828.340E-03     742.037E-03
            3444            3871     714.566E-03     795.427E-03
            3444            3872     628.338E-03     693.387E-03
            3444            3878     828.340E-03     742.037E-03
            3444            3879     712.727E-03     651.299E-03
            3445            3872     628.338E-03     693.387E-03
            3445            3873     503.413E-03     560.106E-03
            3445            3879     712.727E-03     651.299E-03
            3445            3880     564.597E-03     528.383E-03
            3446            3873     503.413E-03     560.106E-03
            3446            3874     364.656E-03     402.819E-03
            3446            3880     564.597E-03     528.383E-03
            3446            3881     405.853E-03     384.390E-03
            3447            3874     364.656E-03     402.819E-03
            3447            3875     239.572E-03     255.706E-03
            3447            3881     405.853E-03     384.390E-03
            3447            3882     259.917E-03     249.812E-03
            3448             302     193.507E-03     189.932E-03
            3448             303     184.045E-03     189.091E-03
            3448            3875     239.572E-03     255.706E-03
            3448            3882     259.917E-03     249.812E-03
            3449             100     970.181E-03     903.344E-03
            3449             101         1.01448     980.210E-03
            3449            3876     955.443E-03     890.759E-03
            3449            3883     973.613E-03     955.818E-03
            3450            3876     955.443E-03     890.759E-03
            3450            3877     907.874E-03     828.664E-03
            3450            3883     973.613E-03     955.818E-03
            3450            3884     890.701E-03     878.020E-03
            3451            3877     907.874E-03     828.664E-03
            3451            3878     828.340E-03     742.037E-03
            3451            3884     890.701E-03     878.020E-03
            3451            3885     797.392E-03     769.902E-03
            3452            3878     828.340E-03     742.037E-03
            3452            3879     712.727E-03     651.299E-03
            3452            3885     797.392E-03     769.902E-03
            3452            3886     678.900E-03     651.692E-03
            3453            3879     712.727E-03     651.299E-03
            3453            3880     564.597E-03     528.383E-03
            3453            3886     678.900E-03     651.692E-03
            3453            3887     538.908E-03     520.684E-03
            3454            3880     564.597E-03     528.383E-03
            3454            3881     405.853E-03     384.390E-03
            3454            3887     538.908E-03     520.684E-03
            3454            3888     391.009E-03     378.450E-03
            3455            3881     405.853E-03     384.390E-03
            3455            3882     259.917E-03     249.812E-03
            3455            3888     391.009E-03     378.450E-03
            3455            3889     254.206E-03     239.441E-03
            3456             301     192.537E-03     175.157E-03
            3456             302     193.507E-03     189.932E-03
            3456            3882     259.917E-03     249.812E-03
            3456            3889     254.206E-03     239.441E-03
            3457               3     914.670E-03         1.03506
            3457             101         1.01448     980.210E-03
            3457             489     849.254E-03         1.02880
            3457            3883     973.613E-03     955.818E-03
            3458             489     849.254E-03         1.02880
            3458             490     750.220E-03     978.398E-03
            3458            3883     973.613E-03     955.818E-03
            3458            3884     890.701E-03     878.020E-03
            3459             490     750.220E-03     978.398E-03
            3459             491     673.827E-03     853.620E-03
            3459            3884     890.701E-03     878.020E-03
            3459            3885     797.392E-03     769.902E-03
            3460             491     673.827E-03     853.620E-03
            3460             492     580.293E-03     702.157E-03
            3460            3885     797.392E-03     769.902E-03
            3460            3886     678.900E-03     651.692E-03
            3461             492     580.293E-03     702.157E-03
            3461             493     468.868E-03     558.149E-03
            3461            3886     678.900E-03     651.692E-03
            3461            3887     538.908E-03     520.684E-03
            3462             493     468.868E-03     558.149E-03
            3462             494     345.822E-03     407.829E-03
            3462            3887     538.908E-03     520.684E-03
            3462            3888     391.009E-03     378.450E-03
            3463             494     345.822E-03     407.829E-03
            3463             495     232.703E-03     260.489E-03
            3463            3888     391.009E-03     378.450E-03
            3463            3889     254.206E-03     239.441E-03
            3464              12     181.967E-03     190.285E-03
            3464             301     192.537E-03     175.157E-03
            3464             495     232.703E-03     260.489E-03
            3464            3889     254.206E-03     239.441E-03
            3755              16         1.02702         1.11881
            3755             507     961.257E-03         1.08862
            3755             528         1.14422         1.10784
            3755            4114         1.08985         1.07209
            3756             506     858.514E-03         1.01329
            3756             507     961.257E-03         1.08862
            3756            4114         1.08985         1.07209
            3756            4115     988.328E-03     975.871E-03
            3757             505     774.321E-03     896.371E-03
            3757             506     858.514E-03         1.01329
            3757            4115     988.328E-03     975.871E-03
            3757            4116     888.118E-03     857.968E-03
            3758             504     667.074E-03     750.726E-03
            3758             505     774.321E-03     896.371E-03
            3758            4116     888.118E-03     857.968E-03
            3758            4117     764.218E-03     734.739E-03
            3759             503     538.825E-03     597.770E-03
            3759             504     667.074E-03     750.726E-03
            3759            4117     764.218E-03     734.739E-03
            3759            4118     619.157E-03     600.045E-03
            3760             502     399.769E-03     434.833E-03
            3760             503     538.825E-03     597.770E-03
            3760            4118     619.157E-03     600.045E-03
            3760            4119     472.575E-03     458.015E-03
            3761             501     270.406E-03     277.034E-03
            3761             502     399.769E-03     434.833E-03
            3761            4119     472.575E-03     458.015E-03
            3761            4120     348.403E-03     330.017E-03
            3762              19     211.883E-03     203.082E-03
            3762             501     270.406E-03     277.034E-03
            3762             576     296.592E-03     275.152E-03
            3762            4120     348.403E-03     330.017E-03
            3763             528         1.14422         1.10784
            3763             529         1.07486     999.742E-03
            3763            4114         1.08985         1.07209
            3763            4121         1.05693     982.464E-03
            3764            4114         1.08985         1.07209
            3764            4115     988.328E-03     975.871E-03
            3764            4121         1.05693     982.464E-03
            3764            4122         1.00275     909.932E-03
            3765            4115     988.328E-03     975.871E-03
            3765            4116     888.118E-03     857.968E-03
            3765            4122         1.00275     909.932E-03
            3765            4123     917.730E-03     817.290E-03
            3766            4116     888.118E-03     857.968E-03
            3766            4117     764.218E-03     734.739E-03
            3766            4123     917.730E-03     817.290E-03
            3766            4124     796.966E-03     726.425E-03
            3767            4117     764.218E-03     734.739E-03
            3767            4118     619.157E-03     600.045E-03
            3767            4124     796.966E-03     726.425E-03
            3767            4125     643.754E-03     603.425E-03
            3768            4118     619.157E-03     600.045E-03
            3768            4119     472.575E-03     458.015E-03
            3768            4125     643.754E-03     603.425E-03
            3768            4126     486.136E-03     463.223E-03
            3769            4119     472.575E-03     458.015E-03
            3769            4120     348.403E-03     330.017E-03
            3769            4126     486.136E-03     463.223E-03
            3769            4127     353.500E-03     343.022E-03
            3770             575     297.277E-03     293.500E-03
            3770             576     296.592E-03     275.152E-03
            3770            4120     348.403E-03     330.017E-03
            3770            4127     353.500E-03     343.022E-03
            3771             529         1.07486     999.742E-03
            3771             530     928.291E-03     985.340E-03
            3771            4121         1.05693     982.464E-03
            3771            4128     887.243E-03     985.700E-03
            3772            4121         1.05693     982.464E-03
            3772            4122         1.00275     909.932E-03
            3772            4128     887.243E-03     985.700E-03
            3772            4129     828.958E-03     950.381E-03
            3773            4122         1.00275     909.932E-03
            3773            4123     917.730E-03     817.290E-03
            3773            4129     828.958E-03     950.381E-03
            3773            4130     781.469E-03     868.377E-03
            3774            4123     917.730E-03     817.290E-03
            3774            4124     796.966E-03     726.425E-03
            3774            4130     781.469E-03     868.377E-03
            3774            4131     695.325E-03     764.688E-03
            3775            4124     796.966E-03     726.425E-03
            3775            4125     643.754E-03     603.425E-03
            3775            4131     695.325E-03     764.688E-03
            3775            4132     571.817E-03     630.704E-03
            3776            4125     643.754E-03     603.425E-03
            3776            4126     486.136E-03     463.223E-03
            3776            4132     571.817E-03     630.704E-03
            3776            4133     440.191E-03     477.861E-03
            3777            4126     486.136E-03     463.223E-03
            3777            4127     353.500E-03     343.022E-03
            3777            4133     440.191E-03     477.861E-03
            3777            4134     331.759E-03     346.517E-03
            3778             574     287.335E-03     291.397E-03
            3778             575     297.277E-03     293.500E-03
            3778            4127     353.500E-03     343.022E-03
            3778            4134     331.759E-03     346.517E-03
            3779             530     928.291E-03     985.340E-03
            3779             531     930.997E-03     868.383E-03
            3779            4128     887.243E-03     985.700E-03
            3779            4135     927.305E-03     872.414E-03
            3780            4128     887.243E-03     985.700E-03
            3780            4129     828.958E-03     950.381E-03
            3780            4135     927.305E-03     872.414E-03
            3780            4136     901.701E-03     843.229E-03
            3781            4129     828.958E-03     950.381E-03
            3781            4130     781.469E-03     868.377E-03
            3781            4136     901.701E-03     843.229E-03
            3781            4137     835.480E-03     774.954E-03
            3782            4130     781.469E-03     868.377E-03
            3782            4131     695.325E-03     764.688E-03
            3782            4137     835.480E-03     774.954E-03
            3782            4138     728.856E-03     685.285E-03
            3783            4131     695.325E-03     764.688E-03
            3783            4132     571.817E-03     630.704E-03
            3783            4138     728.856E-03     685.285E-03
            3783            4139     597.790E-03     567.768E-03
            3784            4132     571.817E-03     630.704E-03
            3784            4133     440.191E-03     477.861E-03
            3784            4139     597.790E-03     567.768E-03
            3784            4140     459.703E-03     440.447E-03
            3785            4133     440.191E-03     477.861E-03
            3785            4134     331.759E-03     346.517E-03
            3785            4140     459.703E-03     440.447E-03
            3785            4141     338.937E-03     329.893E-03
            3786             573     287.506E-03     283.752E-03
            3786             574     287.335E-03     291.397E-03
            3786            4134     331.759E-03     346.517E-03
            3786            4141     338.937E-03     329.893E-03
            3787             531     930.997E-03     868.383E-03
            3787             532     872.083E-03     833.117E-03
            3787            4135     927.305E-03     872.414E-03
            3787            4142     877.796E-03     852.535E-03
            3788            4135     927.305E-03     872.414E-03
            3788            4136     901.701E-03     843.229E-03
            3788            4142     877.796E-03     852.535E-03
            3788            4143     854.995E-03     836.974E-03
            3789            4136     901.701E-03     843.229E-03
            3789            4137     835.480E-03     774.954E-03
            3789            4143     854.995E-03     836.974E-03
            3789            4144     778.413E-03     752.541E-03
            3790            4137     835.480E-03     774.954E-03
            3790            4138     728.856E-03     685.285E-03
            3790            4144     778.413E-03     752.541E-03
            3790            4145     674.785E-03     647.292E-03
            3791            4138     728.856E-03     685.285E-03
            3791            4139     597.790E-03     567.768E-03
            3791            4145     674.785E-03     647.292E-03
            3791            4146     559.245E-03     537.429E-03
            3792            4139     597.790E-03     567.768E-03
            3792            4140     459.703E-03     440.447E-03
            3792            4146     559.245E-03     537.429E-03
            3792            4147     438.284E-03     429.795E-03
            3793            4140     459.703E-03     440.447E-03
            3793            4141     338.937E-03     329.893E-03
            3793            4147     438.284E-03     429.795E-03
            3793            4148     330.663E-03     337.103E-03
            3794             572     284.025E-03     297.975E-03
            3794             573     287.506E-03     283.752E-03
            3794            4141     338.937E-03     329.893E-03
            3794            4148     330.663E-03     337.103E-03
            3795              21     832.537E-03     934.978E-03
            3795             532     872.083E-03     833.117E-03
            3795             596     774.297E-03     929.416E-03
            3795            4142     877.796E-03     852.535E-03
            3796             595     688.240E-03     887.460E-03
            3796             596     774.297E-03     929.416E-03
            3796            4142     877.796E-03     852.535E-03
            3796            4143     854.995E-03     836.974E-03
            3797             594     628.991E-03     785.969E-03
            3797             595     688.240E-03     887.460E-03
            3797            4143     854.995E-03     836.974E-03
            3797            4144     778.413E-03     752.541E-03
            3798             593     555.984E-03     662.138E-03
            3798             594     628.991E-03     785.969E-03
            3798            4144     778.413E-03     752.541E-03
            3798            4145     674.785E-03     647.292E-03
            3799             592     470.124E-03     545.231E-03
            3799             593     555.984E-03     662.138E-03
            3799            4145     674.785E-03     647.292E-03
            3799            4146     559.245E-03     537.429E-03
            3800             591     381.950E-03     428.793E-03
            3800             592     470.124E-03     545.231E-03
            3800            4146     559.245E-03     537.429E-03
            3800            4147     438.284E-03     429.795E-03
            3801             590     308.421E-03     327.888E-03
            3801             591     381.950E-03     428.793E-03
            3801            4147     438.284E-03     429.795E-03
            3801            4148     330.663E-03     337.103E-03
            3802              24     278.781E-03     285.247E-03
            3802             572     284.025E-03     297.975E-03
            3802             590     308.421E-03     327.888E-03
            3802            4148     330.663E-03     337.103E-03
            3803              24     278.781E-03     285.247E-03
            3803             571     308.421E-03     327.888E-03
            3803             659     286.375E-03     268.624E-03
            3803            4149     322.094E-03     307.882E-03
            3804             570     381.950E-03     428.793E-03
            3804             571     308.421E-03     327.888E-03
            3804            4149     322.094E-03     307.882E-03
            3804            4150     408.868E-03     403.813E-03
            3805             569     470.124E-03     545.231E-03
            3805             570     381.950E-03     428.793E-03
            3805            4150     408.868E-03     403.813E-03
            3805            4151     513.713E-03     516.852E-03
            3806             568     555.984E-03     662.138E-03
            3806             569     470.124E-03     545.231E-03
            3806            4151     513.713E-03     516.852E-03
            3806            4152     620.017E-03     624.202E-03
            3807             567     628.991E-03     785.969E-03
            3807             568     555.984E-03     662.138E-03
            3807            4152     620.017E-03     624.202E-03
            3807            4153     709.924E-03     713.102E-03
            3808             566     688.240E-03     887.460E-03
            3808             567     628.991E-03     785.969E-03
            3808            4153     709.924E-03     713.102E-03
            3808            4154     775.613E-03     792.939E-03
            3809             565     774.297E-03     929.416E-03
            3809             566     688.240E-03     887.460E-03
            3809            4154     775.613E-03     792.939E-03
            3809            4155     853.121E-03     863.915E-03
            3810              23     832.537E-03     934.978E-03
            3810             565     774.297E-03     929.416E-03
            3810             597     902.332E-03     892.970E-03
            3810            4155     853.121E-03     863.915E-03
            3811             658     284.441E-03     279.796E-03
            3811             659     286.375E-03     268.624E-03
            3811            4149     322.094E-03     307.882E-03
            3811            4156     328.135E-03     313.574E-03
            3812            4149     322.094E-03     307.882E-03
            3812            4150     408.868E-03     403.813E-03
            3812            4156     328.135E-03     313.574E-03
            3812            4157     431.109E-03     397.864E-03
            3813            4150     408.868E-03     403.813E-03
            3813            4151     513.713E-03     516.852E-03
            3813            4157     431.109E-03     397.864E-03
            3813            4158     553.067E-03     501.135E-03
            3814            4151     513.713E-03     516.852E-03
            3814            4152     620.017E-03     624.202E-03
            3814            4158     553.067E-03     501.135E-03
            3814            4159     674.563E-03     598.822E-03
            3815            4152     620.017E-03     624.202E-03
            3815            4153     709.924E-03     713.102E-03
            3815            4159     674.563E-03     598.822E-03
            3815            4160     780.064E-03     668.658E-03
            3816            4153     709.924E-03     713.102E-03
            3816            4154     775.613E-03     792.939E-03
            3816            4160     780.064E-03     668.658E-03
            3816            4161     848.680E-03     730.064E-03
            3817            4154     775.613E-03     792.939E-03
            3817            4155     853.121E-03     863.915E-03
            3817            4161     848.680E-03     730.064E-03
            3817            4162     865.881E-03     764.657E-03
            3818             597     902.332E-03     892.970E-03
            3818             598     861.147E-03     762.754E-03
            3818            4155     853.121E-03     863.915E-03
            3818            4162     865.881E-03     764.657E-03
            3819             657     273.327E-03     287.901E-03
            3819             658     284.441E-03     279.796E-03
            3819            4156     328.135E-03     313.574E-03
            3819            4163     306.596E-03     320.006E-03
            3820            4156     328.135E-03     313.574E-03
            3820            4157     431.109E-03     397.864E-03
            3820            4163     306.596E-03     320.006E-03
            3820            4164     388.215E-03     399.621E-03
            3821            4157     431.109E-03     397.864E-03
            3821            4158     553.067E-03     501.135E-03
            3821            4164     388.215E-03     399.621E-03
            3821            4165     486.483E-03     495.785E-03
            3822            4158     553.067E-03     501.135E-03
            3822            4159     674.563E-03     598.822E-03
            3822            4165     486.483E-03     495.785E-03
            3822            4166     580.189E-03     589.062E-03
            3823            4159     674.563E-03     598.822E-03
            3823            4160     780.064E-03     668.658E-03
            3823            4166     580.189E-03     589.062E-03
            3823            4167     660.506E-03     674.453E-03
            3824            4160     780.064E-03     668.658E-03
            3824            4161     848.680E-03     730.064E-03
            3824            4167     660.506E-03     674.453E-03
            3824            4168     716.326E-03     742.848E-03
            3825            4161     848.680E-03     730.064E-03
            3825            4162     865.881E-03     764.657E-03
            3825            4168     716.326E-03     742.848E-03
            3825            4169     732.909E-03     749.436E-03
            3826             598     861.147E-03     762.754E-03
            3826             599     730.202E-03     728.397E-03
            3826            4162     865.881E-03     764.657E-03
            3826            4169     732.909E-03     749.436E-03
            3827             656     277.461E-03     279.191E-03
            3827             657     273.327E-03     287.901E-03
            3827            4163     306.596E-03     320.006E-03
            3827            4170     299.353E-03     311.799E-03
            3828            4163     306.596E-03     320.006E-03
            3828            4164     388.215E-03     399.621E-03
            3828            4170     299.353E-03     311.799E-03
            3828            4171     357.147E-03     392.544E-03
            3829            4164     388.215E-03     399.621E-03
            3829            4165     486.483E-03     495.785E-03
            3829            4171     357.147E-03     392.544E-03
            3829            4172     430.294E-03     491.179E-03
            3830            4165     486.483E-03     495.785E-03
            3830            4166     580.189E-03     589.062E-03
            3830            4172     430.294E-03     491.179E-03
            3830            4173     502.819E-03     595.704E-03
            3831            4166     580.189E-03     589.062E-03
            3831            4167     660.506E-03     674.453E-03
            3831            4173     502.819E-03     595.704E-03
            3831            4174     566.641E-03     706.961E-03
            3832            4167     660.506E-03     674.453E-03
            3832            4168     716.326E-03     742.848E-03
            3832            4174     566.641E-03     706.961E-03
            3832            4175     622.979E-03     794.434E-03
            3833            4168     716.326E-03     742.848E-03
            3833            4169     732.909E-03     749.436E-03
            3833            4175     622.979E-03     794.434E-03
            3833            4176     698.853E-03     828.850E-03
            3834             599     730.202E-03     728.397E-03
            3834             600     746.931E-03     833.022E-03
            3834            4169     732.909E-03     749.436E-03
            3834            4176     698.853E-03     828.850E-03
            3835             655     287.290E-03     274.157E-03
            3835             656     277.461E-03     279.191E-03
            3835            4170     299.353E-03     311.799E-03
            3835            4177     315.641E-03     303.196E-03
            3836            4170     299.353E-03     311.799E-03
            3836            4171     357.147E-03     392.544E-03
            3836            4177     315.641E-03     303.196E-03
            3836            4178     388.500E-03     375.349E-03
            3837            4171     357.147E-03     392.544E-03
            3837            4172     430.294E-03     491.179E-03
            3837            4178     388.500E-03     375.349E-03
            3837            4179     481.291E-03     464.344E-03
            3838            4172     430.294E-03     491.179E-03
            3838            4173     502.819E-03     595.704E-03
            3838            4179     481.291E-03     464.344E-03
            3838            4180     579.124E-03     560.096E-03
            3839            4173     502.819E-03     595.704E-03
            3839            4174     566.641E-03     706.961E-03
            3839            4180     579.124E-03     560.096E-03
            3839            4181     666.896E-03     653.581E-03
            3840            4174     566.641E-03     706.961E-03
            3840            4175     622.979E-03     794.434E-03
            3840            4181     666.896E-03     653.581E-03
            3840            4182     742.598E-03     739.573E-03
            3841            4175     622.979E-03     794.434E-03
            3841            4176     698.853E-03     828.850E-03
            3841            4182     742.598E-03     739.573E-03
            3841            4183     823.576E-03     811.500E-03
            3842             600     746.931E-03     833.022E-03
            3842             601     867.073E-03     841.049E-03
            3842            4176     698.853E-03     828.850E-03
            3842            4183     823.576E-03     811.500E-03
            3843             654     288.514E-03     287.666E-03
            3843             655     287.290E-03     274.157E-03
            3843            4177     315.641E-03     303.196E-03
            3843            4184     319.220E-03     315.003E-03
            3844            4177     315.641E-03     303.196E-03
            3844            4178     388.500E-03     375.349E-03
            3844            4184     319.220E-03     315.003E-03
            3844            4185     396.617E-03     381.627E-03
            3845            4178     388.500E-03     375.349E-03
            3845            4179     481.291E-03     464.344E-03
            3845            4185     396.617E-03     381.627E-03
            3845            4186     496.099E-03     461.943E-03
            3846            4179     481.291E-03     464.344E-03
            3846            4180     579.124E-03     560.096E-03
            3846            4186     496.099E-03     461.943E-03
            3846            4187     596.141E-03     540.596E-03
            3847            4180     579.124E-03     560.096E-03
            3847            4181     666.896E-03     653.581E-03
            3847            4187     596.141E-03     540.596E-03
            3847            4188     680.117E-03     611.744E-03
            3848            4181     666.896E-03     653.581E-03
            3848            4182     742.598E-03     739.573E-03
            3848            4188     680.117E-03     611.744E-03
            3848            4189     747.385E-03     687.927E-03
            3849            4182     742.598E-03     739.573E-03
            3849            4183     823.576E-03     811.500E-03
            3849            4189     747.385E-03     687.927E-03
            3849            4190     791.053E-03     744.369E-03
            3850             601     867.073E-03     841.049E-03
            3850             602     804.174E-03     758.151E-03
            3850            4183     823.576E-03     811.500E-03
            3850            4190     791.053E-03     744.369E-03
            3851             653     281.882E-03     286.296E-03
            3851             654     288.514E-03     287.666E-03
            3851            4184     319.220E-03     315.003E-03
            3851            4191     305.025E-03     314.951E-03
            3852            4184     319.220E-03     315.003E-03
            3852            4185     396.617E-03     381.627E-03
            3852            4191     305.025E-03     314.951E-03
            3852            4192     366.188E-03     384.750E-03
            3853            4185     396.617E-03     381.627E-03
            3853            4186     496.099E-03     461.943E-03
            3853            4192     366.188E-03     384.750E-03
            3853            4193     444.657E-03     466.606E-03
            3854            4186     496.099E-03     461.943E-03
            3854            4187     596.141E-03     540.596E-03
            3854            4193     444.657E-03     466.606E-03
            3854            4194     517.005E-03     542.066E-03
            3855            4187     596.141E-03     540.596E-03
            3855            4188     680.117E-03     611.744E-03
            3855            4194     517.005E-03     542.066E-03
            3855            4195     572.208E-03     614.572E-03
            3856            4188     680.117E-03     611.744E-03
            3856            4189     747.385E-03     687.927E-03
            3856            4195     572.208E-03     614.572E-03
            3856            4196     616.789E-03     683.362E-03
            3857            4189     747.385E-03     687.927E-03
            3857            4190     791.053E-03     744.369E-03
            3857            4196     616.789E-03     683.362E-03
            3857            4197     667.265E-03     720.147E-03
            3858             602     804.174E-03     758.151E-03
            3858             603     696.464E-03     725.902E-03
            3858            4190     791.053E-03     744.369E-03
            3858            4197     667.265E-03     720.147E-03
            3859             652     285.970E-03     284.206E-03
            3859             653     281.882E-03     286.296E-03
            3859            4191     305.025E-03     314.951E-03
            3859            4198     307.757E-03     307.981E-03
            3860            4191     305.025E-03     314.951E-03
            3860            4192     366.188E-03     384.750E-03
            3860            4198     307.757E-03     307.981E-03
            3860            4199     365.115E-03     366.471E-03
            3861            4192     366.188E-03     384.750E-03
            3861            4193     444.657E-03     466.606E-03
            3861            4199     365.115E-03     366.471E-03
            3861            4200     437.357E-03     433.295E-03
            3862            4193     444.657E-03     466.606E-03
            3862            4194     517.005E-03     542.066E-03
            3862            4200     437.357E-03     433.295E-03
            3862            4201     502.359E-03     493.545E-03
            3863            4194     517.005E-03     542.066E-03
            3863            4195     572.208E-03     614.572E-03
            3863            4201     502.359E-03     493.545E-03
            3863            4202     551.325E-03     549.193E-03
            3864            4195     572.208E-03     614.572E-03
            3864            4196     616.789E-03     683.362E-03
            3864            4202     551.325E-03     549.193E-03
            3864            4203     594.437E-03     603.555E-03
            3865            4196     616.789E-03     683.362E-03
            3865            4197     667.265E-03     720.147E-03
            3865            4203     594.437E-03     603.555E-03
            3865            4204     640.623E-03     641.083E-03
            3866             603     696.464E-03     725.902E-03
            3866             604     664.333E-03     651.757E-03
            3866            4197     667.265E-03     720.147E-03
            3866            4204     640.623E-03     641.083E-03
            3867             651     286.509E-03     286.119E-03
            3867             652     285.970E-03     284.206E-03
            3867            4198     307.757E-03     307.981E-03
            3867            4205     306.028E-03     306.552E-03
            3868            4198     307.757E-03     307.981E-03
            3868            4199     365.115E-03     366.471E-03
            3868            4205     306.028E-03     306.552E-03
            3868            4206     356.795E-03     357.788E-03
            3869            4199     365.115E-03     366.471E-03
            3869            4200     437.357E-03     433.295E-03
            3869            4206     356.795E-03     357.788E-03
            3869            4207     421.345E-03     418.708E-03
            3870            4200     437.357E-03     433.295E-03
            3870            4201     502.359E-03     493.545E-03
            3870            4207     421.345E-03     418.708E-03
            3870            4208     479.993E-03     472.547E-03
            3871            4201     502.359E-03     493.545E-03
            3871            4202     551.325E-03     549.193E-03
            3871            4208     479.993E-03     472.547E-03
            3871            4209     523.066E-03     520.308E-03
            3872            4202     551.325E-03     549.193E-03
            3872            4203     594.437E-03     603.555E-03
            3872            4209     523.066E-03     520.308E-03
            3872            4210     555.465E-03     569.090E-03
            3873            4203     594.437E-03     603.555E-03
            3873            4204     640.623E-03     641.083E-03
            3873            4210     555.465E-03     569.090E-03
            3873            4211     590.095E-03     603.571E-03
            3874             604     664.333E-03     651.757E-03
            3874             605     610.053E-03     613.308E-03
            3874            4204     640.623E-03     641.083E-03
            3874            4211     590.095E-03     603.571E-03
            3875             650     286.621E-03     286.839E-03
            3875             651     286.509E-03     286.119E-03
            3875            4205     306.028E-03     306.552E-03
            3875            4212     302.775E-03     303.055E-03
            3876            4205     306.028E-03     306.552E-03
            3876            4206     356.795E-03     357.788E-03
            3876            4212     302.775E-03     303.055E-03
            3876            4213     344.823E-03     346.120E-03
            3877            4206     356.795E-03     357.788E-03
            3877            4207     421.345E-03     418.708E-03
            3877            4213     344.823E-03     346.120E-03
            3877            4214     398.933E-03     401.320E-03
            3878            4207     421.345E-03     418.708E-03
            3878            4208     479.993E-03     472.547E-03
            3878            4214     398.933E-03     401.320E-03
            3878            4215     450.438E-03     451.575E-03
            3879            4208     479.993E-03     472.547E-03
            3879            4209     523.066E-03     520.308E-03
            3879            4215     450.438E-03     451.575E-03
            3879            4216     486.908E-03     491.177E-03
            3880            4209     523.066E-03     520.308E-03
            3880            4210     555.465E-03     569.090E-03
            3880            4216     486.908E-03     491.177E-03
            3880            4217     513.094E-03     527.709E-03
            3881            4210     555.465E-03     569.090E-03
            3881            4211     590.095E-03     603.571E-03
            3881            4217     513.094E-03     527.709E-03
            3881            4218     545.385E-03     552.842E-03
            3882             605     610.053E-03     613.308E-03
            3882             606     564.669E-03     559.140E-03
            3882            4211     590.095E-03     603.571E-03
            3882            4218     545.385E-03     552.842E-03
            3883             649     288.666E-03     286.379E-03
            3883             650     286.621E-03     286.839E-03
            3883            4212     302.775E-03     303.055E-03
            3883            4219     301.298E-03     299.819E-03
            3884            4212     302.775E-03     303.055E-03
            3884            4213     344.823E-03     346.120E-03
            3884            4219     301.298E-03     299.819E-03
            3884            4220     334.006E-03     336.230E-03
            3885            4213     344.823E-03     346.120E-03
            3885            4214     398.933E-03     401.320E-03
            3885            4220     334.006E-03     336.230E-03
            3885            4221     377.651E-03     387.083E-03
            3886            4214     398.933E-03     401.320E-03
            3886            4215     450.438E-03     451.575E-03
            3886            4221     377.651E-03     387.083E-03
            3886            4222     422.539E-03     438.590E-03
            3887            4215     450.438E-03     451.575E-03
            3887            4216     486.908E-03     491.177E-03
            3887            4222     422.539E-03     438.590E-03
            3887            4223     455.936E-03     477.922E-03
            3888            4216     486.908E-03     491.177E-03
            3888            4217     513.094E-03     527.709E-03
            3888            4223     455.936E-03     477.922E-03
            3888            4224     474.118E-03     506.309E-03
            3889            4217     513.094E-03     527.709E-03
            3889            4218     545.385E-03     552.842E-03
            3889            4224     474.118E-03     506.309E-03
            3889            4225     494.974E-03     518.009E-03
            3890             606     564.669E-03     559.140E-03
            3890             607     509.727E-03     517.031E-03
            3890            4218     545.385E-03     552.842E-03
            3890            4225     494.974E-03     518.009E-03
            3891             648     287.106E-03     284.244E-03
            3891             649     288.666E-03     286.379E-03
            3891            4219     301.298E-03     299.819E-03
            3891            4226     298.489E-03     293.870E-03
            3892            4219     301.298E-03     299.819E-03
            3892            4220     334.006E-03     336.230E-03
            3892            4226     298.489E-03     293.870E-03
            3892            4227     328.707E-03     320.737E-03
            3893            4220     334.006E-03     336.230E-03
            3893            4221     377.651E-03     387.083E-03
            3893            4227     328.707E-03     320.737E-03
            3893            4228     370.130E-03     360.451E-03
            3894            4221     377.651E-03     387.083E-03
            3894            4222     422.539E-03     438.590E-03
            3894            4228     370.130E-03     360.451E-03
            3894            4229     418.068E-03     406.835E-03
            3895            4222     422.539E-03     438.590E-03
            3895            4223     455.936E-03     477.922E-03
            3895            4229     418.068E-03     406.835E-03
            3895            4230     462.790E-03     446.117E-03
            3896            4223     455.936E-03     477.922E-03
            3896            4224     474.118E-03     506.309E-03
            3896            4230     462.790E-03     446.117E-03
            3896            4231     485.187E-03     469.760E-03
            3897            4224     474.118E-03     506.309E-03
            3897            4225     494.974E-03     518.009E-03
            3897            4231     485.187E-03     469.760E-03
            3897            4232     483.067E-03     465.737E-03
            3898             607     509.727E-03     517.031E-03
            3898             608     477.924E-03     453.441E-03
            3898            4225     494.974E-03     518.009E-03
            3898            4232     483.067E-03     465.737E-03
            3899             647     285.466E-03     289.100E-03
            3899             648     287.106E-03     284.244E-03
            3899            4226     298.489E-03     293.870E-03
            3899            4233     293.672E-03     294.576E-03
            3900            4226     298.489E-03     293.870E-03
            3900            4227     328.707E-03     320.737E-03
            3900            4233     293.672E-03     294.576E-03
            3900            4234     315.267E-03     310.500E-03
            3901            4227     328.707E-03     320.737E-03
            3901            4228     370.130E-03     360.451E-03
            3901            4234     315.267E-03     310.500E-03
            3901            4235     346.161E-03     337.125E-03
            3902            4228     370.130E-03     360.451E-03
            3902            4229     418.068E-03     406.835E-03
            3902            4235     346.161E-03     337.125E-03
            3902            4236     384.832E-03     377.234E-03
            3903            4229     418.068E-03     406.835E-03
            3903            4230     462.790E-03     446.117E-03
            3903            4236     384.832E-03     377.234E-03
            3903            4237     426.709E-03     424.098E-03
            3904            4230     462.790E-03     446.117E-03
            3904            4231     485.187E-03     469.760E-03
            3904            4237     426.709E-03     424.098E-03
            3904            4238     458.038E-03     455.331E-03
            3905            4231     485.187E-03     469.760E-03
            3905            4232     483.067E-03     465.737E-03
            3905            4238     458.038E-03     455.331E-03
            3905            4239     450.640E-03     434.027E-03
            3906             608     477.924E-03     453.441E-03
            3906             609     432.624E-03     404.421E-03
            3906            4232     483.067E-03     465.737E-03
            3906            4239     450.640E-03     434.027E-03
            3907             646     281.576E-03     280.974E-03
            3907             647     285.466E-03     289.100E-03
            3907            4233     293.672E-03     294.576E-03
            3907            4240     285.402E-03     288.800E-03
            3908            4233     293.672E-03     294.576E-03
            3908            4234     315.267E-03     310.500E-03
            3908            4240     285.402E-03     288.800E-03
            3908            4241     297.088E-03     311.082E-03
            3909            4234     315.267E-03     310.500E-03
            3909            4235     346.161E-03     337.125E-03
            3909            4241     297.088E-03     311.082E-03
            3909            4242     314.184E-03     345.953E-03
            3910            4235     346.161E-03     337.125E-03
            3910            4236     384.832E-03     377.234E-03
            3910            4242     314.184E-03     345.953E-03
            3910            4243     336.275E-03     394.483E-03
            3911            4236     384.832E-03     377.234E-03
            3911            4237     426.709E-03     424.098E-03
            3911            4243     336.275E-03     394.483E-03
            3911            4244     361.127E-03     456.253E-03
            3912            4237     426.709E-03     424.098E-03
            3912            4238     458.038E-03     455.331E-03
            3912            4244     361.127E-03     456.253E-03
            3912            4245     387.140E-03     504.879E-03
            3913            4238     458.038E-03     455.331E-03
            3913            4239     450.640E-03     434.027E-03
            3913            4245     387.140E-03     504.879E-03
            3913            4246     428.441E-03     515.653E-03
            3914             609     432.624E-03     404.421E-03
            3914             610     455.727E-03     511.455E-03
            3914            4239     450.640E-03     434.027E-03
            3914            4246     428.441E-03     515.653E-03
            3915             645     282.769E-03     274.243E-03
            3915             646     281.576E-03     280.974E-03
            3915            4240     285.402E-03     288.800E-03
            3915            4247     290.638E-03     282.100E-03
            3916            4240     285.402E-03     288.800E-03
            3916            4241     297.088E-03     311.082E-03
            3916            4247     290.638E-03     282.100E-03
            3916            4248     312.927E-03     303.837E-03
            3917            4241     297.088E-03     311.082E-03
            3917            4242     314.184E-03     345.953E-03
            3917            4248     312.927E-03     303.837E-03
            3917            4249     344.370E-03     334.008E-03
            3918            4242     314.184E-03     345.953E-03
            3918            4243     336.275E-03     394.483E-03
            3918            4249     344.370E-03     334.008E-03
            3918            4250     381.750E-03     370.988E-03
            3919            4243     336.275E-03     394.483E-03
            3919            4244     361.127E-03     456.253E-03
            3919            4250     381.750E-03     370.988E-03
            3919            4251     417.985E-03     410.949E-03
            3920            4244     361.127E-03     456.253E-03
            3920            4245     387.140E-03     504.879E-03
            3920            4251     417.985E-03     410.949E-03
            3920            4252     455.989E-03     455.109E-03
            3921            4245     387.140E-03     504.879E-03
            3921            4246     428.441E-03     515.653E-03
            3921            4252     455.989E-03     455.109E-03
            3921            4253     512.292E-03     507.158E-03
            3922             610     455.727E-03     511.455E-03
            3922             611     546.467E-03     534.318E-03
            3922            4246     428.441E-03     515.653E-03
            3922            4253     512.292E-03     507.158E-03
            3923             644     283.346E-03     283.139E-03
            3923             645     282.769E-03     274.243E-03
            3923            4247     290.638E-03     282.100E-03
            3923            4254     291.854E-03     289.534E-03
            3924            4247     290.638E-03     282.100E-03
            3924            4248     312.927E-03     303.837E-03
            3924            4254     291.854E-03     289.534E-03
            3924            4255     314.870E-03     305.710E-03
            3925            4248     312.927E-03     303.837E-03
            3925            4249     344.370E-03     334.008E-03
            3925            4255     314.870E-03     305.710E-03
            3925            4256     348.357E-03     327.036E-03
            3926            4249     344.370E-03     334.008E-03
            3926            4250     381.750E-03     370.988E-03
            3926            4256     348.357E-03     327.036E-03
            3926            4257     385.060E-03     350.217E-03
            3927            4250     381.750E-03     370.988E-03
            3927            4251     417.985E-03     410.949E-03
            3927            4257     385.060E-03     350.217E-03
            3927            4258     418.880E-03     375.725E-03
            3928            4251     417.985E-03     410.949E-03
            3928            4252     455.989E-03     455.109E-03
            3928            4258     418.880E-03     375.725E-03
            3928            4259     453.222E-03     413.698E-03
            3929            4252     455.989E-03     455.109E-03
            3929            4253     512.292E-03     507.158E-03
            3929            4259     453.222E-03     413.698E-03
            3929            4260     480.047E-03     449.427E-03
            3930             611     546.467E-03     534.318E-03
            3930             612     488.626E-03     461.055E-03
            3930            4253     512.292E-03     507.158E-03
            3930            4260     480.047E-03     449.427E-03
            3931             643     279.085E-03     282.004E-03
            3931             644     283.346E-03     283.139E-03
            3931            4254     291.854E-03     289.534E-03
            3931            4261     283.245E-03     288.320E-03
            3932            4254     291.854E-03     289.534E-03
            3932            4255     314.870E-03     305.710E-03
            3932            4261     283.245E-03     288.320E-03
            3932            4262     295.700E-03     304.391E-03
            3933            4255     314.870E-03     305.710E-03
            3933            4256     348.357E-03     327.036E-03
            3933            4262     295.700E-03     304.391E-03
            3933            4263     313.197E-03     324.012E-03
            3934            4256     348.357E-03     327.036E-03
            3934            4257     385.060E-03     350.217E-03
            3934            4263     313.197E-03     324.012E-03
            3934            4264     329.179E-03     343.946E-03
            3935            4257     385.060E-03     350.217E-03
            3935            4258     418.880E-03     375.725E-03
            3935            4264     329.179E-03     343.946E-03
            3935            4265     342.698E-03     370.142E-03
            3936            4258     418.880E-03     375.725E-03
            3936            4259     453.222E-03     413.698E-03
            3936            4265     342.698E-03     370.142E-03
            3936            4266     359.059E-03     400.662E-03
            3937            4259     453.222E-03     413.698E-03
            3937            4260     480.047E-03     449.427E-03
            3937            4266     359.059E-03     400.662E-03
            3937            4267     385.015E-03     418.763E-03
            3938             612     488.626E-03     461.055E-03
            3938             613     401.352E-03     422.474E-03
            3938            4260     480.047E-03     449.427E-03
            3938            4267     385.015E-03     418.763E-03
            3939             642     281.348E-03     280.383E-03
            3939             643     279.085E-03     282.004E-03
            3939            4261     283.245E-03     288.320E-03
            3939            4268     284.321E-03     284.064E-03
            3940            4261     283.245E-03     288.320E-03
            3940            4262     295.700E-03     304.391E-03
            3940            4268     284.321E-03     284.064E-03
            3940            4269     293.034E-03     292.601E-03
            3941            4262     295.700E-03     304.391E-03
            3941            4263     313.197E-03     324.012E-03
            3941            4269     293.034E-03     292.601E-03
            3941            4270     304.469E-03     300.800E-03
            3942            4263     313.197E-03     324.012E-03
            3942            4264     329.179E-03     343.946E-03
            3942            4270     304.469E-03     300.800E-03
            3942            4271     313.899E-03     308.096E-03
            3943            4264     329.179E-03     343.946E-03
            3943            4265     342.698E-03     370.142E-03
            3943            4271     313.899E-03     308.096E-03
            3943            4272     321.390E-03     319.020E-03
            3944            4265     342.698E-03     370.142E-03
            3944            4266     359.059E-03     400.662E-03
            3944            4272     321.390E-03     319.020E-03
            3944            4273     333.210E-03     335.770E-03
            3945            4266     359.059E-03     400.662E-03
            3945            4267     385.015E-03     418.763E-03
            3945            4273     333.210E-03     335.770E-03
            3945            4274     353.447E-03     351.491E-03
            3946             613     401.352E-03     422.474E-03
            3946             614     365.618E-03     357.435E-03
            3946            4267     385.015E-03     418.763E-03
            3946            4274     353.447E-03     351.491E-03
            3947             641     281.819E-03     281.408E-03
            3947             642     281.348E-03     280.383E-03
            3947            4268     284.321E-03     284.064E-03
            3947            4275     283.060E-03     283.132E-03
            3948            4268     284.321E-03     284.064E-03
            3948            4269     293.034E-03     292.601E-03
            3948            4275     283.060E-03     283.132E-03
            3948            4276     286.523E-03     286.939E-03
            3949            4269     293.034E-03     292.601E-03
            3949            4270     304.469E-03     300.800E-03
            3949            4276     286.523E-03     286.939E-03
            3949            4277     290.940E-03     289.855E-03
            3950            4270     304.469E-03     300.800E-03
            3950            4271     313.899E-03     308.096E-03
            3950            4277     290.940E-03     289.855E-03
            3950            4278     293.165E-03     289.858E-03
            3951            4271     313.899E-03     308.096E-03
            3951            4272     321.390E-03     319.020E-03
            3951            4278     293.165E-03     289.858E-03
            3951            4279     292.482E-03     291.084E-03
            3952            4272     321.390E-03     319.020E-03
            3952            4273     333.210E-03     335.770E-03
            3952            4279     292.482E-03     291.084E-03
            3952            4280     293.699E-03     299.843E-03
            3953            4273     333.210E-03     335.770E-03
            3953            4274     353.447E-03     351.491E-03
            3953            4280     293.699E-03     299.843E-03
            3953            4281     305.212E-03     312.093E-03
            3954             614     365.618E-03     357.435E-03
            3954             615     314.794E-03     317.641E-03
            3954            4274     353.447E-03     351.491E-03
            3954            4281     305.212E-03     312.093E-03
            3955             640     282.189E-03     281.190E-03
            3955             641     281.819E-03     281.408E-03
            3955            4275     283.060E-03     283.132E-03
            3955            4282     281.416E-03     280.808E-03
            3956            4275     283.060E-03     283.132E-03
            3956            4276     286.523E-03     286.939E-03
            3956            4282     281.416E-03     280.808E-03
            3956            4283     279.117E-03     280.233E-03
            3957            4276     286.523E-03     286.939E-03
            3957            4277     290.940E-03     289.855E-03
            3957            4283     279.117E-03     280.233E-03
            3957            4284     275.586E-03     278.443E-03
            3958            4277     290.940E-03     289.855E-03
            3958            4278     293.165E-03     289.858E-03
            3958            4284     275.586E-03     278.443E-03
            3958            4285     270.111E-03     272.338E-03
            3959            4278     293.165E-03     289.858E-03
            3959            4279     292.482E-03     291.084E-03
            3959            4285     270.111E-03     272.338E-03
            3959            4286     260.195E-03     264.355E-03
            3960            4279     292.482E-03     291.084E-03
            3960            4280     293.699E-03     299.843E-03
            3960            4286     260.195E-03     264.355E-03
            3960            4287     251.805E-03     262.595E-03
            3961            4280     293.699E-03     299.843E-03
            3961            4281     305.212E-03     312.093E-03
            3961            4287     251.805E-03     262.595E-03
            3961            4288     260.361E-03     266.846E-03
            3962             615     314.794E-03     317.641E-03
            3962             616     270.860E-03     269.385E-03
            3962            4281     305.212E-03     312.093E-03
            3962            4288     260.361E-03     266.846E-03
            3963             639     282.764E-03     281.015E-03
            3963             640     282.189E-03     281.190E-03
            3963            4282     281.416E-03     280.808E-03
            3963            4289     280.592E-03     278.826E-03
            3964            4282     281.416E-03     280.808E-03
            3964            4283     279.117E-03     280.233E-03
            3964            4289     280.592E-03     278.826E-03
            3964            4290     273.983E-03     273.094E-03
            3965            4283     279.117E-03     280.233E-03
            3965            4284     275.586E-03     278.443E-03
            3965            4290     273.983E-03     273.094E-03
            3965            4291     264.140E-03     265.555E-03
            3966            4284     275.586E-03     278.443E-03
            3966            4285     270.111E-03     272.338E-03
            3966            4291     264.140E-03     265.555E-03
            3966            4292     252.053E-03     253.988E-03
            3967            4285     270.111E-03     272.338E-03
            3967            4286     260.195E-03     264.355E-03
            3967            4292     252.053E-03     253.988E-03
            3967            4293     236.693E-03     236.623E-03
            3968            4286     260.195E-03     264.355E-03
            3968            4287     251.805E-03     262.595E-03
            3968            4293     236.693E-03     236.623E-03
            3968            4294     221.025E-03     223.604E-03
            3969            4287     251.805E-03     262.595E-03
            3969            4288     260.361E-03     266.846E-03
            3969            4294     221.025E-03     223.604E-03
            3969            4295     218.698E-03     221.932E-03
            3970             616     270.860E-03     269.385E-03
            3970             617     223.363E-03     223.483E-03
            3970            4288     260.361E-03     266.846E-03
            3970            4295     218.698E-03     221.932E-03
            3971             638     283.119E-03     281.279E-03
            3971             639     282.764E-03     281.015E-03
            3971            4289     280.592E-03     278.826E-03
            3971            4296     279.565E-03     277.552E-03
            3972            4289     280.592E-03     278.826E-03
            3972            4290     273.983E-03     273.094E-03
            3972            4296     279.565E-03     277.552E-03
            3972            4297     269.195E-03     267.739E-03
            3973            4290     273.983E-03     273.094E-03
            3973            4291     264.140E-03     265.555E-03
            3973            4297     269.195E-03     267.739E-03
            3973            4298     252.729E-03     254.534E-03
            3974            4291     264.140E-03     265.555E-03
            3974            4292     252.053E-03     253.988E-03
            3974            4298     252.729E-03     254.534E-03
            3974            4299     233.535E-03     239.427E-03
            3975            4292     252.053E-03     253.988E-03
            3975            4293     236.693E-03     236.623E-03
            3975            4299     233.535E-03     239.427E-03
            3975            4300     212.231E-03     218.595E-03
            3976            4293     236.693E-03     236.623E-03
            3976            4294     221.025E-03     223.604E-03
            3976            4300     212.231E-03     218.595E-03
            3976            4301     188.370E-03     194.469E-03
            3977            4294     221.025E-03     223.604E-03
            3977            4295     218.698E-03     221.932E-03
            3977            4301     188.370E-03     194.469E-03
            3977            4302     176.281E-03     178.186E-03
            3978             617     223.363E-03     223.483E-03
            3978             618     176.292E-03     173.189E-03
            3978            4295     218.698E-03     221.932E-03
            3978            4302     176.281E-03     178.186E-03
            3979             637     283.156E-03     280.553E-03
            3979             638     283.119E-03     281.279E-03
            3979            4296     279.565E-03     277.552E-03
            3979            4303     278.715E-03     275.881E-03
            3980            4296     279.565E-03     277.552E-03
            3980            4297     269.195E-03     267.739E-03
            3980            4303     278.715E-03     275.881E-03
            3980            4304     265.118E-03     262.667E-03
            3981            4297     269.195E-03     267.739E-03
            3981            4298     252.729E-03     254.534E-03
            3981            4304     265.118E-03     262.667E-03
            3981            4305     243.623E-03     244.127E-03
            3982            4298     252.729E-03     254.534E-03
            3982            4299     233.535E-03     239.427E-03
            3982            4305     243.623E-03     244.127E-03
            3982            4306     217.797E-03     224.103E-03
            3983            4299     233.535E-03     239.427E-03
            3983            4300     212.231E-03     218.595E-03
            3983            4306     217.797E-03     224.103E-03
            3983            4307     193.639E-03     202.327E-03
            3984            4300     212.231E-03     218.595E-03
            3984            4301     188.370E-03     194.469E-03
            3984            4307     193.639E-03     202.327E-03
            3984            4308     167.921E-03     172.879E-03
            3985            4301     188.370E-03     194.469E-03
            3985            4302     176.281E-03     178.186E-03
            3985            4308     167.921E-03     172.879E-03
            3985            4309     138.039E-03     137.881E-03
            3986             618     176.292E-03     173.189E-03
            3986             619     123.203E-03     120.581E-03
            3986            4302     176.281E-03     178.186E-03
            3986            4309     138.039E-03     137.881E-03
            3987             636     282.169E-03     280.713E-03
            3987             637     283.156E-03     280.553E-03
            3987            4303     278.715E-03     275.881E-03
            3987            4310     276.976E-03     275.055E-03
            3988            4303     278.715E-03     275.881E-03
            3988            4304     265.118E-03     262.667E-03
            3988            4310     276.976E-03     275.055E-03
            3988            4311     261.540E-03     258.869E-03
            3989            4304     265.118E-03     262.667E-03
            3989            4305     243.623E-03     244.127E-03
            3989            4311     261.540E-03     258.869E-03
            3989            4312     236.804E-03     234.773E-03
            3990            4305     243.623E-03     244.127E-03
            3990            4306     217.797E-03     224.103E-03
            3990            4312     236.804E-03     234.773E-03
            3990            4313     206.825E-03     208.148E-03
            3991            4306     217.797E-03     224.103E-03
            3991            4307     193.639E-03     202.327E-03
            3991            4313     206.825E-03     208.148E-03
            3991            4314     178.467E-03     183.711E-03
            3992            4307     193.639E-03     202.327E-03
            3992            4308     167.921E-03     172.879E-03
            3992            4314     178.467E-03     183.711E-03
            3992            4315     154.819E-03     156.645E-03
            3993            4308     167.921E-03     172.879E-03
            3993            4309     138.039E-03     137.881E-03
            3993            4315     154.819E-03     156.645E-03
            3993            4316     112.082E-03     104.826E-03
            3994             619     123.203E-03     120.581E-03
            3994             620     80.1181E-03     68.6926E-03
            3994            4309     138.039E-03     137.881E-03
            3994            4316     112.082E-03     104.826E-03
            3995             635     273.828E-03     272.128E-03
            3995             636     282.169E-03     280.713E-03
            3995            4310     276.976E-03     275.055E-03
            3995            4317     268.425E-03     266.991E-03
            3996            4310     276.976E-03     275.055E-03
            3996            4311     261.540E-03     258.869E-03
            3996            4317     268.425E-03     266.991E-03
            3996            4318     253.451E-03     252.681E-03
            3997            4311     261.540E-03     258.869E-03
            3997            4312     236.804E-03     234.773E-03
            3997            4318     253.451E-03     252.681E-03
            3997            4319     228.585E-03     230.011E-03
            3998            4312     236.804E-03     234.773E-03
            3998            4313     206.825E-03     208.148E-03
            3998            4319     228.585E-03     230.011E-03
            3998            4320     198.175E-03     203.791E-03
            3999            4313     206.825E-03     208.148E-03
            3999            4314     178.467E-03     183.711E-03
            3999            4320     198.175E-03     203.791E-03
            3999            4321     163.053E-03     177.179E-03
            4000            4314     178.467E-03     183.711E-03
            4000            4315     154.819E-03     156.645E-03
            4000            4321     163.053E-03     177.179E-03
            4000            4322     130.045E-03     154.358E-03
            4001            4315     154.819E-03     156.645E-03
            4001            4316     112.082E-03     104.826E-03
            4001            4322     130.045E-03     154.358E-03
            4001            4323     114.182E-03     136.217E-03
            4002             620     80.1181E-03     68.6926E-03
            4002             621     111.318E-03     127.010E-03
            4002            4316     112.082E-03     104.826E-03
            4002            4323     114.182E-03     136.217E-03
            4003             634     268.905E-03     265.506E-03
            4003             635     273.828E-03     272.128E-03
            4003            4317     268.425E-03     266.991E-03
            4003            4324     264.135E-03     260.948E-03
            4004            4317     268.425E-03     266.991E-03
            4004            4318     253.451E-03     252.681E-03
            4004            4324     264.135E-03     260.948E-03
            4004            4325     250.522E-03     248.020E-03
            4005            4318     253.451E-03     252.681E-03
            4005            4319     228.585E-03     230.011E-03
            4005            4325     250.522E-03     248.020E-03
            4005            4326     228.172E-03     227.039E-03
            4006            4319     228.585E-03     230.011E-03
            4006            4320     198.175E-03     203.791E-03
            4006            4326     228.172E-03     227.039E-03
            4006            4327     200.176E-03     199.718E-03
            4007            4320     198.175E-03     203.791E-03
            4007            4321     163.053E-03     177.179E-03
            4007            4327     200.176E-03     199.718E-03
            4007            4328     165.813E-03     166.673E-03
            4008            4321     163.053E-03     177.179E-03
            4008            4322     130.045E-03     154.358E-03
            4008            4328     165.813E-03     166.673E-03
            4008            4329     130.876E-03     132.704E-03
            4009            4322     130.045E-03     154.358E-03
            4009            4323     114.182E-03     136.217E-03
            4009            4329     130.876E-03     132.704E-03
            4009            4330     132.153E-03     133.644E-03
            4010             621     111.318E-03     127.010E-03
            4010             622     148.492E-03     150.220E-03
            4010            4323     114.182E-03     136.217E-03
            4010            4330     132.153E-03     133.644E-03
            4011             633     270.192E-03     268.326E-03
            4011             634     268.905E-03     265.506E-03
            4011            4324     264.135E-03     260.948E-03
            4011            4331     265.584E-03     263.468E-03
            4012            4324     264.135E-03     260.948E-03
            4012            4325     250.522E-03     248.020E-03
            4012            4331     265.584E-03     263.468E-03
            4012            4332     251.185E-03     248.806E-03
            4013            4325     250.522E-03     248.020E-03
            4013            4326     228.172E-03     227.039E-03
            4013            4332     251.185E-03     248.806E-03
            4013            4333     228.663E-03     225.646E-03
            4014            4326     228.172E-03     227.039E-03
            4014            4327     200.176E-03     199.718E-03
            4014            4333     228.663E-03     225.646E-03
            4014            4334     198.447E-03     194.082E-03
            4015            4327     200.176E-03     199.718E-03
            4015            4328     165.813E-03     166.673E-03
            4015            4334     198.447E-03     194.082E-03
            4015            4335     162.205E-03     158.144E-03
            4016            4328     165.813E-03     166.673E-03
            4016            4329     130.876E-03     132.704E-03
            4016            4335     162.205E-03     158.144E-03
            4016            4336     123.222E-03     113.588E-03
            4017            4329     130.876E-03     132.704E-03
            4017            4330     132.153E-03     133.644E-03
            4017            4336     123.222E-03     113.588E-03
            4017            4337     95.2248E-03     81.6619E-03
            4018             622     148.492E-03     150.220E-03
            4018             623     87.4547E-03     76.5615E-03
            4018            4330     132.153E-03     133.644E-03
            4018            4337     95.2248E-03     81.6619E-03
            4019             632     267.882E-03     267.002E-03
            4019             633     270.192E-03     268.326E-03
            4019            4331     265.584E-03     263.468E-03
            4019            4338     262.672E-03     261.947E-03
            4020            4331     265.584E-03     263.468E-03
            4020            4332     251.185E-03     248.806E-03
            4020            4338     262.672E-03     261.947E-03
            4020            4339     247.848E-03     247.312E-03
            4021            4332     251.185E-03     248.806E-03
            4021            4333     228.663E-03     225.646E-03
            4021            4339     247.848E-03     247.312E-03
            4021            4340     223.312E-03     223.216E-03
            4022            4333     228.663E-03     225.646E-03
            4022            4334     198.447E-03     194.082E-03
            4022            4340     223.312E-03     223.216E-03
            4022            4341     190.225E-03     191.269E-03
            4023            4334     198.447E-03     194.082E-03
            4023            4335     162.205E-03     158.144E-03
            4023            4341     190.225E-03     191.269E-03
            4023            4342     148.852E-03     153.399E-03
            4024            4335     162.205E-03     158.144E-03
            4024            4336     123.222E-03     113.588E-03
            4024            4342     148.852E-03     153.399E-03
            4024            4343     99.7156E-03     107.715E-03
            4025            4336     123.222E-03     113.588E-03
            4025            4337     95.2248E-03     81.6619E-03
            4025            4343     99.7156E-03     107.715E-03
            4025            4344     55.7811E-03     78.4413E-03
            4026             623     87.4547E-03     76.5615E-03
            4026             624     37.7762E-03     74.4115E-03
            4026            4337     95.2248E-03     81.6619E-03
            4026            4344     55.7811E-03     78.4413E-03
            4027              27     133.429E-03     132.822E-03
            4027             631     130.694E-03     130.140E-03
            4027             632     267.882E-03     267.002E-03
            4027            4338     262.672E-03     261.947E-03
            4028             630     123.521E-03     122.740E-03
            4028             631     130.694E-03     130.140E-03
            4028            4338     262.672E-03     261.947E-03
            4028            4339     247.848E-03     247.312E-03
            4029             629     110.968E-03     109.989E-03
            4029             630     123.521E-03     122.740E-03
            4029            4339     247.848E-03     247.312E-03
            4029            4340     223.312E-03     223.216E-03
            4030             628     94.7556E-03     93.6374E-03
            4030             629     110.968E-03     109.989E-03
            4030            4340     223.312E-03     223.216E-03
            4030            4341     190.225E-03     191.269E-03
            4031             627     73.8621E-03     72.1363E-03
            4031             628     94.7556E-03     93.6374E-03
            4031            4341     190.225E-03     191.269E-03
            4031            4342     148.852E-03     153.399E-03
            4032             626     50.2416E-03     47.6390E-03
            4032             627     73.8621E-03     72.1363E-03
            4032            4342     148.852E-03     153.399E-03
            4032            4343     99.7156E-03     107.715E-03
            4033             625     30.2224E-03     39.2898E-03
            4033             626     50.2416E-03     47.6390E-03
            4033            4343     99.7156E-03     107.715E-03
            4033            4344     55.7811E-03     78.4413E-03
            4034              26     21.0297E-03     42.2555E-03
            4034             624     37.7762E-03     74.4115E-03
            4034             625     30.2224E-03     39.2898E-03
            4034            4344     55.7811E-03     78.4413E-03
            4994              12     181.967E-03     190.285E-03
            4994             300     232.703E-03     260.489E-03
            4994             496     186.305E-03     196.385E-03
            4994            5152     255.178E-03     258.001E-03
            4995             299     345.822E-03     407.829E-03
            4995             300     232.703E-03     260.489E-03
            4995            5152     255.178E-03     258.001E-03
            4995            5153     404.040E-03     393.477E-03
            4996             298     468.868E-03     558.149E-03
            4996             299     345.822E-03     407.829E-03
            4996            5153     404.040E-03     393.477E-03
            4996            5154     557.038E-03     535.092E-03
            4997             297     580.293E-03     702.157E-03
            4997             298     468.868E-03     558.149E-03
            4997            5154     557.038E-03     535.092E-03
            4997            5155     695.206E-03     665.241E-03
            4998             296     673.827E-03     853.620E-03
            4998             297     580.293E-03     702.157E-03
            4998            5155     695.206E-03     665.241E-03
            4998            5156     812.363E-03     781.421E-03
            4999             295     750.220E-03     978.398E-03
            4999             296     673.827E-03     853.620E-03
            4999            5156     812.363E-03     781.421E-03
            4999            5157     901.843E-03     873.345E-03
            5000             294     849.254E-03         1.02880
            5000             295     750.220E-03     978.398E-03
            5000            5157     901.843E-03     873.345E-03
            5000            5158     949.718E-03     909.391E-03
            5001              11     914.670E-03         1.03506
            5001             294     849.254E-03         1.02880
            5001             527     960.108E-03     907.303E-03
            5001            5158     949.718E-03     909.391E-03
            5002             496     186.305E-03     196.385E-03
            5002             497     185.373E-03     187.803E-03
            5002            5152     255.178E-03     258.001E-03
            5002            5159     259.653E-03     260.915E-03
            5003            5152     255.178E-03     258.001E-03
            5003            5153     404.040E-03     393.477E-03
            5003            5159     259.653E-03     260.915E-03
            5003            5160     418.598E-03     419.095E-03
            5004            5153     404.040E-03     393.477E-03
            5004            5154     557.038E-03     535.092E-03
            5004            5160     418.598E-03     419.095E-03
            5004            5161     585.063E-03     584.946E-03
            5005            5154     557.038E-03     535.092E-03
            5005            5155     695.206E-03     665.241E-03
            5005            5161     585.063E-03     584.946E-03
            5005            5162     739.009E-03     729.350E-03
            5006            5155     695.206E-03     665.241E-03
            5006            5156     812.363E-03     781.421E-03
            5006            5162     739.009E-03     729.350E-03
            5006            5163     859.810E-03     837.379E-03
            5007            5156     812.363E-03     781.421E-03
            5007            5157     901.843E-03     873.345E-03
            5007            5163     859.810E-03     837.379E-03
            5007            5164     928.534E-03     921.950E-03
            5008            5157     901.843E-03     873.345E-03
            5008            5158     949.718E-03     909.391E-03
            5008            5164     928.534E-03     921.950E-03
            5008            5165     960.640E-03     958.841E-03
            5009             526     972.676E-03     955.571E-03
            5009             527     960.108E-03     907.303E-03
            5009            5158     949.718E-03     909.391E-03
            5009            5165     960.640E-03     958.841E-03
            5010             497     185.373E-03     187.803E-03
            5010             498     199.725E-03     194.185E-03
            5010            5159     259.653E-03     260.915E-03
            5010            5166     273.931E-03     266.663E-03
            5011            5159     259.653E-03     260.915E-03
            5011            5160     418.598E-03     419.095E-03
            5011            5166     273.931E-03     266.663E-03
            5011            5167     433.556E-03     424.351E-03
            5012            5160     418.598E-03     419.095E-03
            5012            5161     585.063E-03     584.946E-03
            5012            5167     433.556E-03     424.351E-03
            5012            5168     604.075E-03     591.994E-03
            5013            5161     585.063E-03     584.946E-03
            5013            5162     739.009E-03     729.350E-03
            5013            5168     604.075E-03     591.994E-03
            5013            5169     765.309E-03     737.180E-03
            5014            5162     739.009E-03     729.350E-03
            5014            5163     859.810E-03     837.379E-03
            5014            5169     765.309E-03     737.180E-03
            5014            5170     891.080E-03     841.335E-03
            5015            5163     859.810E-03     837.379E-03
            5015            5164     928.534E-03     921.950E-03
            5015            5170     891.080E-03     841.335E-03
            5015            5171     967.118E-03     931.315E-03
            5016            5164     928.534E-03     921.950E-03
            5016            5165     960.640E-03     958.841E-03
            5016            5171     967.118E-03     931.315E-03
            5016            5172         1.01209     985.983E-03
            5017             525         1.03067     992.071E-03
            5017             526     972.676E-03     955.571E-03
            5017            5165     960.640E-03     958.841E-03
            5017            5172         1.01209     985.983E-03
            5018             498     199.725E-03     194.185E-03
            5018             499     195.453E-03     178.435E-03
            5018            5166     273.931E-03     266.663E-03
            5018            5173     266.069E-03     250.340E-03
            5019            5166     273.931E-03     266.663E-03
            5019            5167     433.556E-03     424.351E-03
            5019            5173     266.069E-03     250.340E-03
            5019            5174     420.677E-03     405.214E-03
            5020            5167     433.556E-03     424.351E-03
            5020            5168     604.075E-03     591.994E-03
            5020            5174     420.677E-03     405.214E-03
            5020            5175     583.272E-03     563.425E-03
            5021            5168     604.075E-03     591.994E-03
            5021            5169     765.309E-03     737.180E-03
            5021            5175     583.272E-03     563.425E-03
            5021            5176     734.531E-03     705.192E-03
            5022            5169     765.309E-03     737.180E-03
            5022            5170     891.080E-03     841.335E-03
            5022            5176     734.531E-03     705.192E-03
            5022            5177     860.683E-03     826.629E-03
            5023            5170     891.080E-03     841.335E-03
            5023            5171     967.118E-03     931.315E-03
            5023            5177     860.683E-03     826.629E-03
            5023            5178     959.703E-03     933.945E-03
            5024            5171     967.118E-03     931.315E-03
            5024            5172         1.01209     985.983E-03
            5024            5178     959.703E-03     933.945E-03
            5024            5179         1.04876         1.01634
            5025             524         1.09228         1.04634
            5025             525         1.03067     992.071E-03
            5025            5172         1.01209     985.983E-03
            5025            5179         1.04876         1.01634
            5026             499     195.453E-03     178.435E-03
            5026             500     159.699E-03     155.229E-03
            5026            5173     266.069E-03     250.340E-03
            5026            5180     227.848E-03     238.594E-03
            5027            5173     266.069E-03     250.340E-03
            5027            5174     420.677E-03     405.214E-03
            5027            5180     227.848E-03     238.594E-03
            5027            5181     372.925E-03     410.325E-03
            5028            5174     420.677E-03     405.214E-03
            5028            5175     583.272E-03     563.425E-03
            5028            5181     372.925E-03     410.325E-03
            5028            5182     521.884E-03     579.201E-03
            5029            5175     583.272E-03     563.425E-03
            5029            5176     734.531E-03     705.192E-03
            5029            5182     521.884E-03     579.201E-03
            5029            5183     655.282E-03     731.624E-03
            5030            5176     734.531E-03     705.192E-03
            5030            5177     860.683E-03     826.629E-03
            5030            5183     655.282E-03     731.624E-03
            5030            5184     765.377E-03     873.227E-03
            5031            5177     860.683E-03     826.629E-03
            5031            5178     959.703E-03     933.945E-03
            5031            5184     765.377E-03     873.227E-03
            5031            5185     849.641E-03     987.569E-03
            5032            5178     959.703E-03     933.945E-03
            5032            5179         1.04876         1.01634
            5032            5185     849.641E-03     987.569E-03
            5032            5186     941.163E-03         1.05721
            5033             523     997.149E-03         1.08220
            5033             524         1.09228         1.04634
            5033            5179         1.04876         1.01634
            5033            5186     941.163E-03         1.05721
            5034              19     211.883E-03     203.082E-03
            5034             500     159.699E-03     155.229E-03
            5034             553     270.406E-03     277.034E-03
            5034            5180     227.848E-03     238.594E-03
            5035             553     270.406E-03     277.034E-03
            5035             554     399.769E-03     434.833E-03
            5035            5180     227.848E-03     238.594E-03
            5035            5181     372.925E-03     410.325E-03
            5036             554     399.769E-03     434.833E-03
            5036             555     538.825E-03     597.770E-03
            5036            5181     372.925E-03     410.325E-03
            5036            5182     521.884E-03     579.201E-03
            5037             555     538.825E-03     597.770E-03
            5037             556     667.074E-03     750.726E-03
            5037            5182     521.884E-03     579.201E-03
            5037            5183     655.282E-03     731.624E-03
            5038             556     667.074E-03     750.726E-03
            5038             557     774.321E-03     896.371E-03
            5038            5183     655.282E-03     731.624E-03
            5038            5184     765.377E-03     873.227E-03
            5039             557     774.321E-03     896.371E-03
            5039             558     858.514E-03         1.01329
            5039            5184     765.377E-03     873.227E-03
            5039            5185     849.641E-03     987.569E-03
            5040             558     858.514E-03         1.01329
            5040             559     961.257E-03         1.08862
            5040            5185     849.641E-03     987.569E-03
            5040            5186     941.163E-03         1.05721
            5041              20         1.02702         1.11881
            5041             523     997.149E-03         1.08220
            5041             559     961.257E-03         1.08862
            5041            5186     941.163E-03         1.05721
            5077              21     832.537E-03     934.978E-03
            5077             596     774.297E-03     929.416E-03
            5077             664     902.332E-03     892.970E-03
            5077            5211     853.121E-03     863.915E-03
            5078             595     688.240E-03     887.460E-03
            5078             596     774.297E-03     929.416E-03
            5078            5211     853.121E-03     863.915E-03
            5078            5212     775.613E-03     792.939E-03
            5079             594     628.991E-03     785.969E-03
            5079             595     688.240E-03     887.460E-03
            5079            5212     775.613E-03     792.939E-03
            5079            5213     709.924E-03     713.102E-03
            5080             593     555.984E-03     662.138E-03
            5080             594     628.991E-03     785.969E-03
            5080            5213     709.924E-03     713.102E-03
            5080            5214     620.017E-03     624.202E-03
            5081             592     470.124E-03     545.231E-03
            5081             593     555.984E-03     662.138E-03
            5081            5214     620.017E-03     624.202E-03
            5081            5215     513.713E-03     516.852E-03
            5082             591     381.950E-03     428.793E-03
            5082             592     470.124E-03     545.231E-03
            5082            5215     513.713E-03     516.852E-03
            5082            5216     408.868E-03     403.813E-03
            5083             590     308.421E-03     327.888E-03
            5083             591     381.950E-03     428.793E-03
            5083            5216     408.868E-03     403.813E-03
            5083            5217     322.094E-03     307.882E-03
            5084              24     278.781E-03     285.247E-03
            5084             590     308.421E-03     327.888E-03
            5084             659     286.375E-03     268.624E-03
            5084            5217     322.094E-03     307.882E-03
            5085             664     902.332E-03     892.970E-03
            5085             665     861.147E-03     762.754E-03
            5085            5211     853.121E-03     863.915E-03
            5085            5218     865.881E-03     764.657E-03
            5086            5211     853.121E-03     863.915E-03
            5086            5212     775.613E-03     792.939E-03
            5086            5218     865.881E-03     764.657E-03
            5086            5219     848.680E-03     730.064E-03
            5087            5212     775.613E-03     792.939E-03
            5087            5213     709.924E-03     713.102E-03
            5087            5219     848.680E-03     730.064E-03
            5087            5220     780.064E-03     668.658E-03
            5088            5213     709.924E-03     713.102E-03
            5088            5214     620.017E-03     624.202E-03
            5088            5220     780.064E-03     668.658E-03
            5088            5221     674.563E-03     598.822E-03
            5089            5214     620.017E-03     624.202E-03
            5089            5215     513.713E-03     516.852E-03
            5089            5221     674.563E-03     598.822E-03
            5089            5222     553.067E-03     501.135E-03
            5090            5215     513.713E-03     516.852E-03
            5090            5216     408.868E-03     403.813E-03
            5090            5222     553.067E-03     501.135E-03
            5090            5223     431.109E-03     397.864E-03
            5091            5216     408.868E-03     403.813E-03
            5091            5217     322.094E-03     307.882E-03
            5091            5223     431.109E-03     397.864E-03
            5091            5224     328.135E-03     313.574E-03
            5092             658     284.441E-03     279.796E-03
            5092             659     286.375E-03     268.624E-03
            5092            5217     322.094E-03     307.882E-03
            5092            5224     328.135E-03     313.574E-03
            5093             665     861.147E-03     762.754E-03
            5093             666     730.202E-03     728.397E-03
            5093            5218     865.881E-03     764.657E-03
            5093            5225     732.909E-03     749.436E-03
            5094            5218     865.881E-03     764.657E-03
            5094            5219     848.680E-03     730.064E-03
            5094            5225     732.909E-03     749.436E-03
            5094            5226     716.326E-03     742.848E-03
            5095            5219     848.680E-03     730.064E-03
            5095            5220     780.064E-03     668.658E-03
            5095            5226     716.326E-03     742.848E-03
            5095            5227     660.506E-03     674.453E-03
            5096            5220     780.064E-03     668.658E-03
            5096            5221     674.563E-03     598.822E-03
            5096            5227     660.506E-03     674.453E-03
            5096            5228     580.189E-03     589.062E-03
            5097            5221     674.563E-03     598.822E-03
            5097            5222     553.067E-03     501.135E-03
            5097            5228     580.189E-03     589.062E-03
            5097            5229     486.483E-03     495.785E-03
            5098            5222     553.067E-03     501.135E-03
            5098            5223     431.109E-03     397.864E-03
            5098            5229     486.483E-03     495.785E-03
            5098            5230     388.215E-03     399.621E-03
            5099            5223     431.109E-03     397.864E-03
            5099            5224     328.135E-03     313.574E-03
            5099            5230     388.215E-03     399.621E-03
            5099            5231     306.596E-03     320.006E-03
            5100             657     273.327E-03     287.901E-03
            5100             658     284.441E-03     279.796E-03
            5100            5224     328.135E-03     313.574E-03
            5100            5231     306.596E-03     320.006E-03
            5101             666     730.202E-03     728.397E-03
            5101             667     746.931E-03     833.022E-03
            5101            5225     732.909E-03     749.436E-03
            5101            5232     698.853E-03     828.850E-03
            5102            5225     732.909E-03     749.436E-03
            5102            5226     716.326E-03     742.848E-03
            5102            5232     698.853E-03     828.850E-03
            5102            5233     622.979E-03     794.434E-03
            5103            5226     716.326E-03     742.848E-03
            5103            5227     660.506E-03     674.453E-03
            5103            5233     622.979E-03     794.434E-03
            5103            5234     566.641E-03     706.961E-03
            5104            5227     660.506E-03     674.453E-03
            5104            5228     580.189E-03     589.062E-03
            5104            5234     566.641E-03     706.961E-03
            5104            5235     502.819E-03     595.704E-03
            5105            5228     580.189E-03     589.062E-03
            5105            5229     486.483E-03     495.785E-03
            5105            5235     502.819E-03     595.704E-03
            5105            5236     430.294E-03     491.179E-03
            5106            5229     486.483E-03     495.785E-03
            5106            5230     388.215E-03     399.621E-03
            5106            5236     430.294E-03     491.179E-03
            5106            5237     357.147E-03     392.544E-03
            5107            5230     388.215E-03     399.621E-03
            5107            5231     306.596E-03     320.006E-03
            5107            5237     357.147E-03     392.544E-03
            5107            5238     299.353E-03     311.799E-03
            5108             656     277.461E-03     279.191E-03
            5108             657     273.327E-03     287.901E-03
            5108            5231     306.596E-03     320.006E-03
            5108            5238     299.353E-03     311.799E-03
            5109             667     746.931E-03     833.022E-03
            5109             668     867.073E-03     841.049E-03
            5109            5232     698.853E-03     828.850E-03
            5109            5239     823.576E-03     811.500E-03
            5110            5232     698.853E-03     828.850E-03
            5110            5233     622.979E-03     794.434E-03
            5110            5239     823.576E-03     811.500E-03
            5110            5240     742.598E-03     739.573E-03
            5111            5233     622.979E-03     794.434E-03
            5111            5234     566.641E-03     706.961E-03
            5111            5240     742.598E-03     739.573E-03
            5111            5241     666.896E-03     653.581E-03
            5112            5234     566.641E-03     706.961E-03
            5112            5235     502.819E-03     595.704E-03
            5112            5241     666.896E-03     653.581E-03
            5112            5242     579.124E-03     560.096E-03
            5113            5235     502.819E-03     595.704E-03
            5113            5236     430.294E-03     491.179E-03
            5113            5242     579.124E-03     560.096E-03
            5113            5243     481.291E-03     464.344E-03
            5114            5236     430.294E-03     491.179E-03
            5114            5237     357.147E-03     392.544E-03
            5114            5243     481.291E-03     464.344E-03
            5114            5244     388.500E-03     375.349E-03
            5115            5237     357.147E-03     392.544E-03
            5115            5238     299.353E-03     311.799E-03
            5115            5244     388.500E-03     375.349E-03
            5115            5245     315.641E-03     303.196E-03
            5116             655     287.290E-03     274.157E-03
            5116             656     277.461E-03     279.191E-03
            5116            5238     299.353E-03     311.799E-03
            5116            5245     315.641E-03     303.196E-03
            5117             668     867.073E-03     841.049E-03
            5117             669     804.174E-03     758.151E-03
            5117            5239     823.576E-03     811.500E-03
            5117            5246     791.053E-03     744.369E-03
            5118            5239     823.576E-03     811.500E-03
            5118            5240     742.598E-03     739.573E-03
            5118            5246     791.053E-03     744.369E-03
            5118            5247     747.385E-03     687.927E-03
            5119            5240     742.598E-03     739.573E-03
            5119            5241     666.896E-03     653.581E-03
            5119            5247     747.385E-03     687.927E-03
            5119            5248     680.117E-03     611.744E-03
            5120            5241     666.896E-03     653.581E-03
            5120            5242     579.124E-03     560.096E-03
            5120            5248     680.117E-03     611.744E-03
            5120            5249     596.141E-03     540.596E-03
            5121            5242     579.124E-03     560.096E-03
            5121            5243     481.291E-03     464.344E-03
            5121            5249     596.141E-03     540.596E-03
            5121            5250     496.099E-03     461.943E-03
            5122            5243     481.291E-03     464.344E-03
            5122            5244     388.500E-03     375.349E-03
            5122            5250     496.099E-03     461.943E-03
            5122            5251     396.617E-03     381.627E-03
            5123            5244     388.500E-03     375.349E-03
            5123            5245     315.641E-03     303.196E-03
            5123            5251     396.617E-03     381.627E-03
            5123            5252     319.220E-03     315.003E-03
            5124             654     288.514E-03     287.666E-03
            5124             655     287.290E-03     274.157E-03
            5124            5245     315.641E-03     303.196E-03
            5124            5252     319.220E-03     315.003E-03
            5125             669     804.174E-03     758.151E-03
            5125             670     696.464E-03     725.902E-03
            5125            5246     791.053E-03     744.369E-03
            5125            5253     667.265E-03     720.147E-03
            5126            5246     791.053E-03     744.369E-03
            5126            5247     747.385E-03     687.927E-03
            5126            5253     667.265E-03     720.147E-03
            5126            5254     616.789E-03     683.362E-03
            5127            5247     747.385E-03     687.927E-03
            5127            5248     680.117E-03     611.744E-03
            5127            5254     616.789E-03     683.362E-03
            5127            5255     572.208E-03     614.572E-03
            5128            5248     680.117E-03     611.744E-03
            5128            5249     596.141E-03     540.596E-03
            5128            5255     572.208E-03     614.572E-03
            5128            5256     517.005E-03     542.066E-03
            5129            5249     596.141E-03     540.596E-03
            5129            5250     496.099E-03     461.943E-03
            5129            5256     517.005E-03     542.066E-03
            5129            5257     444.657E-03     466.606E-03
            5130            5250     496.099E-03     461.943E-03
            5130            5251     396.617E-03     381.627E-03
            5130            5257     444.657E-03     466.606E-03
            5130            5258     366.188E-03     384.750E-03
            5131            5251     396.617E-03     381.627E-03
            5131            5252     319.220E-03     315.003E-03
            5131            5258     366.188E-03     384.750E-03
            5131            5259     305.025E-03     314.951E-03
            5132             653     281.882E-03     286.296E-03
            5132             654     288.514E-03     287.666E-03
            5132            5252     319.220E-03     315.003E-03
            5132            5259     305.025E-03     314.951E-03
            5133             670     696.464E-03     725.902E-03
            5133             671     664.333E-03     651.757E-03
            5133            5253     667.265E-03     720.147E-03
            5133            5260     640.623E-03     641.083E-03
            5134            5253     667.265E-03     720.147E-03
            5134            5254     616.789E-03     683.362E-03
            5134            5260     640.623E-03     641.083E-03
            5134            5261     594.437E-03     603.555E-03
            5135            5254     616.789E-03     683.362E-03
            5135            5255     572.208E-03     614.572E-03
            5135            5261     594.437E-03     603.555E-03
            5135            5262     551.325E-03     549.193E-03
            5136            5255     572.208E-03     614.572E-03
            5136            5256     517.005E-03     542.066E-03
            5136            5262     551.325E-03     549.193E-03
            5136            5263     502.359E-03     493.545E-03
            5137            5256     517.005E-03     542.066E-03
            5137            5257     444.657E-03     466.606E-03
            5137            5263     502.359E-03     493.545E-03
            5137            5264     437.357E-03     433.295E-03
            5138            5257     444.657E-03     466.606E-03
            5138            5258     366.188E-03     384.750E-03
            5138            5264     437.357E-03     433.295E-03
            5138            5265     365.115E-03     366.471E-03
            5139            5258     366.188E-03     384.750E-03
            5139            5259     305.025E-03     314.951E-03
            5139            5265     365.115E-03     366.471E-03
            5139            5266     307.757E-03     307.981E-03
            5140             652     285.970E-03     284.206E-03
            5140             653     281.882E-03     286.296E-03
            5140            5259     305.025E-03     314.951E-03
            5140            5266     307.757E-03     307.981E-03
            5141             671     664.333E-03     651.757E-03
            5141             672     610.053E-03     613.308E-03
            5141            5260     640.623E-03     641.083E-03
            5141            5267     590.095E-03     603.571E-03
            5142            5260     640.623E-03     641.083E-03
            5142            5261     594.437E-03     603.555E-03
            5142            5267     590.095E-03     603.571E-03
            5142            5268     555.465E-03     569.090E-03
            5143            5261     594.437E-03     603.555E-03
            5143            5262     551.325E-03     549.193E-03
            5143            5268     555.465E-03     569.090E-03
            5143            5269     523.066E-03     520.308E-03
            5144            5262     551.325E-03     549.193E-03
            5144            5263     502.359E-03     493.545E-03
            5144            5269     523.066E-03     520.308E-03
            5144            5270     479.993E-03     472.547E-03
            5145            5263     502.359E-03     493.545E-03
            5145            5264     437.357E-03     433.295E-03
            5145            5270     479.993E-03     472.547E-03
            5145            5271     421.345E-03     418.708E-03
            5146            5264     437.357E-03     433.295E-03
            5146            5265     365.115E-03     366.471E-03
            5146            5271     421.345E-03     418.708E-03
            5146            5272     356.795E-03     357.788E-03
            5147            5265     365.115E-03     366.471E-03
            5147            5266     307.757E-03     307.981E-03
            5147            5272     356.795E-03     357.788E-03
            5147            5273     306.028E-03     306.552E-03
            5148             651     286.509E-03     286.119E-03
            5148             652     285.970E-03     284.206E-03
            5148            5266     307.757E-03     307.981E-03
            5148            5273     306.028E-03     306.552E-03
            5149             672     610.053E-03     613.308E-03
            5149             673     564.669E-03     559.140E-03
            5149            5267     590.095E-03     603.571E-03
            5149            5274     545.385E-03     552.842E-03
            5150            5267     590.095E-03     603.571E-03
            5150            5268     555.465E-03     569.090E-03
            5150            5274     545.385E-03     552.842E-03
            5150            5275     513.094E-03     527.709E-03
            5151            5268     555.465E-03     569.090E-03
            5151            5269     523.066E-03     520.308E-03
            5151            5275     513.094E-03     527.709E-03
            5151            5276     486.908E-03     491.177E-03
            5152            5269     523.066E-03     520.308E-03
            5152            5270     479.993E-03     472.547E-03
            5152            5276     486.908E-03     491.177E-03
            5152            5277     450.438E-03     451.575E-03
            5153            5270     479.993E-03     472.547E-03
            5153            5271     421.345E-03     418.708E-03
            5153            5277     450.438E-03     451.575E-03
            5153            5278     398.933E-03     401.320E-03
            5154            5271     421.345E-03     418.708E-03
            5154            5272     356.795E-03     357.788E-03
            5154            5278     398.933E-03     401.320E-03
            5154            5279     344.823E-03     346.120E-03
            5155            5272     356.795E-03     357.788E-03
            5155            5273     306.028E-03     306.552E-03
            5155            5279     344.823E-03     346.120E-03
            5155            5280     302.775E-03     303.055E-03
            5156             650     286.621E-03     286.839E-03
            5156             651     286.509E-03     286.119E-03
            5156            5273     306.028E-03     306.552E-03
            5156            5280     302.775E-03     303.055E-03
            5157             673     564.669E-03     559.140E-03
            5157             674     509.727E-03     517.031E-03
            5157            5274     545.385E-03     552.842E-03
            5157            5281     494.974E-03     518.009E-03
            5158            5274     545.385E-03     552.842E-03
            5158            5275     513.094E-03     527.709E-03
            5158            5281     494.974E-03     518.009E-03
            5158            5282     474.118E-03     506.309E-03
            5159            5275     513.094E-03     527.709E-03
            5159            5276     486.908E-03     491.177E-03
            5159            5282     474.118E-03     506.309E-03
            5159            5283     455.936E-03     477.922E-03
            5160            5276     486.908E-03     491.177E-03
            5160            5277     450.438E-03     451.575E-03
            5160            5283     455.936E-03     477.922E-03
            5160            5284     422.539E-03     438.590E-03
            5161            5277     450.438E-03     451.575E-03
            5161            5278     398.933E-03     401.320E-03
            5161            5284     422.539E-03     438.590E-03
            5161            5285     377.651E-03     387.083E-03
            5162            5278     398.933E-03     401.320E-03
            5162            5279     344.823E-03     346.120E-03
            5162            5285     377.651E-03     387.083E-03
            5162            5286     334.006E-03     336.230E-03
            5163            5279     344.823E-03     346.120E-03
            5163            5280     302.775E-03     303.055E-03
            5163            5286     334.006E-03     336.230E-03
            5163            5287     301.298E-03     299.819E-03
            5164             649     288.666E-03     286.379E-03
            5164             650     286.621E-03     286.839E-03
            5164            5280     302.775E-03     303.055E-03
            5164            5287     301.298E-03     299.819E-03
            5165             674     509.727E-03     517.031E-03
            5165             675     477.924E-03     453.441E-03
            5165            5281     494.974E-03     518.009E-03
            5165            5288     483.067E-03     465.737E-03
            5166            5281     494.974E-03     518.009E-03
            5166            5282     474.118E-03     506.309E-03
            5166            5288     483.067E-03     465.737E-03
            5166            5289     485.187E-03     469.760E-03
            5167            5282     474.118E-03     506.309E-03
            5167            5283     455.936E-03     477.922E-03
            5167            5289     485.187E-03     469.760E-03
            5167            5290     462.790E-03     446.117E-03
            5168            5283     455.936E-03     477.922E-03
            5168            5284     422.539E-03     438.590E-03
            5168            5290     462.790E-03     446.117E-03
            5168            5291     418.068E-03     406.835E-03
            5169            5284     422.539E-03     438.590E-03
            5169            5285     377.651E-03     387.083E-03
            5169            5291     418.068E-03     406.835E-03
            5169            5292     370.130E-03     360.451E-03
            5170            5285     377.651E-03     387.083E-03
            5170            5286     334.006E-03     336.230E-03
            5170            5292     370.130E-03     360.451E-03
            5170            5293     328.707E-03     320.737E-03
            5171            5286     334.006E-03     336.230E-03
            5171            5287     301.298E-03     299.819E-03
            5171            5293     328.707E-03     320.737E-03
            5171            5294     298.489E-03     293.870E-03
            5172             648     287.106E-03     284.244E-03
            5172             649     288.666E-03     286.379E-03
            5172            5287     301.298E-03     299.819E-03
            5172            5294     298.489E-03     293.870E-03
            5173             675     477.924E-03     453.441E-03
            5173             676     432.624E-03     404.421E-03
            5173            5288     483.067E-03     465.737E-03
            5173            5295     450.640E-03     434.027E-03
            5174            5288     483.067E-03     465.737E-03
            5174            5289     485.187E-03     469.760E-03
            5174            5295     450.640E-03     434.027E-03
            5174            5296     458.038E-03     455.331E-03
            5175            5289     485.187E-03     469.760E-03
            5175            5290     462.790E-03     446.117E-03
            5175            5296     458.038E-03     455.331E-03
            5175            5297     426.709E-03     424.098E-03
            5176            5290     462.790E-03     446.117E-03
            5176            5291     418.068E-03     406.835E-03
            5176            5297     426.709E-03     424.098E-03
            5176            5298     384.832E-03     377.234E-03
            5177            5291     418.068E-03     406.835E-03
            5177            5292     370.130E-03     360.451E-03
            5177            5298     384.832E-03     377.234E-03
            5177            5299     346.161E-03     337.125E-03
            5178            5292     370.130E-03     360.451E-03
            5178            5293     328.707E-03     320.737E-03
            5178            5299     346.161E-03     337.125E-03
            5178            5300     315.267E-03     310.500E-03
            5179            5293     328.707E-03     320.737E-03
            5179            5294     298.489E-03     293.870E-03
            5179            5300     315.267E-03     310.500E-03
            5179            5301     293.672E-03     294.576E-03
            5180             647     285.466E-03     289.100E-03
            5180             648     287.106E-03     284.244E-03
            5180            5294     298.489E-03     293.870E-03
            5180            5301     293.672E-03     294.576E-03
            5181             676     432.624E-03     404.421E-03
            5181             677     455.727E-03     511.455E-03
            5181            5295     450.640E-03     434.027E-03
            5181            5302     428.441E-03     515.653E-03
            5182            5295     450.640E-03     434.027E-03
            5182            5296     458.038E-03     455.331E-03
            5182            5302     428.441E-03     515.653E-03
            5182            5303     387.140E-03     504.879E-03
            5183            5296     458.038E-03     455.331E-03
            5183            5297     426.709E-03     424.098E-03
            5183            5303     387.140E-03     504.879E-03
            5183            5304     361.127E-03     456.253E-03
            5184            5297     426.709E-03     424.098E-03
            5184            5298     384.832E-03     377.234E-03
            5184            5304     361.127E-03     456.253E-03
            5184            5305     336.275E-03     394.483E-03
            5185            5298     384.832E-03     377.234E-03
            5185            5299     346.161E-03     337.125E-03
            5185            5305     336.275E-03     394.483E-03
            5185            5306     314.184E-03     345.953E-03
            5186            5299     346.161E-03     337.125E-03
            5186            5300     315.267E-03     310.500E-03
            5186            5306     314.184E-03     345.953E-03
            5186            5307     297.088E-03     311.082E-03
            5187            5300     315.267E-03     310.500E-03
            5187            5301     293.672E-03     294.576E-03
            5187            5307     297.088E-03     311.082E-03
            5187            5308     285.402E-03     288.800E-03
            5188             646     281.576E-03     280.974E-03
            5188             647     285.466E-03     289.100E-03
            5188            5301     293.672E-03     294.576E-03
            5188            5308     285.402E-03     288.800E-03
            5189             677     455.727E-03     511.455E-03
            5189             678     546.467E-03     534.318E-03
            5189            5302     428.441E-03     515.653E-03
            5189            5309     512.292E-03     507.158E-03
            5190            5302     428.441E-03     515.653E-03
            5190            5303     387.140E-03     504.879E-03
            5190            5309     512.292E-03     507.158E-03
            5190            5310     455.989E-03     455.109E-03
            5191            5303     387.140E-03     504.879E-03
            5191            5304     361.127E-03     456.253E-03
            5191            5310     455.989E-03     455.109E-03
            5191            5311     417.985E-03     410.949E-03
            5192            5304     361.127E-03     456.253E-03
            5192            5305     336.275E-03     394.483E-03
            5192            5311     417.985E-03     410.949E-03
            5192            5312     381.750E-03     370.988E-03
            5193            5305     336.275E-03     394.483E-03
            5193            5306     314.184E-03     345.953E-03
            5193            5312     381.750E-03     370.988E-03
            5193            5313     344.370E-03     334.008E-03
            5194            5306     314.184E-03     345.953E-03
            5194            5307     297.088E-03     311.082E-03
            5194            5313     344.370E-03     334.008E-03
            5194            5314     312.927E-03     303.837E-03
            5195            5307     297.088E-03     311.082E-03
            5195            5308     285.402E-03     288.800E-03
            5195            5314     312.927E-03     303.837E-03
            5195            5315     290.638E-03     282.100E-03
            5196             645     282.769E-03     274.243E-03
            5196             646     281.576E-03     280.974E-03
            5196            5308     285.402E-03     288.800E-03
            5196            5315     290.638E-03     282.100E-03
            5197             678     546.467E-03     534.318E-03
            5197             679     488.626E-03     461.055E-03
            5197            5309     512.292E-03     507.158E-03
            5197            5316     480.047E-03     449.427E-03
            5198            5309     512.292E-03     507.158E-03
            5198            5310     455.989E-03     455.109E-03
            5198            5316     480.047E-03     449.427E-03
            5198            5317     453.222E-03     413.698E-03
            5199            5310     455.989E-03     455.109E-03
            5199            5311     417.985E-03     410.949E-03
            5199            5317     453.222E-03     413.698E-03
            5199            5318     418.880E-03     375.725E-03
            5200            5311     417.985E-03     410.949E-03
            5200            5312     381.750E-03     370.988E-03
            5200            5318     418.880E-03     375.725E-03
            5200            5319     385.060E-03     350.217E-03
            5201            5312     381.750E-03     370.988E-03
            5201            5313     344.370E-03     334.008E-03
            5201            5319     385.060E-03     350.217E-03
            5201            5320     348.357E-03     327.036E-03
            5202            5313     344.370E-03     334.008E-03
            5202            5314     312.927E-03     303.837E-03
            5202            5320     348.357E-03     327.036E-03
            5202            5321     314.870E-03     305.710E-03
            5203            5314     312.927E-03     303.837E-03
            5203            5315     290.638E-03     282.100E-03
            5203            5321     314.870E-03     305.710E-03
            5203            5322     291.854E-03     289.534E-03
            5204             644     283.346E-03     283.139E-03
            5204             645     282.769E-03     274.243E-03
            5204            5315     290.638E-03     282.100E-03
            5204            5322     291.854E-03     289.534E-03
            5205             679     488.626E-03     461.055E-03
            5205             680     401.352E-03     422.474E-03
            5205            5316     480.047E-03     449.427E-03
            5205            5323     385.015E-03     418.763E-03
            5206            5316     480.047E-03     449.427E-03
            5206            5317     453.222E-03     413.698E-03
            5206            5323     385.015E-03     418.763E-03
            5206            5324     359.059E-03     400.662E-03
            5207            5317     453.222E-03     413.698E-03
            5207            5318     418.880E-03     375.725E-03
            5207            5324     359.059E-03     400.662E-03
            5207            5325     342.698E-03     370.142E-03
            5208            5318     418.880E-03     375.725E-03
            5208            5319     385.060E-03     350.217E-03
            5208            5325     342.698E-03     370.142E-03
            5208            5326     329.179E-03     343.946E-03
            5209            5319     385.060E-03     350.217E-03
            5209            5320     348.357E-03     327.036E-03
            5209            5326     329.179E-03     343.946E-03
            5209            5327     313.197E-03     324.012E-03
            5210            5320     348.357E-03     327.036E-03
            5210            5321     314.870E-03     305.710E-03
            5210            5327     313.197E-03     324.012E-03
            5210            5328     295.700E-03     304.391E-03
            5211            5321     314.870E-03     305.710E-03
            5211            5322     291.854E-03     289.534E-03
            5211            5328     295.700E-03     304.391E-03
            5211            5329     283.245E-03     288.320E-03
            5212             643     279.085E-03     282.004E-03
            5212             644     283.346E-03     283.139E-03
            5212            5322     291.854E-03     289.534E-03
            5212            5329     283.245E-03     288.320E-03
            5213             680     401.352E-03     422.474E-03
            5213             681     365.618E-03     357.435E-03
            5213            5323     385.015E-03     418.763E-03
            5213            5330     353.447E-03     351.491E-03
            5214            5323     385.015E-03     418.763E-03
            5214            5324     359.059E-03     400.662E-03
            5214            5330     353.447E-03     351.491E-03
            5214            5331     333.210E-03     335.770E-03
            5215            5324     359.059E-03     400.662E-03
            5215            5325     342.698E-03     370.142E-03
            5215            5331     333.210E-03     335.770E-03
            5215            5332     321.390E-03     319.020E-03
            5216            5325     342.698E-03     370.142E-03
            5216            5326     329.179E-03     343.946E-03
            5216            5332     321.390E-03     319.020E-03
            5216            5333     313.899E-03     308.096E-03
            5217            5326     329.179E-03     343.946E-03
            5217            5327     313.197E-03     324.012E-03
            5217            5333     313.899E-03     308.096E-03
            5217            5334     304.469E-03     300.800E-03
            5218            5327     313.197E-03     324.012E-03
            5218            5328     295.700E-03     304.391E-03
            5218            5334     304.469E-03     300.800E-03
            5218            5335     293.034E-03     292.601E-03
            5219            5328     295.700E-03     304.391E-03
            5219            5329     283.245E-03     288.320E-03
            5219            5335     293.034E-03     292.601E-03
            5219            5336     284.321E-03     284.064E-03
            5220             642     281.348E-03     280.383E-03
            5220             643     279.085E-03     282.004E-03
            5220            5329     283.245E-03     288.320E-03
            5220            5336     284.321E-03     284.064E-03
            5221             681     365.618E-03     357.435E-03
            5221             682     314.794E-03     317.641E-03
            5221            5330     353.447E-03     351.491E-03
            5221            5337     305.212E-03     312.093E-03
            5222            5330     353.447E-03     351.491E-03
            5222            5331     333.210E-03     335.770E-03
            5222            5337     305.212E-03     312.093E-03
            5222            5338     293.699E-03     299.843E-03
            5223            5331     333.210E-03     335.770E-03
            5223            5332     321.390E-03     319.020E-03
            5223            5338     293.699E-03     299.843E-03
            5223            5339     292.482E-03     291.084E-03
            5224            5332     321.390E-03     319.020E-03
            5224            5333     313.899E-03     308.096E-03
            5224            5339     292.482E-03     291.084E-03
            5224            5340     293.165E-03     289.858E-03
            5225            5333     313.899E-03     308.096E-03
            5225            5334     304.469E-03     300.800E-03
            5225            5340     293.165E-03     289.858E-03
            5225            5341     290.940E-03     289.855E-03
            5226            5334     304.469E-03     300.800E-03
            5226            5335     293.034E-03     292.601E-03
            5226            5341     290.940E-03     289.855E-03
            5226            5342     286.523E-03     286.939E-03
            5227            5335     293.034E-03     292.601E-03
            5227            5336     284.321E-03     284.064E-03
            5227            5342     286.523E-03     286.939E-03
            5227            5343     283.060E-03     283.132E-03
            5228             641     281.819E-03     281.408E-03
            5228             642     281.348E-03     280.383E-03
            5228            5336     284.321E-03     284.064E-03
            5228            5343     283.060E-03     283.132E-03
            5229             682     314.794E-03     317.641E-03
            5229             683     270.860E-03     269.385E-03
            5229            5337     305.212E-03     312.093E-03
            5229            5344     260.361E-03     266.846E-03
            5230            5337     305.212E-03     312.093E-03
            5230            5338     293.699E-03     299.843E-03
            5230            5344     260.361E-03     266.846E-03
            5230            5345     251.805E-03     262.595E-03
            5231            5338     293.699E-03     299.843E-03
            5231            5339     292.482E-03     291.084E-03
            5231            5345     251.805E-03     262.595E-03
            5231            5346     260.195E-03     264.355E-03
            5232            5339     292.482E-03     291.084E-03
            5232            5340     293.165E-03     289.858E-03
            5232            5346     260.195E-03     264.355E-03
            5232            5347     270.111E-03     272.338E-03
            5233            5340     293.165E-03     289.858E-03
            5233            5341     290.940E-03     289.855E-03
            5233            5347     270.111E-03     272.338E-03
            5233            5348     275.586E-03     278.443E-03
            5234            5341     290.940E-03     289.855E-03
            5234            5342     286.523E-03     286.939E-03
            5234            5348     275.586E-03     278.443E-03
            5234            5349     279.117E-03     280.233E-03
            5235            5342     286.523E-03     286.939E-03
            5235            5343     283.060E-03     283.132E-03
            5235            5349     279.117E-03     280.233E-03
            5235            5350     281.416E-03     280.808E-03
            5236             640     282.189E-03     281.190E-03
            5236             641     281.819E-03     281.408E-03
            5236            5343     283.060E-03     283.132E-03
            5236            5350     281.416E-03     280.808E-03
            5237             683     270.860E-03     269.385E-03
            5237             684     223.363E-03     223.483E-03
            5237            5344     260.361E-03     266.846E-03
            5237            5351     218.698E-03     221.932E-03
            5238            5344     260.361E-03     266.846E-03
            5238            5345     251.805E-03     262.595E-03
            5238            5351     218.698E-03     221.932E-03
            5238            5352     221.025E-03     223.604E-03
            5239            5345     251.805E-03     262.595E-03
            5239            5346     260.195E-03     264.355E-03
            5239            5352     221.025E-03     223.604E-03
            5239            5353     236.693E-03     236.623E-03
            5240            5346     260.195E-03     264.355E-03
            5240            5347     270.111E-03     272.338E-03
            5240            5353     236.693E-03     236.623E-03
            5240            5354     252.053E-03     253.988E-03
            5241            5347     270.111E-03     272.338E-03
            5241            5348     275.586E-03     278.443E-03
            5241            5354     252.053E-03     253.988E-03
            5241            5355     264.140E-03     265.555E-03
            5242            5348     275.586E-03     278.443E-03
            5242            5349     279.117E-03     280.233E-03
            5242            5355     264.140E-03     265.555E-03
            5242            5356     273.983E-03     273.094E-03
            5243            5349     279.117E-03     280.233E-03
            5243            5350     281.416E-03     280.808E-03
            5243            5356     273.983E-03     273.094E-03
            5243            5357     280.592E-03     278.826E-03
            5244             639     282.764E-03     281.015E-03
            5244             640     282.189E-03     281.190E-03
            5244            5350     281.416E-03     280.808E-03
            5244            5357     280.592E-03     278.826E-03
            5245             684     223.363E-03     223.483E-03
            5245             685     176.292E-03     173.189E-03
            5245            5351     218.698E-03     221.932E-03
            5245            5358     176.281E-03     178.186E-03
            5246            5351     218.698E-03     221.932E-03
            5246            5352     221.025E-03     223.604E-03
            5246            5358     176.281E-03     178.186E-03
            5246            5359     188.370E-03     194.469E-03
            5247            5352     221.025E-03     223.604E-03
            5247            5353     236.693E-03     236.623E-03
            5247            5359     188.370E-03     194.469E-03
            5247            5360     212.231E-03     218.595E-03
            5248            5353     236.693E-03     236.623E-03
            5248            5354     252.053E-03     253.988E-03
            5248            5360     212.231E-03     218.595E-03
            5248            5361     233.535E-03     239.427E-03
            5249            5354     252.053E-03     253.988E-03
            5249            5355     264.140E-03     265.555E-03
            5249            5361     233.535E-03     239.427E-03
            5249            5362     252.729E-03     254.534E-03
            5250            5355     264.140E-03     265.555E-03
            5250            5356     273.983E-03     273.094E-03
            5250            5362     252.729E-03     254.534E-03
            5250            5363     269.195E-03     267.739E-03
            5251            5356     273.983E-03     273.094E-03
            5251            5357     280.592E-03     278.826E-03
            5251            5363     269.195E-03     267.739E-03
            5251            5364     279.565E-03     277.552E-03
            5252             638     283.119E-03     281.279E-03
            5252             639     282.764E-03     281.015E-03
            5252            5357     280.592E-03     278.826E-03
            5252            5364     279.565E-03     277.552E-03
            5253             685     176.292E-03     173.189E-03
            5253             686     123.203E-03     120.581E-03
            5253            5358     176.281E-03     178.186E-03
            5253            5365     138.039E-03     137.881E-03
            5254            5358     176.281E-03     178.186E-03
            5254            5359     188.370E-03     194.469E-03
            5254            5365     138.039E-03     137.881E-03
            5254            5366     167.921E-03     172.879E-03
            5255            5359     188.370E-03     194.469E-03
            5255            5360     212.231E-03     218.595E-03
            5255            5366     167.921E-03     172.879E-03
            5255            5367     193.639E-03     202.327E-03
            5256            5360     212.231E-03     218.595E-03
            5256            5361     233.535E-03     239.427E-03
            5256            5367     193.639E-03     202.327E-03
            5256            5368     217.797E-03     224.103E-03
            5257            5361     233.535E-03     239.427E-03
            5257            5362     252.729E-03     254.534E-03
            5257            5368     217.797E-03     224.103E-03
            5257            5369     243.623E-03     244.127E-03
            5258            5362     252.729E-03     254.534E-03
            5258            5363     269.195E-03     267.739E-03
            5258            5369     243.623E-03     244.127E-03
            5258            5370     265.118E-03     262.667E-03
            5259            5363     269.195E-03     267.739E-03
            5259            5364     279.565E-03     277.552E-03
            5259            5370     265.118E-03     262.667E-03
            5259            5371     278.715E-03     275.881E-03
            5260             637     283.156E-03     280.553E-03
            5260             638     283.119E-03     281.279E-03
            5260            5364     279.565E-03     277.552E-03
            5260            5371     278.715E-03     275.881E-03
            5261             686     123.203E-03     120.581E-03
            5261             687     80.1181E-03     68.6926E-03
            5261            5365     138.039E-03     137.881E-03
            5261            5372     112.082E-03     104.826E-03
            5262            5365     138.039E-03     137.881E-03
            5262            5366     167.921E-03     172.879E-03
            5262            5372     112.082E-03     104.826E-03
            5262            5373     154.819E-03     156.645E-03
            5263            5366     167.921E-03     172.879E-03
            5263            5367     193.639E-03     202.327E-03
            5263            5373     154.819E-03     156.645E-03
            5263            5374     178.467E-03     183.711E-03
            5264            5367     193.639E-03     202.327E-03
            5264            5368     217.797E-03     224.103E-03
            5264            5374     178.467E-03     183.711E-03
            5264            5375     206.825E-03     208.148E-03
            5265            5368     217.797E-03     224.103E-03
            5265            5369     243.623E-03     244.127E-03
            5265            5375     206.825E-03     208.148E-03
            5265            5376     236.804E-03     234.773E-03
            5266            5369     243.623E-03     244.127E-03
            5266            5370     265.118E-03     262.667E-03
            5266            5376     236.804E-03     234.773E-03
            5266            5377     261.540E-03     258.869E-03
            5267            5370     265.118E-03     262.667E-03
            5267            5371     278.715E-03     275.881E-03
            5267            5377     261.540E-03     258.869E-03
            5267            5378     276.976E-03     275.055E-03
            5268             636     282.169E-03     280.713E-03
            5268             637     283.156E-03     280.553E-03
            5268            5371     278.715E-03     275.881E-03
            5268            5378     276.976E-03     275.055E-03
            5269             687     80.1181E-03     68.6926E-03
            5269             688     111.318E-03     127.010E-03
            5269            5372     112.082E-03     104.826E-03
            5269            5379     114.182E-03     136.217E-03
            5270            5372     112.082E-03     104.826E-03
            5270            5373     154.819E-03     156.645E-03
            5270            5379     114.182E-03     136.217E-03
            5270            5380     130.045E-03     154.358E-03
            5271            5373     154.819E-03     156.645E-03
            5271            5374     178.467E-03     183.711E-03
            5271            5380     130.045E-03     154.358E-03
            5271            5381     163.053E-03     177.179E-03
            5272            5374     178.467E-03     183.711E-03
            5272            5375     206.825E-03     208.148E-03
            5272            5381     163.053E-03     177.179E-03
            5272            5382     198.175E-03     203.791E-03
            5273            5375     206.825E-03     208.148E-03
            5273            5376     236.804E-03     234.773E-03
            5273            5382     198.175E-03     203.791E-03
            5273            5383     228.585E-03     230.011E-03
            5274            5376     236.804E-03     234.773E-03
            5274            5377     261.540E-03     258.869E-03
            5274            5383     228.585E-03     230.011E-03
            5274            5384     253.451E-03     252.681E-03
            5275            5377     261.540E-03     258.869E-03
            5275            5378     276.976E-03     275.055E-03
            5275            5384     253.451E-03     252.681E-03
            5275            5385     268.425E-03     266.991E-03
            5276             635     273.828E-03     272.128E-03
            5276             636     282.169E-03     280.713E-03
            5276            5378     276.976E-03     275.055E-03
            5276            5385     268.425E-03     266.991E-03
            5277             688     111.318E-03     127.010E-03
            5277             689     148.492E-03     150.220E-03
            5277            5379     114.182E-03     136.217E-03
            5277            5386     132.153E-03     133.644E-03
            5278            5379     114.182E-03     136.217E-03
            5278            5380     130.045E-03     154.358E-03
            5278            5386     132.153E-03     133.644E-03
            5278            5387     130.876E-03     132.704E-03
            5279            5380     130.045E-03     154.358E-03
            5279            5381     163.053E-03     177.179E-03
            5279            5387     130.876E-03     132.704E-03
            5279            5388     165.813E-03     166.673E-03
            5280            5381     163.053E-03     177.179E-03
            5280            5382     198.175E-03     203.791E-03
            5280            5388     165.813E-03     166.673E-03
            5280            5389     200.176E-03     199.718E-03
            5281            5382     198.175E-03     203.791E-03
            5281            5383     228.585E-03     230.011E-03
            5281            5389     200.176E-03     199.718E-03
            5281            5390     228.172E-03     227.039E-03
            5282            5383     228.585E-03     230.011E-03
            5282            5384     253.451E-03     252.681E-03
            5282            5390     228.172E-03     227.039E-03
            5282            5391     250.522E-03     248.020E-03
            5283            5384     253.451E-03     252.681E-03
            5283            5385     268.425E-03     266.991E-03
            5283            5391     250.522E-03     248.020E-03
            5283            5392     264.135E-03     260.948E-03
            5284             634     268.905E-03     265.506E-03
            5284             635     273.828E-03     272.128E-03
            5284            5385     268.425E-03     266.991E-03
            5284            5392     264.135E-03     260.948E-03
            5285             689     148.492E-03     150.220E-03
            5285             690     87.4547E-03     76.5615E-03
            5285            5386     132.153E-03     133.644E-03
            5285            5393     95.2248E-03     81.6619E-03
            5286            5386     132.153E-03     133.644E-03
            5286            5387     130.876E-03     132.704E-03
            5286            5393     95.2248E-03     81.6619E-03
            5286            5394     123.222E-03     113.588E-03
            5287            5387     130.876E-03     132.704E-03
            5287            5388     165.813E-03     166.673E-03
            5287            5394     123.222E-03     113.588E-03
            5287            5395     162.205E-03     158.144E-03
            5288            5388     165.813E-03     166.673E-03
            5288            5389     200.176E-03     199.718E-03
            5288            5395     162.205E-03     158.144E-03
            5288            5396     198.447E-03     194.082E-03
            5289            5389     200.176E-03     199.718E-03
            5289            5390     228.172E-03     227.039E-03
            5289            5396     198.447E-03     194.082E-03
            5289            5397     228.663E-03     225.646E-03
            5290            5390     228.172E-03     227.039E-03
            5290            5391     250.522E-03     248.020E-03
            5290            5397     228.663E-03     225.646E-03
            5290            5398     251.185E-03     248.806E-03
            5291            5391     250.522E-03     248.020E-03
            5291            5392     264.135E-03     260.948E-03
            5291            5398     251.185E-03     248.806E-03
            5291            5399     265.584E-03     263.468E-03
            5292             633     270.192E-03     268.326E-03
            5292             634     268.905E-03     265.506E-03
            5292            5392     264.135E-03     260.948E-03
            5292            5399     265.584E-03     263.468E-03
            5293             690     87.4547E-03     76.5615E-03
            5293             691     37.7762E-03     74.4115E-03
            5293            5393     95.2248E-03     81.6619E-03
            5293            5400     55.7811E-03     78.4413E-03
            5294            5393     95.2248E-03     81.6619E-03
            5294            5394     123.222E-03     113.588E-03
            5294            5400     55.7811E-03     78.4413E-03
            5294            5401     99.7156E-03     107.715E-03
            5295            5394     123.222E-03     113.588E-03
            5295            5395     162.205E-03     158.144E-03
            5295            5401     99.7156E-03     107.715E-03
            5295            5402     148.852E-03     153.399E-03
            5296            5395     162.205E-03     158.144E-03
            5296            5396     198.447E-03     194.082E-03
            5296            5402     148.852E-03     153.399E-03
            5296            5403     190.225E-03     191.269E-03
            5297            5396     198.447E-03     194.082E-03
            5297            5397     228.663E-03     225.646E-03
            5297            5403     190.225E-03     191.269E-03
            5297            5404     223.312E-03     223.216E-03
            5298            5397     228.663E-03     225.646E-03
            5298            5398     251.185E-03     248.806E-03
            5298            5404     223.312E-03     223.216E-03
            5298            5405     247.848E-03     247.312E-03
            5299            5398     251.185E-03     248.806E-03
            5299            5399     265.584E-03     263.468E-03
            5299            5405     247.848E-03     247.312E-03
            5299            5406     262.672E-03     261.947E-03
            5300             632     267.882E-03     267.002E-03
            5300             633     270.192E-03     268.326E-03
            5300            5399     265.584E-03     263.468E-03
            5300            5406     262.672E-03     261.947E-03
            5301              28     21.0297E-03     42.2555E-03
            5301             691     37.7762E-03     74.4115E-03
            5301             865     30.2224E-03     39.2898E-03
            5301            5400     55.7811E-03     78.4413E-03
            5302             864     50.2416E-03     47.6390E-03
            5302             865     30.2224E-03     39.2898E-03
            5302            5400     55.7811E-03     78.4413E-03
            5302            5401     99.7156E-03     107.715E-03
            5303             863     73.8621E-03     72.1363E-03
            5303             864     50.2416E-03     47.6390E-03
            5303            5401     99.7156E-03     107.715E-03
            5303            5402     148.852E-03     153.399E-03
            5304             862     94.7556E-03     93.6374E-03
            5304             863     73.8621E-03     72.1363E-03
            5304            5402     148.852E-03     153.399E-03
            5304            5403     190.225E-03     191.269E-03
            5305             861     110.968E-03     109.989E-03
            5305             862     94.7556E-03     93.6374E-03
            5305            5403     190.225E-03     191.269E-03
            5305            5404     223.312E-03     223.216E-03
            5306             860     123.521E-03     122.740E-03
            5306             861     110.968E-03     109.989E-03
            5306            5404     223.312E-03     223.216E-03
            5306            5405     247.848E-03     247.312E-03
            5307             859     130.694E-03     130.140E-03
            5307             860     123.521E-03     122.740E-03
            5307            5405     247.848E-03     247.312E-03
            5307            5406     262.672E-03     261.947E-03
            5308              27     133.429E-03     132.822E-03
            5308             632     267.882E-03     267.002E-03
            5308             859     130.694E-03     130.140E-03
            5308            5406     262.672E-03     261.947E-03
            5374              28     21.0297E-03     42.2555E-03
            5374             812     11.3358E-15     10.4229E-15
            5374             865     30.2224E-03     39.2898E-03
            5374            5451     9.29270E-15     11.5899E-15
            5375             864     50.2416E-03     47.6390E-03
            5375             865     30.2224E-03     39.2898E-03
            5375            5451     9.29270E-15     11.5899E-15
            5375            5452     10.9502E-15     13.5001E-15
            5376             863     73.8621E-03     72.1363E-03
            5376             864     50.2416E-03     47.6390E-03
            5376            5452     10.9502E-15     13.5001E-15
            5376            5453     11.6907E-15     11.9294E-15
            5377             862     94.7556E-03     93.6374E-03
            5377             863     73.8621E-03     72.1363E-03
            5377            5453     11.6907E-15     11.9294E-15
            5377            5454     11.2501E-15     11.7767E-15
            5378             861     110.968E-03     109.989E-03
            5378             862     94.7556E-03     93.6374E-03
            5378            5454     11.2501E-15     11.7767E-15
            5378            5455     10.0235E-15     9.98619E-15
            5379             860     123.521E-03     122.740E-03
            5379             861     110.968E-03     109.989E-03
            5379            5455     10.0235E-15     9.98619E-15
            5379            5456     6.59017E-15     6.21092E-15
            5380             859     130.694E-03     130.140E-03
            5380             860     123.521E-03     122.740E-03
            5380            5456     6.59017E-15     6.21092E-15
            5380            5457     5.82829E-15     5.01149E-15
            5381              27     133.429E-03     132.822E-03
            5381             859     130.694E-03     130.140E-03
            5381             870     4.97694E-15     4.10199E-15
            5381            5457     5.82829E-15     5.01149E-15
            5382             812     11.3358E-15     10.4229E-15
            5382             813     16.0909E-15     16.0687E-15
            5382            5451     9.29270E-15     11.5899E-15
            5382            5458     11.7525E-15     14.0850E-15
            5383            5451     9.29270E-15     11.5899E-15
            5383            5452     10.9502E-15     13.5001E-15
            5383            5458     11.7525E-15     14.0850E-15
            5383            5459     7.01629E-15     9.84336E-15
            5384            5452     10.9502E-15     13.5001E-15
            5384            5453     11.6907E-15     11.9294E-15
            5384            5459     7.01629E-15     9.84336E-15
            5384            5460     8.64540E-15     8.57770E-15
            5385            5453     11.6907E-15     11.9294E-15
            5385            5454     11.2501E-15     11.7767E-15
            5385            5460     8.64540E-15     8.57770E-15
            5385            5461     9.64870E-15     8.77350E-15
            5386            5454     11.2501E-15     11.7767E-15
            5386            5455     10.0235E-15     9.98619E-15
            5386            5461     9.64870E-15     8.77350E-15
            5386            5462     7.08824E-15     6.70314E-15
            5387            5455     10.0235E-15     9.98619E-15
            5387            5456     6.59017E-15     6.21092E-15
            5387            5462     7.08824E-15     6.70314E-15
            5387            5463     5.88734E-15     5.56178E-15
            5388            5456     6.59017E-15     6.21092E-15
            5388            5457     5.82829E-15     5.01149E-15
            5388            5463     5.88734E-15     5.56178E-15
            5388            5464     4.49913E-15     4.01397E-15
            5389             870     4.97694E-15     4.10199E-15
            5389             871     2.82627E-15     2.63389E-15
            5389            5457     5.82829E-15     5.01149E-15
            5389            5464     4.49913E-15     4.01397E-15
            5390             813     16.0909E-15     16.0687E-15
            5390             814     24.6731E-15     23.8578E-15
            5390            5458     11.7525E-15     14.0850E-15
            5390            5465     17.9854E-15     18.0433E-15
            5391            5458     11.7525E-15     14.0850E-15
            5391            5459     7.01629E-15     9.84336E-15
            5391            5465     17.9854E-15     18.0433E-15
            5391            5466     9.11586E-15     9.26975E-15
            5392            5459     7.01629E-15     9.84336E-15
            5392            5460     8.64540E-15     8.57770E-15
            5392            5466     9.11586E-15     9.26975E-15
            5392            5467     7.26085E-15     7.57094E-15
            5393            5460     8.64540E-15     8.57770E-15
            5393            5461     9.64870E-15     8.77350E-15
            5393            5467     7.26085E-15     7.57094E-15
            5393            5468     6.88159E-15     6.53891E-15
            5394            5461     9.64870E-15     8.77350E-15
            5394            5462     7.08824E-15     6.70314E-15
            5394            5468     6.88159E-15     6.53891E-15
            5394            5469     5.74257E-15     4.34265E-15
            5395            5462     7.08824E-15     6.70314E-15
            5395            5463     5.88734E-15     5.56178E-15
            5395            5469     5.74257E-15     4.34265E-15
            5395            5470     4.66777E-15     4.07871E-15
            5396            5463     5.88734E-15     5.56178E-15
            5396            5464     4.49913E-15     4.01397E-15
            5396            5470     4.66777E-15     4.07871E-15
            5396            5471     3.49858E-15     3.39957E-15
            5397             871     2.82627E-15     2.63389E-15
            5397             872     3.41174E-15     3.20800E-15
            5397            5464     4.49913E-15     4.01397E-15
            5397            5471     3.49858E-15     3.39957E-15
            5398             814     24.6731E-15     23.8578E-15
            5398             815     23.4551E-15     23.5250E-15
            5398            5465     17.9854E-15     18.0433E-15
            5398            5472     17.6717E-15     17.6229E-15
            5399            5465     17.9854E-15     18.0433E-15
            5399            5466     9.11586E-15     9.26975E-15
            5399            5472     17.6717E-15     17.6229E-15
            5399            5473     10.2861E-15     9.75922E-15
            5400            5466     9.11586E-15     9.26975E-15
            5400            5467     7.26085E-15     7.57094E-15
            5400            5473     10.2861E-15     9.75922E-15
            5400            5474     7.10580E-15     6.86590E-15
            5401            5467     7.26085E-15     7.57094E-15
            5401            5468     6.88159E-15     6.53891E-15
            5401            5474     7.10580E-15     6.86590E-15
            5401            5475     5.11419E-15     4.04733E-15
            5402            5468     6.88159E-15     6.53891E-15
            5402            5469     5.74257E-15     4.34265E-15
            5402            5475     5.11419E-15     4.04733E-15
            5402            5476     4.66835E-15     3.13531E-15
            5403            5469     5.74257E-15     4.34265E-15
            5403            5470     4.66777E-15     4.07871E-15
            5403            5476     4.66835E-15     3.13531E-15
            5403            5477     3.13147E-15     2.84159E-15
            5404            5470     4.66777E-15     4.07871E-15
            5404            5471     3.49858E-15     3.39957E-15
            5404            5477     3.13147E-15     2.84159E-15
            5404            5478     2.17492E-15     1.81630E-15
            5405             872     3.41174E-15     3.20800E-15
            5405             873     3.22636E-15     2.47909E-15
            5405            5471     3.49858E-15     3.39957E-15
            5405            5478     2.17492E-15     1.81630E-15
            5406             815     23.4551E-15     23.5250E-15
            5406             816     17.7412E-15     17.7030E-15
            5406            5472     17.6717E-15     17.6229E-15
            5406            5479     16.9329E-15     15.8389E-15
            5407            5472     17.6717E-15     17.6229E-15
            5407            5473     10.2861E-15     9.75922E-15
            5407            5479     16.9329E-15     15.8389E-15
            5407            5480     12.3791E-15     10.9542E-15
            5408            5473     10.2861E-15     9.75922E-15
            5408            5474     7.10580E-15     6.86590E-15
            5408            5480     12.3791E-15     10.9542E-15
            5408            5481     8.07245E-15     7.01821E-15
            5409            5474     7.10580E-15     6.86590E-15
            5409            5475     5.11419E-15     4.04733E-15
            5409            5481     8.07245E-15     7.01821E-15
            5409            5482     7.87908E-15     6.74991E-15
            5410            5475     5.11419E-15     4.04733E-15
            5410            5476     4.66835E-15     3.13531E-15
            5410            5482     7.87908E-15     6.74991E-15
            5410            5483     6.97064E-15     6.46717E-15
            5411            5476     4.66835E-15     3.13531E-15
            5411            5477     3.13147E-15     2.84159E-15
            5411            5483     6.97064E-15     6.46717E-15
            5411            5484     4.33623E-15     3.71452E-15
            5412            5477     3.13147E-15     2.84159E-15
            5412            5478     2.17492E-15     1.81630E-15
            5412            5484     4.33623E-15     3.71452E-15
            5412            5485     2.60826E-15     2.11319E-15
            5413             873     3.22636E-15     2.47909E-15
            5413             874     2.47050E-15     2.07649E-15
            5413            5478     2.17492E-15     1.81630E-15
            5413            5485     2.60826E-15     2.11319E-15
            5414             816     17.7412E-15     17.7030E-15
            5414             817     18.0637E-15     17.4730E-15
            5414            5479     16.9329E-15     15.8389E-15
            5414            5486     20.9307E-15     19.8292E-15
            5415            5479     16.9329E-15     15.8389E-15
            5415            5480     12.3791E-15     10.9542E-15
            5415            5486     20.9307E-15     19.8292E-15
            5415            5487     17.1439E-15     15.9207E-15
            5416            5480     12.3791E-15     10.9542E-15
            5416            5481     8.07245E-15     7.01821E-15
            5416            5487     17.1439E-15     15.9207E-15
            5416            5488     8.56574E-15     8.18410E-15
            5417            5481     8.07245E-15     7.01821E-15
            5417            5482     7.87908E-15     6.74991E-15
            5417            5488     8.56574E-15     8.18410E-15
            5417            5489     9.39045E-15     9.05595E-15
            5418            5482     7.87908E-15     6.74991E-15
            5418            5483     6.97064E-15     6.46717E-15
            5418            5489     9.39045E-15     9.05595E-15
            5418            5490     10.8838E-15     10.9464E-15
            5419            5483     6.97064E-15     6.46717E-15
            5419            5484     4.33623E-15     3.71452E-15
            5419            5490     10.8838E-15     10.9464E-15
            5419            5491     8.66348E-15     8.47362E-15
            5420            5484     4.33623E-15     3.71452E-15
            5420            5485     2.60826E-15     2.11319E-15
            5420            5491     8.66348E-15     8.47362E-15
            5420            5492     7.36501E-15     6.84797E-15
            5421             874     2.47050E-15     2.07649E-15
            5421             875     7.31960E-15     7.20023E-15
            5421            5485     2.60826E-15     2.11319E-15
            5421            5492     7.36501E-15     6.84797E-15
            5422              31     20.1754E-15     18.9745E-15
            5422             817     18.0637E-15     17.4730E-15
            5422             882     23.7771E-15     22.5877E-15
            5422            5486     20.9307E-15     19.8292E-15
            5423             881     18.9292E-15     17.9429E-15
            5423             882     23.7771E-15     22.5877E-15
            5423            5486     20.9307E-15     19.8292E-15
            5423            5487     17.1439E-15     15.9207E-15
            5424             880     7.99244E-15     7.44935E-15
            5424             881     18.9292E-15     17.9429E-15
            5424            5487     17.1439E-15     15.9207E-15
            5424            5488     8.56574E-15     8.18410E-15
            5425             879     9.05487E-15     8.01589E-15
            5425             880     7.99244E-15     7.44935E-15
            5425            5488     8.56574E-15     8.18410E-15
            5425            5489     9.39045E-15     9.05595E-15
            5426             878     12.3746E-15     12.6244E-15
            5426             879     9.05487E-15     8.01589E-15
            5426            5489     9.39045E-15     9.05595E-15
            5426            5490     10.8838E-15     10.9464E-15
            5427             877     11.7981E-15     12.6706E-15
            5427             878     12.3746E-15     12.6244E-15
            5427            5490     10.8838E-15     10.9464E-15
            5427            5491     8.66348E-15     8.47362E-15
            5428             876     11.6435E-15     10.8487E-15
            5428             877     11.7981E-15     12.6706E-15
            5428            5491     8.66348E-15     8.47362E-15
            5428            5492     7.36501E-15     6.84797E-15
            5429              35     12.0894E-15     11.4532E-15
            5429             875     7.31960E-15     7.20023E-15
            5429             876     11.6435E-15     10.8487E-15
            5429            5492     7.36501E-15     6.84797E-15
            6151              27     133.429E-03     132.822E-03
            6151             631     130.694E-03     130.140E-03
            6151             870     4.97694E-15     4.10199E-15
            6151            6115     6.02710E-15     5.53870E-15
            6152             630     123.521E-03     122.740E-03
            6152             631     130.694E-03     130.140E-03
            6152            6115     6.02710E-15     5.53870E-15
            6152            6116     6.12589E-15     5.17981E-15
            6153             629     110.968E-03     109.989E-03
            6153             630     123.521E-03     122.740E-03
            6153            6116     6.12589E-15     5.17981E-15
            6153            6117     7.23805E-15     6.26224E-15
            6154             628     94.7556E-03     93.6374E-03
            6154             629     110.968E-03     109.989E-03
            6154            6117     7.23805E-15     6.26224E-15
            6154            6118     10.7915E-15     11.6117E-15
            6155             627     73.8621E-03     72.1363E-03
            6155             628     94.7556E-03     93.6374E-03
            6155            6118     10.7915E-15     11.6117E-15
            6155            6119     11.7928E-15     13.0181E-15
            6156             626     50.2416E-03     47.6390E-03
            6156             627     73.8621E-03     72.1363E-03
            6156            6119     11.7928E-15     13.0181E-15
            6156            6120     11.3314E-15     10.8888E-15
            6157             625     30.2224E-03     39.2898E-03
            6157             626     50.2416E-03     47.6390E-03
            6157            6120     11.3314E-15     10.8888E-15
            6157            6121     13.2939E-15     11.6481E-15
            6158              26     21.0297E-03     42.2555E-03
            6158             625     30.2224E-03     39.2898E-03
            6158             858     15.0063E-15     13.0055E-15
            6158            6121     13.2939E-15     11.6481E-15
            6159             870     4.97694E-15     4.10199E-15
            6159             871     2.82627E-15     2.63389E-15
            6159            6115     6.02710E-15     5.53870E-15
            6159            6122     3.51698E-15     3.72498E-15
            6160            6115     6.02710E-15     5.53870E-15
            6160            6116     6.12589E-15     5.17981E-15
            6160            6122     3.51698E-15     3.72498E-15
            6160            6123     3.64721E-15     4.00836E-15
            6161            6116     6.12589E-15     5.17981E-15
            6161            6117     7.23805E-15     6.26224E-15
            6161            6123     3.64721E-15     4.00836E-15
            6161            6124     4.64929E-15     5.52226E-15
            6162            6117     7.23805E-15     6.26224E-15
            6162            6118     10.7915E-15     11.6117E-15
            6162            6124     4.64929E-15     5.52226E-15
            6162            6125     11.4226E-15     12.8369E-15
            6163            6118     10.7915E-15     11.6117E-15
            6163            6119     11.7928E-15     13.0181E-15
            6163            6125     11.4226E-15     12.8369E-15
            6163            6126     12.4858E-15     14.0107E-15
            6164            6119     11.7928E-15     13.0181E-15
            6164            6120     11.3314E-15     10.8888E-15
            6164            6126     12.4858E-15     14.0107E-15
            6164            6127     10.9646E-15     10.7721E-15
            6165            6120     11.3314E-15     10.8888E-15
            6165            6121     13.2939E-15     11.6481E-15
            6165            6127     10.9646E-15     10.7721E-15
            6165            6128     16.1520E-15     14.8755E-15
            6166             857     18.6618E-15     18.0979E-15
            6166             858     15.0063E-15     13.0055E-15
            6166            6121     13.2939E-15     11.6481E-15
            6166            6128     16.1520E-15     14.8755E-15
            6167             871     2.82627E-15     2.63389E-15
            6167             872     3.41174E-15     3.20800E-15
            6167            6122     3.51698E-15     3.72498E-15
            6167            6129     3.35974E-15     2.56611E-15
            6168            6122     3.51698E-15     3.72498E-15
            6168            6123     3.64721E-15     4.00836E-15
            6168            6129     3.35974E-15     2.56611E-15
            6168            6130     3.86497E-15     3.77967E-15
            6169            6123     3.64721E-15     4.00836E-15
            6169            6124     4.64929E-15     5.52226E-15
            6169            6130     3.86497E-15     3.77967E-15
            6169            6131     6.45684E-15     7.73309E-15
            6170            6124     4.64929E-15     5.52226E-15
            6170            6125     11.4226E-15     12.8369E-15
            6170            6131     6.45684E-15     7.73309E-15
            6170            6132     8.49925E-15     10.7584E-15
            6171            6125     11.4226E-15     12.8369E-15
            6171            6126     12.4858E-15     14.0107E-15
            6171            6132     8.49925E-15     10.7584E-15
            6171            6133     8.14330E-15     9.86708E-15
            6172            6126     12.4858E-15     14.0107E-15
            6172            6127     10.9646E-15     10.7721E-15
            6172            6133     8.14330E-15     9.86708E-15
            6172            6134     11.2276E-15     11.5697E-15
            6173            6127     10.9646E-15     10.7721E-15
            6173            6128     16.1520E-15     14.8755E-15
            6173            6134     11.2276E-15     11.5697E-15
            6173            6135     24.7462E-15     24.9529E-15
            6174             856     34.3764E-15     34.6869E-15
            6174             857     18.6618E-15     18.0979E-15
            6174            6128     16.1520E-15     14.8755E-15
            6174            6135     24.7462E-15     24.9529E-15
            6175             872     3.41174E-15     3.20800E-15
            6175             873     3.22636E-15     2.47909E-15
            6175            6129     3.35974E-15     2.56611E-15
            6175            6136     3.34390E-15     2.65535E-15
            6176            6129     3.35974E-15     2.56611E-15
            6176            6130     3.86497E-15     3.77967E-15
            6176            6136     3.34390E-15     2.65535E-15
            6176            6137     3.96409E-15     3.61136E-15
            6177            6130     3.86497E-15     3.77967E-15
            6177            6131     6.45684E-15     7.73309E-15
            6177            6137     3.96409E-15     3.61136E-15
            6177            6138     6.92339E-15     6.24435E-15
            6178            6131     6.45684E-15     7.73309E-15
            6178            6132     8.49925E-15     10.7584E-15
            6178            6138     6.92339E-15     6.24435E-15
            6178            6139     9.07402E-15     9.78551E-15
            6179            6132     8.49925E-15     10.7584E-15
            6179            6133     8.14330E-15     9.86708E-15
            6179            6139     9.07402E-15     9.78551E-15
            6179            6140     9.14748E-15     11.3921E-15
            6180            6133     8.14330E-15     9.86708E-15
            6180            6134     11.2276E-15     11.5697E-15
            6180            6140     9.14748E-15     11.3921E-15
            6180            6141     10.5467E-15     13.1576E-15
            6181            6134     11.2276E-15     11.5697E-15
            6181            6135     24.7462E-15     24.9529E-15
            6181            6141     10.5467E-15     13.1576E-15
            6181            6142     18.8932E-15     20.8264E-15
            6182             855     25.7166E-15     26.2291E-15
            6182             856     34.3764E-15     34.6869E-15
            6182            6135     24.7462E-15     24.9529E-15
            6182            6142     18.8932E-15     20.8264E-15
            6183             873     3.22636E-15     2.47909E-15
            6183             874     2.47050E-15     2.07649E-15
            6183            6136     3.34390E-15     2.65535E-15
            6183            6143     2.98268E-15     2.75485E-15
            6184            6136     3.34390E-15     2.65535E-15
            6184            6137     3.96409E-15     3.61136E-15
            6184            6143     2.98268E-15     2.75485E-15
            6184            6144     3.77036E-15     3.94859E-15
            6185            6137     3.96409E-15     3.61136E-15
            6185            6138     6.92339E-15     6.24435E-15
            6185            6144     3.77036E-15     3.94859E-15
            6185            6145     4.93156E-15     3.74939E-15
            6186            6138     6.92339E-15     6.24435E-15
            6186            6139     9.07402E-15     9.78551E-15
            6186            6145     4.93156E-15     3.74939E-15
            6186            6146     8.44608E-15     6.26652E-15
            6187            6139     9.07402E-15     9.78551E-15
            6187            6140     9.14748E-15     11.3921E-15
            6187            6146     8.44608E-15     6.26652E-15
            6187            6147     11.9330E-15     10.5441E-15
            6188            6140     9.14748E-15     11.3921E-15
            6188            6141     10.5467E-15     13.1576E-15
            6188            6147     11.9330E-15     10.5441E-15
            6188            6148     13.3565E-15     15.3892E-15
            6189            6141     10.5467E-15     13.1576E-15
            6189            6142     18.8932E-15     20.8264E-15
            6189            6148     13.3565E-15     15.3892E-15
            6189            6149     8.13708E-15     11.0246E-15
            6190             854     2.12015E-15     3.11901E-15
            6190             855     25.7166E-15     26.2291E-15
            6190            6142     18.8932E-15     20.8264E-15
            6190            6149     8.13708E-15     11.0246E-15
            6191             874     2.47050E-15     2.07649E-15
            6191             875     7.31960E-15     7.20023E-15
            6191            6143     2.98268E-15     2.75485E-15
            6191            6150     8.62162E-15     8.29677E-15
            6192            6143     2.98268E-15     2.75485E-15
            6192            6144     3.77036E-15     3.94859E-15
            6192            6150     8.62162E-15     8.29677E-15
            6192            6151     10.3055E-15     9.60728E-15
            6193            6144     3.77036E-15     3.94859E-15
            6193            6145     4.93156E-15     3.74939E-15
            6193            6151     10.3055E-15     9.60728E-15
            6193            6152     10.6095E-15     9.12769E-15
            6194            6145     4.93156E-15     3.74939E-15
            6194            6146     8.44608E-15     6.26652E-15
            6194            6152     10.6095E-15     9.12769E-15
            6194            6153     10.2817E-15     8.26816E-15
            6195            6146     8.44608E-15     6.26652E-15
            6195            6147     11.9330E-15     10.5441E-15
            6195            6153     10.2817E-15     8.26816E-15
            6195            6154     15.8173E-15     13.1293E-15
            6196            6147     11.9330E-15     10.5441E-15
            6196            6148     13.3565E-15     15.3892E-15
            6196            6154     15.8173E-15     13.1293E-15
            6196            6155     17.6352E-15     16.4230E-15
            6197            6148     13.3565E-15     15.3892E-15
            6197            6149     8.13708E-15     11.0246E-15
            6197            6155     17.6352E-15     16.4230E-15
            6197            6156     12.3458E-15     12.9401E-15
            6198             853     10.7354E-15     11.2322E-15
            6198             854     2.12015E-15     3.11901E-15
            6198            6149     8.13708E-15     11.0246E-15
            6198            6156     12.3458E-15     12.9401E-15
            6199              35     12.0894E-15     11.4532E-15
            6199             875     7.31960E-15     7.20023E-15
            6199             904     13.6346E-15     13.1730E-15
            6199            6150     8.62162E-15     8.29677E-15
            6200             903     16.0034E-15     14.3943E-15
            6200             904     13.6346E-15     13.1730E-15
            6200            6150     8.62162E-15     8.29677E-15
            6200            6151     10.3055E-15     9.60728E-15
            6201             902     16.1839E-15     13.5308E-15
            6201             903     16.0034E-15     14.3943E-15
            6201            6151     10.3055E-15     9.60728E-15
            6201            6152     10.6095E-15     9.12769E-15
            6202             901     11.9114E-15     10.0484E-15
            6202             902     16.1839E-15     13.5308E-15
            6202            6152     10.6095E-15     9.12769E-15
            6202            6153     10.2817E-15     8.26816E-15
            6203             900     17.4470E-15     16.8237E-15
            6203             901     11.9114E-15     10.0484E-15
            6203            6153     10.2817E-15     8.26816E-15
            6203            6154     15.8173E-15     13.1293E-15
            6204             899     17.2847E-15     15.9422E-15
            6204             900     17.4470E-15     16.8237E-15
            6204            6154     15.8173E-15     13.1293E-15
            6204            6155     17.6352E-15     16.4230E-15
            6205             898     13.9215E-15     12.2309E-15
            6205             899     17.2847E-15     15.9422E-15
            6205            6155     17.6352E-15     16.4230E-15
            6205            6156     12.3458E-15     12.9401E-15
            6206              34     19.6319E-15     18.6278E-15
            6206             853     10.7354E-15     11.2322E-15
            6206             898     13.9215E-15     12.2309E-15
            6206            6156     12.3458E-15     12.9401E-15


  Minimum                            1.97269E-15     1.81630E-15
      At Element                            2753            5413
            Node                               6            5478

  Maximum                                1.14422         1.11881
      At Element                            3763            5041
            Node                             528              20

           Total                     2.36637E+03     2.39613E+03


Field Output reported at element nodes for region: DO228-1.Region_2
   Computation algorithm: EXTRAPOLATE_COMPUTE_AVERAGE
   Averaged at nodes
   Averaging regions: ODB_REGIONS

   Element Label      Node Label         S.Mises         S.Mises
                                          @Loc 1          @Loc 2
-----------------------------------------------------------------
            1417               2     59.6251E-03     59.4750E-03
            1417             217     20.5575E-15     18.2326E-15
            1417             352     67.8904E-03     67.8591E-03
            1417            2159     13.3443E-15     12.2994E-15
            1418             352     67.8904E-03     67.8591E-03
            1418             353     77.9700E-03     77.7881E-03
            1418            2159     13.3443E-15     12.2994E-15
            1418            2160     8.77388E-15     8.24667E-15
            1419             353     77.9700E-03     77.7881E-03
            1419             354     82.1759E-03     81.9396E-03
            1419            2160     8.77388E-15     8.24667E-15
            1419            2161     11.2823E-15     10.1168E-15
            1420             354     82.1759E-03     81.9396E-03
            1420             355     84.3763E-03     84.3821E-03
            1420            2161     11.2823E-15     10.1168E-15
            1420            2162     11.1376E-15     10.6339E-15
            1421              13     84.1851E-03     84.2180E-03
            1421             355     84.3763E-03     84.3821E-03
            1421             356     11.0479E-15     10.8601E-15
            1421            2162     11.1376E-15     10.6339E-15
            1422             217     20.5575E-15     18.2326E-15
            1422             218     25.6184E-15     27.1812E-15
            1422            2159     13.3443E-15     12.2994E-15
            1422            2163     21.0422E-15     21.7539E-15
            1423            2159     13.3443E-15     12.2994E-15
            1423            2160     8.77388E-15     8.24667E-15
            1423            2163     21.0422E-15     21.7539E-15
            1423            2164     13.8740E-15     13.4034E-15
            1424            2160     8.77388E-15     8.24667E-15
            1424            2161     11.2823E-15     10.1168E-15
            1424            2164     13.8740E-15     13.4034E-15
            1424            2165     8.41098E-15     7.85216E-15
            1425            2161     11.2823E-15     10.1168E-15
            1425            2162     11.1376E-15     10.6339E-15
            1425            2165     8.41098E-15     7.85216E-15
            1425            2166     8.33776E-15     8.16668E-15
            1426             356     11.0479E-15     10.8601E-15
            1426             357     13.5275E-15     13.6379E-15
            1426            2162     11.1376E-15     10.6339E-15
            1426            2166     8.33776E-15     8.16668E-15
            1427             218     25.6184E-15     27.1812E-15
            1427             219     35.1088E-15     37.2903E-15
            1427            2163     21.0422E-15     21.7539E-15
            1427            2167     28.0124E-15     29.7585E-15
            1428            2163     21.0422E-15     21.7539E-15
            1428            2164     13.8740E-15     13.4034E-15
            1428            2167     28.0124E-15     29.7585E-15
            1428            2168     21.2931E-15     21.7610E-15
            1429            2164     13.8740E-15     13.4034E-15
            1429            2165     8.41098E-15     7.85216E-15
            1429            2168     21.2931E-15     21.7610E-15
            1429            2169     16.0065E-15     16.1702E-15
            1430            2165     8.41098E-15     7.85216E-15
            1430            2166     8.33776E-15     8.16668E-15
            1430            2169     16.0065E-15     16.1702E-15
            1430            2170     21.9092E-15     21.9460E-15
            1431             357     13.5275E-15     13.6379E-15
            1431             358     33.0945E-15     33.2477E-15
            1431            2166     8.33776E-15     8.16668E-15
            1431            2170     21.9092E-15     21.9460E-15
            1432             219     35.1088E-15     37.2903E-15
            1432             220     24.9655E-15     24.6329E-15
            1432            2167     28.0124E-15     29.7585E-15
            1432            2171     22.2187E-15     23.7880E-15
            1433            2167     28.0124E-15     29.7585E-15
            1433            2168     21.2931E-15     21.7610E-15
            1433            2171     22.2187E-15     23.7880E-15
            1433            2172     20.6192E-15     21.8683E-15
            1434            2168     21.2931E-15     21.7610E-15
            1434            2169     16.0065E-15     16.1702E-15
            1434            2172     20.6192E-15     21.8683E-15
            1434            2173     16.3250E-15     16.0982E-15
            1435            2169     16.0065E-15     16.1702E-15
            1435            2170     21.9092E-15     21.9460E-15
            1435            2173     16.3250E-15     16.0982E-15
            1435            2174     29.0285E-15     28.9661E-15
            1436             358     33.0945E-15     33.2477E-15
            1436             359     46.6111E-15     46.6893E-15
            1436            2170     21.9092E-15     21.9460E-15
            1436            2174     29.0285E-15     28.9661E-15
            1437             220     24.9655E-15     24.6329E-15
            1437             221     10.4459E-15     11.5669E-15
            1437            2171     22.2187E-15     23.7880E-15
            1437            2175     15.4746E-15     16.7807E-15
            1438            2171     22.2187E-15     23.7880E-15
            1438            2172     20.6192E-15     21.8683E-15
            1438            2175     15.4746E-15     16.7807E-15
            1438            2176     15.9866E-15     15.9490E-15
            1439            2172     20.6192E-15     21.8683E-15
            1439            2173     16.3250E-15     16.0982E-15
            1439            2176     15.9866E-15     15.9490E-15
            1439            2177     6.64633E-15     5.58299E-15
            1440            2173     16.3250E-15     16.0982E-15
            1440            2174     29.0285E-15     28.9661E-15
            1440            2177     6.64633E-15     5.58299E-15
            1440            2178     17.8740E-15     17.5201E-15
            1441             359     46.6111E-15     46.6893E-15
            1441             360     33.0648E-15     32.8317E-15
            1441            2174     29.0285E-15     28.9661E-15
            1441            2178     17.8740E-15     17.5201E-15
            1442             221     10.4459E-15     11.5669E-15
            1442             222     5.87823E-15     7.59399E-15
            1442            2175     15.4746E-15     16.7807E-15
            1442            2179     13.7419E-15     14.1959E-15
            1443            2175     15.4746E-15     16.7807E-15
            1443            2176     15.9866E-15     15.9490E-15
            1443            2179     13.7419E-15     14.1959E-15
            1443            2180     16.2960E-15     15.6187E-15
            1444            2176     15.9866E-15     15.9490E-15
            1444            2177     6.64633E-15     5.58299E-15
            1444            2180     16.2960E-15     15.6187E-15
            1444            2181     6.51916E-15     6.28112E-15
            1445            2177     6.64633E-15     5.58299E-15
            1445            2178     17.8740E-15     17.5201E-15
            1445            2181     6.51916E-15     6.28112E-15
            1445            2182     6.15244E-15     6.12498E-15
            1446             360     33.0648E-15     32.8317E-15
            1446             361     12.0042E-15     11.6630E-15
            1446            2178     17.8740E-15     17.5201E-15
            1446            2182     6.15244E-15     6.12498E-15
            1447               9     1.54998E-15     3.01715E-15
            1447             222     5.87823E-15     7.59399E-15
            1447             365     11.6135E-15     11.8338E-15
            1447            2179     13.7419E-15     14.1959E-15
            1448             364     15.9114E-15     15.9027E-15
            1448             365     11.6135E-15     11.8338E-15
            1448            2179     13.7419E-15     14.1959E-15
            1448            2180     16.2960E-15     15.6187E-15
            1449             363     5.91451E-15     6.86693E-15
            1449             364     15.9114E-15     15.9027E-15
            1449            2180     16.2960E-15     15.6187E-15
            1449            2181     6.51916E-15     6.28112E-15
            1450             362     1.46353E-15     1.88947E-15
            1450             363     5.91451E-15     6.86693E-15
            1450            2181     6.51916E-15     6.28112E-15
            1450            2182     6.15244E-15     6.12498E-15
            1451              14     6.00437E-15     5.88437E-15
            1451             361     12.0042E-15     11.6630E-15
            1451             362     1.46353E-15     1.88947E-15
            1451            2182     6.15244E-15     6.12498E-15
            1452               5     59.6251E-03     59.4750E-03
            1452             243     113.178E-03     114.242E-03
            1452             366     67.8904E-03     67.8591E-03
            1452            2183     134.477E-03     134.552E-03
            1453             366     67.8904E-03     67.8591E-03
            1453             367     77.9700E-03     77.7881E-03
            1453            2183     134.477E-03     134.552E-03
            1453            2184     160.517E-03     159.843E-03
            1454             367     77.9700E-03     77.7881E-03
            1454             368     82.1759E-03     81.9396E-03
            1454            2184     160.517E-03     159.843E-03
            1454            2185     166.733E-03     166.494E-03
            1455             368     82.1759E-03     81.9396E-03
            1455             369     84.3763E-03     84.3821E-03
            1455            2185     166.733E-03     166.494E-03
            1455            2186     167.997E-03     168.009E-03
            1456              13     84.1851E-03     84.2180E-03
            1456             369     84.3763E-03     84.3821E-03
            1456             370     167.786E-03     167.854E-03
            1456            2186     167.997E-03     168.009E-03
            1457             243     113.178E-03     114.242E-03
            1457             244     115.253E-03     116.561E-03
            1457            2183     134.477E-03     134.552E-03
            1457            2187     138.615E-03     138.920E-03
            1458            2183     134.477E-03     134.552E-03
            1458            2184     160.517E-03     159.843E-03
            1458            2187     138.615E-03     138.920E-03
            1458            2188     166.095E-03     165.953E-03
            1459            2184     160.517E-03     159.843E-03
            1459            2185     166.733E-03     166.494E-03
            1459            2188     166.095E-03     165.953E-03
            1459            2189     168.450E-03     168.694E-03
            1460            2185     166.733E-03     166.494E-03
            1460            2186     167.997E-03     168.009E-03
            1460            2189     168.450E-03     168.694E-03
            1460            2190     166.438E-03     166.495E-03
            1461             370     167.786E-03     167.854E-03
            1461             371     166.190E-03     166.231E-03
            1461            2186     167.997E-03     168.009E-03
            1461            2190     166.438E-03     166.495E-03
            1462             244     115.253E-03     116.561E-03
            1462             245     142.153E-03     140.733E-03
            1462            2187     138.615E-03     138.920E-03
            1462            2191     152.226E-03     152.074E-03
            1463            2187     138.615E-03     138.920E-03
            1463            2188     166.095E-03     165.953E-03
            1463            2191     152.226E-03     152.074E-03
            1463            2192     163.030E-03     163.821E-03
            1464            2188     166.095E-03     165.953E-03
            1464            2189     168.450E-03     168.694E-03
            1464            2192     163.030E-03     163.821E-03
            1464            2193     164.221E-03     164.546E-03
            1465            2189     168.450E-03     168.694E-03
            1465            2190     166.438E-03     166.495E-03
            1465            2193     164.221E-03     164.546E-03
            1465            2194     163.929E-03     164.024E-03
            1466             371     166.190E-03     166.231E-03
            1466             372     163.176E-03     163.184E-03
            1466            2190     166.438E-03     166.495E-03
            1466            2194     163.929E-03     164.024E-03
            1467             245     142.153E-03     140.733E-03
            1467             246     130.239E-03     128.967E-03
            1467            2191     152.226E-03     152.074E-03
            1467            2195     142.451E-03     140.773E-03
            1468            2191     152.226E-03     152.074E-03
            1468            2192     163.030E-03     163.821E-03
            1468            2195     142.451E-03     140.773E-03
            1468            2196     157.300E-03     155.211E-03
            1469            2192     163.030E-03     163.821E-03
            1469            2193     164.221E-03     164.546E-03
            1469            2196     157.300E-03     155.211E-03
            1469            2197     163.704E-03     161.864E-03
            1470            2193     164.221E-03     164.546E-03
            1470            2194     163.929E-03     164.024E-03
            1470            2197     163.704E-03     161.864E-03
            1470            2198     167.733E-03     166.313E-03
            1471             372     163.176E-03     163.184E-03
            1471             373     167.995E-03     166.741E-03
            1471            2194     163.929E-03     164.024E-03
            1471            2198     167.733E-03     166.313E-03
            1472             246     130.239E-03     128.967E-03
            1472             247     106.424E-03     111.510E-03
            1472            2195     142.451E-03     140.773E-03
            1472            2199     129.832E-03     130.640E-03
            1473            2195     142.451E-03     140.773E-03
            1473            2196     157.300E-03     155.211E-03
            1473            2199     129.832E-03     130.640E-03
            1473            2200     159.602E-03     155.618E-03
            1474            2196     157.300E-03     155.211E-03
            1474            2197     163.704E-03     161.864E-03
            1474            2200     159.602E-03     155.618E-03
            1474            2201     169.563E-03     165.148E-03
            1475            2197     163.704E-03     161.864E-03
            1475            2198     167.733E-03     166.313E-03
            1475            2201     169.563E-03     165.148E-03
            1475            2202     174.366E-03     170.176E-03
            1476             373     167.995E-03     166.741E-03
            1476             374     175.572E-03     171.522E-03
            1476            2198     167.733E-03     166.313E-03
            1476            2202     174.366E-03     170.176E-03
            1477             247     106.424E-03     111.510E-03
            1477             248     122.555E-03     128.780E-03
            1477            2199     129.832E-03     130.640E-03
            1477            2203     139.654E-03     143.600E-03
            1478            2199     129.832E-03     130.640E-03
            1478            2200     159.602E-03     155.618E-03
            1478            2203     139.654E-03     143.600E-03
            1478            2204     164.907E-03     164.066E-03
            1479            2200     159.602E-03     155.618E-03
            1479            2201     169.563E-03     165.148E-03
            1479            2204     164.907E-03     164.066E-03
            1479            2205     175.099E-03     170.986E-03
            1480            2201     169.563E-03     165.148E-03
            1480            2202     174.366E-03     170.176E-03
            1480            2205     175.099E-03     170.986E-03
            1480            2206     178.016E-03     172.768E-03
            1481             374     175.572E-03     171.522E-03
            1481             375     178.896E-03     173.276E-03
            1481            2202     174.366E-03     170.176E-03
            1481            2206     178.016E-03     172.768E-03
            1482             248     122.555E-03     128.780E-03
            1482             249     142.298E-03     144.150E-03
            1482            2203     139.654E-03     143.600E-03
            1482            2207     151.548E-03     154.030E-03
            1483            2203     139.654E-03     143.600E-03
            1483            2204     164.907E-03     164.066E-03
            1483            2207     151.548E-03     154.030E-03
            1483            2208     168.503E-03     169.793E-03
            1484            2204     164.907E-03     164.066E-03
            1484            2205     175.099E-03     170.986E-03
            1484            2208     168.503E-03     169.793E-03
            1484            2209     179.186E-03     177.153E-03
            1485            2205     175.099E-03     170.986E-03
            1485            2206     178.016E-03     172.768E-03
            1485            2209     179.186E-03     177.153E-03
            1485            2210     182.949E-03     178.812E-03
            1486             375     178.896E-03     173.276E-03
            1486             376     183.731E-03     178.993E-03
            1486            2206     178.016E-03     172.768E-03
            1486            2210     182.949E-03     178.812E-03
            1487             249     142.298E-03     144.150E-03
            1487             250     162.744E-03     162.519E-03
            1487            2207     151.548E-03     154.030E-03
            1487            2211     166.326E-03     167.004E-03
            1488            2207     151.548E-03     154.030E-03
            1488            2208     168.503E-03     169.793E-03
            1488            2211     166.326E-03     167.004E-03
            1488            2212     174.584E-03     175.727E-03
            1489            2208     168.503E-03     169.793E-03
            1489            2209     179.186E-03     177.153E-03
            1489            2212     174.584E-03     175.727E-03
            1489            2213     182.516E-03     182.197E-03
            1490            2209     179.186E-03     177.153E-03
            1490            2210     182.949E-03     178.812E-03
            1490            2213     182.516E-03     182.197E-03
            1490            2214     186.655E-03     184.646E-03
            1491             376     183.731E-03     178.993E-03
            1491             377     187.541E-03     184.862E-03
            1491            2210     182.949E-03     178.812E-03
            1491            2214     186.655E-03     184.646E-03
            1492             250     162.744E-03     162.519E-03
            1492             251     183.506E-03     181.620E-03
            1492            2211     166.326E-03     167.004E-03
            1492            2215     182.682E-03     181.974E-03
            1493            2211     166.326E-03     167.004E-03
            1493            2212     174.584E-03     175.727E-03
            1493            2215     182.682E-03     181.974E-03
            1493            2216     183.558E-03     184.262E-03
            1494            2212     174.584E-03     175.727E-03
            1494            2213     182.516E-03     182.197E-03
            1494            2216     183.558E-03     184.262E-03
            1494            2217     186.443E-03     187.110E-03
            1495            2213     182.516E-03     182.197E-03
            1495            2214     186.655E-03     184.646E-03
            1495            2217     186.443E-03     187.110E-03
            1495            2218     188.657E-03     188.854E-03
            1496             377     187.541E-03     184.862E-03
            1496             378     189.686E-03     189.684E-03
            1496            2214     186.655E-03     184.646E-03
            1496            2218     188.657E-03     188.854E-03
            1497             251     183.506E-03     181.620E-03
            1497             252     206.313E-03     203.341E-03
            1497            2215     182.682E-03     181.974E-03
            1497            2219     201.193E-03     199.435E-03
            1498            2215     182.682E-03     181.974E-03
            1498            2216     183.558E-03     184.262E-03
            1498            2219     201.193E-03     199.435E-03
            1498            2220     193.638E-03     193.862E-03
            1499            2216     183.558E-03     184.262E-03
            1499            2217     186.443E-03     187.110E-03
            1499            2220     193.638E-03     193.862E-03
            1499            2221     190.794E-03     192.462E-03
            1500            2217     186.443E-03     187.110E-03
            1500            2218     188.657E-03     188.854E-03
            1500            2221     190.794E-03     192.462E-03
            1500            2222     189.552E-03     192.099E-03
            1501             378     189.686E-03     189.684E-03
            1501             379     188.718E-03     191.469E-03
            1501            2218     188.657E-03     188.854E-03
            1501            2222     189.552E-03     192.099E-03
            1502             252     206.313E-03     203.341E-03
            1502             253     228.771E-03     225.624E-03
            1502            2219     201.193E-03     199.435E-03
            1502            2223     220.212E-03     217.993E-03
            1503            2219     201.193E-03     199.435E-03
            1503            2220     193.638E-03     193.862E-03
            1503            2223     220.212E-03     217.993E-03
            1503            2224     205.969E-03     206.575E-03
            1504            2220     193.638E-03     193.862E-03
            1504            2221     190.794E-03     192.462E-03
            1504            2224     205.969E-03     206.575E-03
            1504            2225     194.811E-03     198.343E-03
            1505            2221     190.794E-03     192.462E-03
            1505            2222     189.552E-03     192.099E-03
            1505            2225     194.811E-03     198.343E-03
            1505            2226     186.797E-03     191.543E-03
            1506             379     188.718E-03     191.469E-03
            1506             380     184.256E-03     189.189E-03
            1506            2222     189.552E-03     192.099E-03
            1506            2226     186.797E-03     191.543E-03
            1507             253     228.771E-03     225.624E-03
            1507             254     259.584E-03     256.527E-03
            1507            2223     220.212E-03     217.993E-03
            1507            2227     246.632E-03     245.470E-03
            1508            2223     220.212E-03     217.993E-03
            1508            2224     205.969E-03     206.575E-03
            1508            2227     246.632E-03     245.470E-03
            1508            2228     218.387E-03     220.815E-03
            1509            2224     205.969E-03     206.575E-03
            1509            2225     194.811E-03     198.343E-03
            1509            2228     218.387E-03     220.815E-03
            1509            2229     192.950E-03     197.471E-03
            1510            2225     194.811E-03     198.343E-03
            1510            2226     186.797E-03     191.543E-03
            1510            2229     192.950E-03     197.471E-03
            1510            2230     178.743E-03     184.125E-03
            1511             380     184.256E-03     189.189E-03
            1511             381     174.681E-03     180.526E-03
            1511            2226     186.797E-03     191.543E-03
            1511            2230     178.743E-03     184.125E-03
            1512             254     259.584E-03     256.527E-03
            1512             255     304.496E-03     295.128E-03
            1512            2227     246.632E-03     245.470E-03
            1512            2231     273.515E-03     268.001E-03
            1513            2227     246.632E-03     245.470E-03
            1513            2228     218.387E-03     220.815E-03
            1513            2231     273.515E-03     268.001E-03
            1513            2232     218.235E-03     217.393E-03
            1514            2228     218.387E-03     220.815E-03
            1514            2229     192.950E-03     197.471E-03
            1514            2232     218.235E-03     217.393E-03
            1514            2233     182.660E-03     183.910E-03
            1515            2229     192.950E-03     197.471E-03
            1515            2230     178.743E-03     184.125E-03
            1515            2233     182.660E-03     183.910E-03
            1515            2234     164.980E-03     168.250E-03
            1516             381     174.681E-03     180.526E-03
            1516             382     158.576E-03     162.591E-03
            1516            2230     178.743E-03     184.125E-03
            1516            2234     164.980E-03     168.250E-03
            1517             255     304.496E-03     295.128E-03
            1517             256     264.125E-03     245.055E-03
            1517            2231     273.515E-03     268.001E-03
            1517            2235     245.241E-03     227.547E-03
            1518            2231     273.515E-03     268.001E-03
            1518            2232     218.235E-03     217.393E-03
            1518            2235     245.241E-03     227.547E-03
            1518            2236     211.553E-03     198.528E-03
            1519            2232     218.235E-03     217.393E-03
            1519            2233     182.660E-03     183.910E-03
            1519            2236     211.553E-03     198.528E-03
            1519            2237     188.389E-03     181.129E-03
            1520            2233     182.660E-03     183.910E-03
            1520            2234     164.980E-03     168.250E-03
            1520            2237     188.389E-03     181.129E-03
            1520            2238     174.873E-03     171.595E-03
            1521             382     158.576E-03     162.591E-03
            1521             383     169.716E-03     167.949E-03
            1521            2234     164.980E-03     168.250E-03
            1521            2238     174.873E-03     171.595E-03
            1522             256     264.125E-03     245.055E-03
            1522             257     221.763E-03     216.169E-03
            1522            2235     245.241E-03     227.547E-03
            1522            2239     223.218E-03     214.321E-03
            1523            2235     245.241E-03     227.547E-03
            1523            2236     211.553E-03     198.528E-03
            1523            2239     223.218E-03     214.321E-03
            1523            2240     217.447E-03     204.838E-03
            1524            2236     211.553E-03     198.528E-03
            1524            2237     188.389E-03     181.129E-03
            1524            2240     217.447E-03     204.838E-03
            1524            2241     202.835E-03     191.048E-03
            1525            2237     188.389E-03     181.129E-03
            1525            2238     174.873E-03     171.595E-03
            1525            2241     202.835E-03     191.048E-03
            1525            2242     190.998E-03     181.135E-03
            1526             383     169.716E-03     167.949E-03
            1526             384     186.547E-03     177.378E-03
            1526            2238     174.873E-03     171.595E-03
            1526            2242     190.998E-03     181.135E-03
            1527             257     221.763E-03     216.169E-03
            1527             258     260.708E-03     265.779E-03
            1527            2239     223.218E-03     214.321E-03
            1527            2243     250.814E-03     256.090E-03
            1528            2239     223.218E-03     214.321E-03
            1528            2240     217.447E-03     204.838E-03
            1528            2243     250.814E-03     256.090E-03
            1528            2244     230.164E-03     230.332E-03
            1529            2240     217.447E-03     204.838E-03
            1529            2241     202.835E-03     191.048E-03
            1529            2244     230.164E-03     230.332E-03
            1529            2245     208.139E-03     200.569E-03
            1530            2241     202.835E-03     191.048E-03
            1530            2242     190.998E-03     181.135E-03
            1530            2245     208.139E-03     200.569E-03
            1530            2246     189.957E-03     178.735E-03
            1531             384     186.547E-03     177.378E-03
            1531             385     183.044E-03     170.595E-03
            1531            2242     190.998E-03     181.135E-03
            1531            2246     189.957E-03     178.735E-03
            1532             258     260.708E-03     265.779E-03
            1532             259     289.899E-03     288.886E-03
            1532            2243     250.814E-03     256.090E-03
            1532            2247     272.345E-03     274.827E-03
            1533            2243     250.814E-03     256.090E-03
            1533            2244     230.164E-03     230.332E-03
            1533            2247     272.345E-03     274.827E-03
            1533            2248     241.068E-03     244.804E-03
            1534            2244     230.164E-03     230.332E-03
            1534            2245     208.139E-03     200.569E-03
            1534            2248     241.068E-03     244.804E-03
            1534            2249     214.389E-03     211.945E-03
            1535            2245     208.139E-03     200.569E-03
            1535            2246     189.957E-03     178.735E-03
            1535            2249     214.389E-03     211.945E-03
            1535            2250     193.353E-03     184.765E-03
            1536             385     183.044E-03     170.595E-03
            1536             386     185.274E-03     174.481E-03
            1536            2246     189.957E-03     178.735E-03
            1536            2250     193.353E-03     184.765E-03
            1537             259     289.899E-03     288.886E-03
            1537             260     315.846E-03     312.903E-03
            1537            2247     272.345E-03     274.827E-03
            1537            2251     293.309E-03     292.743E-03
            1538            2247     272.345E-03     274.827E-03
            1538            2248     241.068E-03     244.804E-03
            1538            2251     293.309E-03     292.743E-03
            1538            2252     252.693E-03     254.721E-03
            1539            2248     241.068E-03     244.804E-03
            1539            2249     214.389E-03     211.945E-03
            1539            2252     252.693E-03     254.721E-03
            1539            2253     220.390E-03     220.281E-03
            1540            2249     214.389E-03     211.945E-03
            1540            2250     193.353E-03     184.765E-03
            1540            2253     220.390E-03     220.281E-03
            1540            2254     197.521E-03     192.874E-03
            1541             386     185.274E-03     174.481E-03
            1541             387     188.876E-03     182.046E-03
            1541            2250     193.353E-03     184.765E-03
            1541            2254     197.521E-03     192.874E-03
            1542             260     315.846E-03     312.903E-03
            1542             261     339.923E-03     335.140E-03
            1542            2251     293.309E-03     292.743E-03
            1542            2255     313.530E-03     311.147E-03
            1543            2251     293.309E-03     292.743E-03
            1543            2252     252.693E-03     254.721E-03
            1543            2255     313.530E-03     311.147E-03
            1543            2256     265.501E-03     266.214E-03
            1544            2252     252.693E-03     254.721E-03
            1544            2253     220.390E-03     220.281E-03
            1544            2256     265.501E-03     266.214E-03
            1544            2257     227.480E-03     228.306E-03
            1545            2253     220.390E-03     220.281E-03
            1545            2254     197.521E-03     192.874E-03
            1545            2257     227.480E-03     228.306E-03
            1545            2258     201.385E-03     200.385E-03
            1546             387     188.876E-03     182.046E-03
            1546             388     191.675E-03     189.429E-03
            1546            2254     197.521E-03     192.874E-03
            1546            2258     201.385E-03     200.385E-03
            1547             261     339.923E-03     335.140E-03
            1547             262     363.169E-03     357.703E-03
            1547            2255     313.530E-03     311.147E-03
            1547            2259     333.864E-03     330.450E-03
            1548            2255     313.530E-03     311.147E-03
            1548            2256     265.501E-03     266.214E-03
            1548            2259     333.864E-03     330.450E-03
            1548            2260     279.650E-03     279.825E-03
            1549            2256     265.501E-03     266.214E-03
            1549            2257     227.480E-03     228.306E-03
            1549            2260     279.650E-03     279.825E-03
            1549            2261     234.917E-03     236.982E-03
            1550            2257     227.480E-03     228.306E-03
            1550            2258     201.385E-03     200.385E-03
            1550            2261     234.917E-03     236.982E-03
            1550            2262     204.471E-03     206.952E-03
            1551             388     191.675E-03     189.429E-03
            1551             389     193.847E-03     196.394E-03
            1551            2258     201.385E-03     200.385E-03
            1551            2262     204.471E-03     206.952E-03
            1552             262     363.169E-03     357.703E-03
            1552             263     387.827E-03     381.406E-03
            1552            2259     333.864E-03     330.450E-03
            1552            2263     355.114E-03     351.095E-03
            1553            2259     333.864E-03     330.450E-03
            1553            2260     279.650E-03     279.825E-03
            1553            2263     355.114E-03     351.095E-03
            1553            2264     293.360E-03     293.780E-03
            1554            2260     279.650E-03     279.825E-03
            1554            2261     234.917E-03     236.982E-03
            1554            2264     293.360E-03     293.780E-03
            1554            2265     242.427E-03     246.666E-03
            1555            2261     234.917E-03     236.982E-03
            1555            2262     204.471E-03     206.952E-03
            1555            2265     242.427E-03     246.666E-03
            1555            2266     206.759E-03     213.436E-03
            1556             389     193.847E-03     196.394E-03
            1556             390     192.984E-03     200.316E-03
            1556            2262     204.471E-03     206.952E-03
            1556            2266     206.759E-03     213.436E-03
            1557             263     387.827E-03     381.406E-03
            1557             264     410.799E-03     404.516E-03
            1557            2263     355.114E-03     351.095E-03
            1557            2267     375.533E-03     372.029E-03
            1558            2263     355.114E-03     351.095E-03
            1558            2264     293.360E-03     293.780E-03
            1558            2267     375.533E-03     372.029E-03
            1558            2268     308.553E-03     311.271E-03
            1559            2264     293.360E-03     293.780E-03
            1559            2265     242.427E-03     246.666E-03
            1559            2268     308.553E-03     311.271E-03
            1559            2269     248.507E-03     256.401E-03
            1560            2265     242.427E-03     246.666E-03
            1560            2266     206.759E-03     213.436E-03
            1560            2269     248.507E-03     256.401E-03
            1560            2270     204.148E-03     214.576E-03
            1561             390     192.984E-03     200.316E-03
            1561             391     188.122E-03     199.349E-03
            1561            2266     206.759E-03     213.436E-03
            1561            2270     204.148E-03     214.576E-03
            1562             264     410.799E-03     404.516E-03
            1562             265     443.529E-03     438.600E-03
            1562            2267     375.533E-03     372.029E-03
            1562            2271     404.024E-03     403.365E-03
            1563            2267     375.533E-03     372.029E-03
            1563            2268     308.553E-03     311.271E-03
            1563            2271     404.024E-03     403.365E-03
            1563            2272     321.581E-03     326.900E-03
            1564            2268     308.553E-03     311.271E-03
            1564            2269     248.507E-03     256.401E-03
            1564            2272     321.581E-03     326.900E-03
            1564            2273     245.570E-03     253.604E-03
            1565            2269     248.507E-03     256.401E-03
            1565            2270     204.148E-03     214.576E-03
            1565            2273     245.570E-03     253.604E-03
            1565            2274     194.036E-03     204.847E-03
            1566             391     188.122E-03     199.349E-03
            1566             392     175.577E-03     188.154E-03
            1566            2270     204.148E-03     214.576E-03
            1566            2274     194.036E-03     204.847E-03
            1567             265     443.529E-03     438.600E-03
            1567             266     491.388E-03     473.902E-03
            1567            2271     404.024E-03     403.365E-03
            1567            2275     429.849E-03     417.622E-03
            1568            2271     404.024E-03     403.365E-03
            1568            2272     321.581E-03     326.900E-03
            1568            2275     429.849E-03     417.622E-03
            1568            2276     316.699E-03     310.903E-03
            1569            2272     321.581E-03     326.900E-03
            1569            2273     245.570E-03     253.604E-03
            1569            2276     316.699E-03     310.903E-03
            1569            2277     230.920E-03     229.711E-03
            1570            2273     245.570E-03     253.604E-03
            1570            2274     194.036E-03     204.847E-03
            1570            2277     230.920E-03     229.711E-03
            1570            2278     174.217E-03     179.387E-03
            1571             392     175.577E-03     188.154E-03
            1571             393     151.681E-03     159.817E-03
            1571            2274     194.036E-03     204.847E-03
            1571            2278     174.217E-03     179.387E-03
            1572             266     491.388E-03     473.902E-03
            1572             267     447.545E-03     410.971E-03
            1572            2275     429.849E-03     417.622E-03
            1572            2279     395.280E-03     360.410E-03
            1573            2275     429.849E-03     417.622E-03
            1573            2276     316.699E-03     310.903E-03
            1573            2279     395.280E-03     360.410E-03
            1573            2280     305.841E-03     278.591E-03
            1574            2276     316.699E-03     310.903E-03
            1574            2277     230.920E-03     229.711E-03
            1574            2280     305.841E-03     278.591E-03
            1574            2281     239.306E-03     223.232E-03
            1575            2277     230.920E-03     229.711E-03
            1575            2278     174.217E-03     179.387E-03
            1575            2281     239.306E-03     223.232E-03
            1575            2282     191.735E-03     184.999E-03
            1576             393     151.681E-03     159.817E-03
            1576             394     173.526E-03     170.866E-03
            1576            2278     174.217E-03     179.387E-03
            1576            2282     191.735E-03     184.999E-03
            1577             267     447.545E-03     410.971E-03
            1577             268     401.675E-03     386.936E-03
            1577            2279     395.280E-03     360.410E-03
            1577            2283     373.640E-03     356.162E-03
            1578            2279     395.280E-03     360.410E-03
            1578            2280     305.841E-03     278.591E-03
            1578            2283     373.640E-03     356.162E-03
            1578            2284     315.539E-03     294.667E-03
            1579            2280     305.841E-03     278.591E-03
            1579            2281     239.306E-03     223.232E-03
            1579            2284     315.539E-03     294.667E-03
            1579            2285     259.382E-03     240.098E-03
            1580            2281     239.306E-03     223.232E-03
            1580            2282     191.735E-03     184.999E-03
            1580            2285     259.382E-03     240.098E-03
            1580            2286     217.128E-03     201.366E-03
            1581             394     173.526E-03     170.866E-03
            1581             395     200.965E-03     186.483E-03
            1581            2282     191.735E-03     184.999E-03
            1581            2286     217.128E-03     201.366E-03
            1582             268     401.675E-03     386.936E-03
            1582             269     442.213E-03     445.695E-03
            1582            2283     373.640E-03     356.162E-03
            1582            2287     406.445E-03     412.757E-03
            1583            2283     373.640E-03     356.162E-03
            1583            2284     315.539E-03     294.667E-03
            1583            2287     406.445E-03     412.757E-03
            1583            2288     334.716E-03     336.829E-03
            1584            2284     315.539E-03     294.667E-03
            1584            2285     259.382E-03     240.098E-03
            1584            2288     334.716E-03     336.829E-03
            1584            2289     266.107E-03     256.999E-03
            1585            2285     259.382E-03     240.098E-03
            1585            2286     217.128E-03     201.366E-03
            1585            2289     266.107E-03     256.999E-03
            1585            2290     211.921E-03     195.767E-03
            1586             395     200.965E-03     186.483E-03
            1586             396     190.382E-03     171.376E-03
            1586            2286     217.128E-03     201.366E-03
            1586            2290     211.921E-03     195.767E-03
            1587             269     442.213E-03     445.695E-03
            1587             270     472.454E-03     468.468E-03
            1587            2287     406.445E-03     412.757E-03
            1587            2291     430.050E-03     432.021E-03
            1588            2287     406.445E-03     412.757E-03
            1588            2288     334.716E-03     336.829E-03
            1588            2291     430.050E-03     432.021E-03
            1588            2292     349.212E-03     355.650E-03
            1589            2288     334.716E-03     336.829E-03
            1589            2289     266.107E-03     256.999E-03
            1589            2292     349.212E-03     355.650E-03
            1589            2293     274.480E-03     273.538E-03
            1590            2289     266.107E-03     256.999E-03
            1590            2290     211.921E-03     195.767E-03
            1590            2293     274.480E-03     273.538E-03
            1590            2294     214.089E-03     202.565E-03
            1591             396     190.382E-03     171.376E-03
            1591             397     189.996E-03     173.779E-03
            1591            2290     211.921E-03     195.767E-03
            1591            2294     214.089E-03     202.565E-03
            1592             270     472.454E-03     468.468E-03
            1592             271     500.307E-03     494.317E-03
            1592            2291     430.050E-03     432.021E-03
            1592            2295     453.157E-03     451.023E-03
            1593            2291     430.050E-03     432.021E-03
            1593            2292     349.212E-03     355.650E-03
            1593            2295     453.157E-03     451.023E-03
            1593            2296     362.929E-03     365.965E-03
            1594            2292     349.212E-03     355.650E-03
            1594            2293     274.480E-03     273.538E-03
            1594            2296     362.929E-03     365.965E-03
            1594            2297     282.059E-03     283.447E-03
            1595            2293     274.480E-03     273.538E-03
            1595            2294     214.089E-03     202.565E-03
            1595            2297     282.059E-03     283.447E-03
            1595            2298     218.699E-03     212.852E-03
            1596             397     189.996E-03     173.779E-03
            1596             398     193.129E-03     183.010E-03
            1596            2294     214.089E-03     202.565E-03
            1596            2298     218.699E-03     212.852E-03
            1597             271     500.307E-03     494.317E-03
            1597             272     525.129E-03     517.192E-03
            1597            2295     453.157E-03     451.023E-03
            1597            2299     474.554E-03     470.296E-03
            1598            2295     453.157E-03     451.023E-03
            1598            2296     362.929E-03     365.965E-03
            1598            2299     474.554E-03     470.296E-03
            1598            2300     377.483E-03     378.456E-03
            1599            2296     362.929E-03     365.965E-03
            1599            2297     282.059E-03     283.447E-03
            1599            2300     377.483E-03     378.456E-03
            1599            2301     290.760E-03     292.716E-03
            1600            2297     282.059E-03     283.447E-03
            1600            2298     218.699E-03     212.852E-03
            1600            2301     290.760E-03     292.716E-03
            1600            2302     223.516E-03     222.640E-03
            1601             398     193.129E-03     183.010E-03
            1601             399     196.501E-03     193.361E-03
            1601            2298     218.699E-03     212.852E-03
            1601            2302     223.516E-03     222.640E-03
            1602             272     525.129E-03     517.192E-03
            1602             273     548.914E-03     540.307E-03
            1602            2299     474.554E-03     470.296E-03
            1602            2303     495.759E-03     490.432E-03
            1603            2299     474.554E-03     470.296E-03
            1603            2300     377.483E-03     378.456E-03
            1603            2303     495.759E-03     490.432E-03
            1603            2304     393.086E-03     393.487E-03
            1604            2300     377.483E-03     378.456E-03
            1604            2301     290.760E-03     292.716E-03
            1604            2304     393.086E-03     393.487E-03
            1604            2305     299.681E-03     303.211E-03
            1605            2301     290.760E-03     292.716E-03
            1605            2302     223.516E-03     222.640E-03
            1605            2305     299.681E-03     303.211E-03
            1605            2306     227.799E-03     231.962E-03
            1606             399     196.501E-03     193.361E-03
            1606             400     199.804E-03     203.919E-03
            1606            2302     223.516E-03     222.640E-03
            1606            2306     227.799E-03     231.962E-03
            1607             273     548.914E-03     540.307E-03
            1607             274     574.078E-03     564.596E-03
            1607            2303     495.759E-03     490.432E-03
            1607            2307     517.665E-03     511.966E-03
            1608            2303     495.759E-03     490.432E-03
            1608            2304     393.086E-03     393.487E-03
            1608            2307     517.665E-03     511.966E-03
            1608            2308     407.749E-03     409.021E-03
            1609            2304     393.086E-03     393.487E-03
            1609            2305     299.681E-03     303.211E-03
            1609            2308     407.749E-03     409.021E-03
            1609            2309     308.703E-03     315.605E-03
            1610            2305     299.681E-03     303.211E-03
            1610            2306     227.799E-03     231.962E-03
            1610            2309     308.703E-03     315.605E-03
            1610            2310     231.271E-03     241.638E-03
            1611             400     199.804E-03     203.919E-03
            1611             401     199.380E-03     210.770E-03
            1611            2306     227.799E-03     231.962E-03
            1611            2310     231.271E-03     241.638E-03
            1612             274     574.078E-03     564.596E-03
            1612             275     596.411E-03     587.269E-03
            1612            2307     517.665E-03     511.966E-03
            1612            2311     537.928E-03     533.664E-03
            1613            2307     517.665E-03     511.966E-03
            1613            2308     407.749E-03     409.021E-03
            1613            2311     537.928E-03     533.664E-03
            1613            2312     423.866E-03     429.140E-03
            1614            2308     407.749E-03     409.021E-03
            1614            2309     308.703E-03     315.605E-03
            1614            2312     423.866E-03     429.140E-03
            1614            2313     315.566E-03     327.515E-03
            1615            2309     308.703E-03     315.605E-03
            1615            2310     231.271E-03     241.638E-03
            1615            2313     315.566E-03     327.515E-03
            1615            2314     228.586E-03     244.160E-03
            1616             401     199.380E-03     210.770E-03
            1616             402     194.328E-03     211.509E-03
            1616            2310     231.271E-03     241.638E-03
            1616            2314     228.586E-03     244.160E-03
            1617             275     596.411E-03     587.269E-03
            1617             276     630.093E-03     623.790E-03
            1617            2311     537.928E-03     533.664E-03
            1617            2315     567.308E-03     567.530E-03
            1618            2311     537.928E-03     533.664E-03
            1618            2312     423.866E-03     429.140E-03
            1618            2315     567.308E-03     567.530E-03
            1618            2316     436.245E-03     444.188E-03
            1619            2312     423.866E-03     429.140E-03
            1619            2313     315.566E-03     327.515E-03
            1619            2316     436.245E-03     444.188E-03
            1619            2317     310.976E-03     321.418E-03
            1620            2313     315.566E-03     327.515E-03
            1620            2314     228.586E-03     244.160E-03
            1620            2317     310.976E-03     321.418E-03
            1620            2318     216.506E-03     231.865E-03
            1621             402     194.328E-03     211.509E-03
            1621             403     179.025E-03     197.999E-03
            1621            2314     228.586E-03     244.160E-03
            1621            2318     216.506E-03     231.865E-03
            1622             276     630.093E-03     623.790E-03
            1622             277     679.849E-03     654.367E-03
            1622            2315     567.308E-03     567.530E-03
            1622            2319     591.266E-03     571.981E-03
            1623            2315     567.308E-03     567.530E-03
            1623            2316     436.245E-03     444.188E-03
            1623            2319     591.266E-03     571.981E-03
            1623            2320     426.188E-03     414.299E-03
            1624            2316     436.245E-03     444.188E-03
            1624            2317     310.976E-03     321.418E-03
            1624            2320     426.188E-03     414.299E-03
            1624            2321     292.339E-03     286.841E-03
            1625            2317     310.976E-03     321.418E-03
            1625            2318     216.506E-03     231.865E-03
            1625            2321     292.339E-03     286.841E-03
            1625            2322     191.623E-03     197.232E-03
            1626             403     179.025E-03     197.999E-03
            1626             404     148.260E-03     159.784E-03
            1626            2318     216.506E-03     231.865E-03
            1626            2322     191.623E-03     197.232E-03
            1627             277     679.849E-03     654.367E-03
            1627             278     635.616E-03     582.704E-03
            1627            2319     591.266E-03     571.981E-03
            1627            2323     553.005E-03     501.935E-03
            1628            2319     591.266E-03     571.981E-03
            1628            2320     426.188E-03     414.299E-03
            1628            2323     553.005E-03     501.935E-03
            1628            2324     411.940E-03     370.745E-03
            1629            2320     426.188E-03     414.299E-03
            1629            2321     292.339E-03     286.841E-03
            1629            2324     411.940E-03     370.745E-03
            1629            2325     301.899E-03     276.310E-03
            1630            2321     292.339E-03     286.841E-03
            1630            2322     191.623E-03     197.232E-03
            1630            2325     301.899E-03     276.310E-03
            1630            2326     215.652E-03     204.630E-03
            1631             404     148.260E-03     159.784E-03
            1631             405     180.991E-03     176.963E-03
            1631            2322     191.623E-03     197.232E-03
            1631            2326     215.652E-03     204.630E-03
            1632             278     635.616E-03     582.704E-03
            1632             279     589.614E-03     567.039E-03
            1632            2323     553.005E-03     501.935E-03
            1632            2327     534.585E-03     509.967E-03
            1633            2323     553.005E-03     501.935E-03
            1633            2324     411.940E-03     370.745E-03
            1633            2327     534.585E-03     509.967E-03
            1633            2328     426.180E-03     398.641E-03
            1634            2324     411.940E-03     370.745E-03
            1634            2325     301.899E-03     276.310E-03
            1634            2328     426.180E-03     398.641E-03
            1634            2329     326.670E-03     301.156E-03
            1635            2325     301.899E-03     276.310E-03
            1635            2326     215.652E-03     204.630E-03
            1635            2329     326.670E-03     301.156E-03
            1635            2330     249.242E-03     228.368E-03
            1636             405     180.991E-03     176.963E-03
            1636             406     217.948E-03     198.812E-03
            1636            2326     215.652E-03     204.630E-03
            1636            2330     249.242E-03     228.368E-03
            1637             279     589.614E-03     567.039E-03
            1637             280     629.477E-03     632.041E-03
            1637            2327     534.585E-03     509.967E-03
            1637            2331     570.723E-03     578.476E-03
            1638            2327     534.585E-03     509.967E-03
            1638            2328     426.180E-03     398.641E-03
            1638            2331     570.723E-03     578.476E-03
            1638            2332     451.721E-03     456.486E-03
            1639            2328     426.180E-03     398.641E-03
            1639            2329     326.670E-03     301.156E-03
            1639            2332     451.721E-03     456.486E-03
            1639            2333     335.902E-03     327.116E-03
            1640            2329     326.670E-03     301.156E-03
            1640            2330     249.242E-03     228.368E-03
            1640            2333     335.902E-03     327.116E-03
            1640            2334     240.768E-03     221.691E-03
            1641             406     217.948E-03     198.812E-03
            1641             407     201.204E-03     177.212E-03
            1641            2330     249.242E-03     228.368E-03
            1641            2334     240.768E-03     221.691E-03
            1642             280     629.477E-03     632.041E-03
            1642             281     660.424E-03     653.660E-03
            1642            2331     570.723E-03     578.476E-03
            1642            2335     595.353E-03     597.129E-03
            1643            2331     570.723E-03     578.476E-03
            1643            2332     451.721E-03     456.486E-03
            1643            2335     595.353E-03     597.129E-03
            1643            2336     468.532E-03     478.563E-03
            1644            2332     451.721E-03     456.486E-03
            1644            2333     335.902E-03     327.116E-03
            1644            2336     468.532E-03     478.563E-03
            1644            2337     346.418E-03     348.989E-03
            1645            2333     335.902E-03     327.116E-03
            1645            2334     240.768E-03     221.691E-03
            1645            2337     346.418E-03     348.989E-03
            1645            2338     242.335E-03     230.535E-03
            1646             407     201.204E-03     177.212E-03
            1646             408     198.615E-03     179.618E-03
            1646            2334     240.768E-03     221.691E-03
            1646            2338     242.335E-03     230.535E-03
            1647             281     660.424E-03     653.660E-03
            1647             282     689.427E-03     681.152E-03
            1647            2335     595.353E-03     597.129E-03
            1647            2339     619.525E-03     616.805E-03
            1648            2335     595.353E-03     597.129E-03
            1648            2336     468.532E-03     478.563E-03
            1648            2339     619.525E-03     616.805E-03
            1648            2340     483.198E-03     488.796E-03
            1649            2336     468.532E-03     478.563E-03
            1649            2337     346.418E-03     348.989E-03
            1649            2340     483.198E-03     488.796E-03
            1649            2341     355.421E-03     361.007E-03
            1650            2337     346.418E-03     348.989E-03
            1650            2338     242.335E-03     230.535E-03
            1650            2341     355.421E-03     361.007E-03
            1650            2342     247.443E-03     243.827E-03
            1651             408     198.615E-03     179.618E-03
            1651             409     200.816E-03     190.775E-03
            1651            2338     242.335E-03     230.535E-03
            1651            2342     247.443E-03     243.827E-03
            1652             282     689.427E-03     681.152E-03
            1652             283     715.107E-03     704.228E-03
            1652            2339     619.525E-03     616.805E-03
            1652            2343     642.214E-03     637.274E-03
            1653            2339     619.525E-03     616.805E-03
            1653            2340     483.198E-03     488.796E-03
            1653            2343     642.214E-03     637.274E-03
            1653            2344     499.432E-03     503.358E-03
            1654            2340     483.198E-03     488.796E-03
            1654            2341     355.421E-03     361.007E-03
            1654            2344     499.432E-03     503.358E-03
            1654            2345     364.230E-03     370.923E-03
            1655            2341     355.421E-03     361.007E-03
            1655            2342     247.443E-03     243.827E-03
            1655            2345     364.230E-03     370.923E-03
            1655            2346     252.265E-03     256.315E-03
            1656             409     200.816E-03     190.775E-03
            1656             410     205.613E-03     207.182E-03
            1656            2342     247.443E-03     243.827E-03
            1656            2346     252.265E-03     256.315E-03
            1657             283     715.107E-03     704.228E-03
            1657             284     740.787E-03     729.516E-03
            1657            2343     642.214E-03     637.274E-03
            1657            2347     664.438E-03     658.669E-03
            1658            2343     642.214E-03     637.274E-03
            1658            2344     499.432E-03     503.358E-03
            1658            2347     664.438E-03     658.669E-03
            1658            2348     514.199E-03     518.331E-03
            1659            2344     499.432E-03     503.358E-03
            1659            2345     364.230E-03     370.923E-03
            1659            2348     514.199E-03     518.331E-03
            1659            2349     373.754E-03     384.367E-03
            1660            2345     364.230E-03     370.923E-03
            1660            2346     252.265E-03     256.315E-03
            1660            2349     373.754E-03     384.367E-03
            1660            2350     256.489E-03     269.194E-03
            1661             410     205.613E-03     207.182E-03
            1661             411     205.779E-03     218.493E-03
            1661            2346     252.265E-03     256.315E-03
            1661            2350     256.489E-03     269.194E-03
            1662             284     740.787E-03     729.516E-03
            1662             285     763.216E-03     751.553E-03
            1662            2347     664.438E-03     658.669E-03
            1662            2351     684.813E-03     680.539E-03
            1663            2347     664.438E-03     658.669E-03
            1663            2348     514.199E-03     518.331E-03
            1663            2351     684.813E-03     680.539E-03
            1663            2352     530.615E-03     539.459E-03
            1664            2348     514.199E-03     518.331E-03
            1664            2349     373.754E-03     384.367E-03
            1664            2352     530.615E-03     539.459E-03
            1664            2353     380.675E-03     396.834E-03
            1665            2349     373.754E-03     384.367E-03
            1665            2350     256.489E-03     269.194E-03
            1665            2353     380.675E-03     396.834E-03
            1665            2354     253.685E-03     273.210E-03
            1666             411     205.779E-03     218.493E-03
            1666             412     200.840E-03     222.143E-03
            1666            2350     256.489E-03     269.194E-03
            1666            2354     253.685E-03     273.210E-03
            1667             285     763.216E-03     751.553E-03
            1667             286     797.432E-03     790.266E-03
            1667            2351     684.813E-03     680.539E-03
            1667            2355     714.780E-03     716.253E-03
            1668            2351     684.813E-03     680.539E-03
            1668            2352     530.615E-03     539.459E-03
            1668            2355     714.780E-03     716.253E-03
            1668            2356     542.295E-03     553.028E-03
            1669            2352     530.615E-03     539.459E-03
            1669            2353     380.675E-03     396.834E-03
            1669            2356     542.295E-03     553.028E-03
            1669            2357     374.468E-03     386.993E-03
            1670            2353     380.675E-03     396.834E-03
            1670            2354     253.685E-03     273.210E-03
            1670            2357     374.468E-03     386.993E-03
            1670            2358     239.964E-03     258.781E-03
            1671             412     200.840E-03     222.143E-03
            1671             413     183.452E-03     207.392E-03
            1671            2354     253.685E-03     273.210E-03
            1671            2358     239.964E-03     258.781E-03
            1672             286     797.432E-03     790.266E-03
            1672             287     849.033E-03     816.223E-03
            1672            2355     714.780E-03     716.253E-03
            1672            2359     737.198E-03     711.424E-03
            1673            2355     714.780E-03     716.253E-03
            1673            2356     542.295E-03     553.028E-03
            1673            2359     737.198E-03     711.424E-03
            1673            2360     527.653E-03     510.062E-03
            1674            2356     542.295E-03     553.028E-03
            1674            2357     374.468E-03     386.993E-03
            1674            2360     527.653E-03     510.062E-03
            1674            2361     352.701E-03     342.739E-03
            1675            2357     374.468E-03     386.993E-03
            1675            2358     239.964E-03     258.781E-03
            1675            2361     352.701E-03     342.739E-03
            1675            2362     211.538E-03     216.624E-03
            1676             413     183.452E-03     207.392E-03
            1676             414     147.618E-03     161.269E-03
            1676            2358     239.964E-03     258.781E-03
            1676            2362     211.538E-03     216.624E-03
            1677             287     849.033E-03     816.223E-03
            1677             288     803.677E-03     742.293E-03
            1677            2359     737.198E-03     711.424E-03
            1677            2363     695.843E-03     636.941E-03
            1678            2359     737.198E-03     711.424E-03
            1678            2360     527.653E-03     510.062E-03
            1678            2363     695.843E-03     636.941E-03
            1678            2364     511.541E-03     465.087E-03
            1679            2360     527.653E-03     510.062E-03
            1679            2361     352.701E-03     342.739E-03
            1679            2364     511.541E-03     465.087E-03
            1679            2365     365.402E-03     337.748E-03
            1680            2361     352.701E-03     342.739E-03
            1680            2362     211.538E-03     216.624E-03
            1680            2365     365.402E-03     337.748E-03
            1680            2366     244.898E-03     234.392E-03
            1681             414     147.618E-03     161.269E-03
            1681             415     194.065E-03     191.873E-03
            1681            2362     211.538E-03     216.624E-03
            1681            2366     244.898E-03     234.392E-03
            1682             288     803.677E-03     742.293E-03
            1682             289     762.474E-03     738.978E-03
            1682            2363     695.843E-03     636.941E-03
            1682            2367     685.026E-03     662.968E-03
            1683            2363     695.843E-03     636.941E-03
            1683            2364     511.541E-03     465.087E-03
            1683            2367     685.026E-03     662.968E-03
            1683            2368     534.462E-03     513.425E-03
            1684            2364     511.541E-03     465.087E-03
            1684            2365     365.402E-03     337.748E-03
            1684            2368     534.462E-03     513.425E-03
            1684            2369     396.948E-03     378.833E-03
            1685            2365     365.402E-03     337.748E-03
            1685            2366     244.898E-03     234.392E-03
            1685            2369     396.948E-03     378.833E-03
            1685            2370     287.476E-03     274.774E-03
            1686             415     194.065E-03     191.873E-03
            1686             416     242.402E-03     231.772E-03
            1686            2366     244.898E-03     234.392E-03
            1686            2370     287.476E-03     274.774E-03
            1687             289     762.474E-03     738.978E-03
            1687             290     807.293E-03     810.751E-03
            1687            2367     685.026E-03     662.968E-03
            1687            2371     728.949E-03     742.589E-03
            1688            2367     685.026E-03     662.968E-03
            1688            2368     534.462E-03     513.425E-03
            1688            2371     728.949E-03     742.589E-03
            1688            2372     568.186E-03     585.404E-03
            1689            2368     534.462E-03     513.425E-03
            1689            2369     396.948E-03     378.833E-03
            1689            2372     568.186E-03     585.404E-03
            1689            2373     410.317E-03     416.289E-03
            1690            2369     396.948E-03     378.833E-03
            1690            2370     287.476E-03     274.774E-03
            1690            2373     410.317E-03     416.289E-03
            1690            2374     274.675E-03     271.392E-03
            1691             416     242.402E-03     231.772E-03
            1691             417     214.485E-03     206.585E-03
            1691            2370     287.476E-03     274.774E-03
            1691            2374     274.675E-03     271.392E-03
            1692             290     807.293E-03     810.751E-03
            1692             291     835.178E-03     829.793E-03
            1692            2371     728.949E-03     742.589E-03
            1692            2375     752.244E-03     761.625E-03
            1693            2371     728.949E-03     742.589E-03
            1693            2372     568.186E-03     585.404E-03
            1693            2375     752.244E-03     761.625E-03
            1693            2376     588.034E-03     616.211E-03
            1694            2372     568.186E-03     585.404E-03
            1694            2373     410.317E-03     416.289E-03
            1694            2376     588.034E-03     616.211E-03
            1694            2377     419.654E-03     443.447E-03
            1695            2373     410.317E-03     416.289E-03
            1695            2374     274.675E-03     271.392E-03
            1695            2377     419.654E-03     443.447E-03
            1695            2378     266.796E-03     275.804E-03
            1696             417     214.485E-03     206.585E-03
            1696             418     201.043E-03     203.681E-03
            1696            2374     274.675E-03     271.392E-03
            1696            2378     266.796E-03     275.804E-03
            1697             291     835.178E-03     829.793E-03
            1697             292     877.967E-03     875.492E-03
            1697            2375     752.244E-03     761.625E-03
            1697            2379     786.748E-03     797.679E-03
            1698            2375     752.244E-03     761.625E-03
            1698            2376     588.034E-03     616.211E-03
            1698            2379     786.748E-03     797.679E-03
            1698            2380     596.847E-03     621.304E-03
            1699            2376     588.034E-03     616.211E-03
            1699            2377     419.654E-03     443.447E-03
            1699            2380     596.847E-03     621.304E-03
            1699            2381     409.950E-03     430.229E-03
            1700            2377     419.654E-03     443.447E-03
            1700            2378     266.796E-03     275.804E-03
            1700            2381     409.950E-03     430.229E-03
            1700            2382     251.463E-03     264.805E-03
            1701             418     201.043E-03     203.681E-03
            1701             419     181.192E-03     191.893E-03
            1701            2378     266.796E-03     275.804E-03
            1701            2382     251.463E-03     264.805E-03
            1702             292     877.967E-03     875.492E-03
            1702             293     931.216E-03     899.108E-03
            1702            2379     786.748E-03     797.679E-03
            1702            2383     807.952E-03     786.476E-03
            1703            2379     786.748E-03     797.679E-03
            1703            2380     596.847E-03     621.304E-03
            1703            2383     807.952E-03     786.476E-03
            1703            2384     577.198E-03     567.216E-03
            1704            2380     596.847E-03     621.304E-03
            1704            2381     409.950E-03     430.229E-03
            1704            2384     577.198E-03     567.216E-03
            1704            2385     382.731E-03     377.914E-03
            1705            2381     409.950E-03     430.229E-03
            1705            2382     251.463E-03     264.805E-03
            1705            2385     382.731E-03     377.914E-03
            1705            2386     219.545E-03     222.911E-03
            1706             419     181.192E-03     191.893E-03
            1706             420     143.337E-03     150.582E-03
            1706            2382     251.463E-03     264.805E-03
            1706            2386     219.545E-03     222.911E-03
            1707              11     895.864E-03     833.298E-03
            1707             293     931.216E-03     899.108E-03
            1707             424     773.712E-03     715.622E-03
            1707            2383     807.952E-03     786.476E-03
            1708             423     565.298E-03     523.421E-03
            1708             424     773.712E-03     715.622E-03
            1708            2383     807.952E-03     786.476E-03
            1708            2384     577.198E-03     567.216E-03
            1709             422     398.317E-03     376.051E-03
            1709             423     565.298E-03     523.421E-03
            1709            2384     577.198E-03     567.216E-03
            1709            2385     382.731E-03     377.914E-03
            1710             421     258.979E-03     251.377E-03
            1710             422     398.317E-03     376.051E-03
            1710            2385     382.731E-03     377.914E-03
            1710            2386     219.545E-03     222.911E-03
            1711              15     200.361E-03     199.547E-03
            1711             420     143.337E-03     150.582E-03
            1711             421     258.979E-03     251.377E-03
            1711            2386     219.545E-03     222.911E-03
            1712              13     84.1851E-03     84.2180E-03
            1712             356     11.0479E-15     10.8601E-15
            1712             369     84.3763E-03     84.3821E-03
            1712            2387     20.2932E-15     19.8002E-15
            1713             368     82.1759E-03     81.9396E-03
            1713             369     84.3763E-03     84.3821E-03
            1713            2387     20.2932E-15     19.8002E-15
            1713            2388     27.2969E-15     27.2143E-15
            1714             367     77.9700E-03     77.7881E-03
            1714             368     82.1759E-03     81.9396E-03
            1714            2388     27.2969E-15     27.2143E-15
            1714            2389     20.5652E-15     20.9207E-15
            1715             366     67.8904E-03     67.8591E-03
            1715             367     77.9700E-03     77.7881E-03
            1715            2389     20.5652E-15     20.9207E-15
            1715            2390     11.2647E-15     12.1813E-15
            1716               5     59.6251E-03     59.4750E-03
            1716             183     6.37531E-15     7.90841E-15
            1716             366     67.8904E-03     67.8591E-03
            1716            2390     11.2647E-15     12.1813E-15
            1717             356     11.0479E-15     10.8601E-15
            1717             357     13.5275E-15     13.6379E-15
            1717            2387     20.2932E-15     19.8002E-15
            1717            2391     18.4869E-15     18.9265E-15
            1718            2387     20.2932E-15     19.8002E-15
            1718            2388     27.2969E-15     27.2143E-15
            1718            2391     18.4869E-15     18.9265E-15
            1718            2392     16.9355E-15     18.0763E-15
            1719            2388     27.2969E-15     27.2143E-15
            1719            2389     20.5652E-15     20.9207E-15
            1719            2392     16.9355E-15     18.0763E-15
            1719            2393     14.5079E-15     16.1168E-15
            1720            2389     20.5652E-15     20.9207E-15
            1720            2390     11.2647E-15     12.1813E-15
            1720            2393     14.5079E-15     16.1168E-15
            1720            2394     11.5471E-15     12.7643E-15
            1721             183     6.37531E-15     7.90841E-15
            1721             184     6.89510E-15     7.76129E-15
            1721            2390     11.2647E-15     12.1813E-15
            1721            2394     11.5471E-15     12.7643E-15
            1722             357     13.5275E-15     13.6379E-15
            1722             358     33.0945E-15     33.2477E-15
            1722            2391     18.4869E-15     18.9265E-15
            1722            2395     22.8326E-15     23.6272E-15
            1723            2391     18.4869E-15     18.9265E-15
            1723            2392     16.9355E-15     18.0763E-15
            1723            2395     22.8326E-15     23.6272E-15
            1723            2396     14.2279E-15     15.0556E-15
            1724            2392     16.9355E-15     18.0763E-15
            1724            2393     14.5079E-15     16.1168E-15
            1724            2396     14.2279E-15     15.0556E-15
            1724            2397     13.1976E-15     14.3286E-15
            1725            2393     14.5079E-15     16.1168E-15
            1725            2394     11.5471E-15     12.7643E-15
            1725            2397     13.1976E-15     14.3286E-15
            1725            2398     6.75846E-15     7.41300E-15
            1726             184     6.89510E-15     7.76129E-15
            1726             185     2.62599E-15     2.67432E-15
            1726            2394     11.5471E-15     12.7643E-15
            1726            2398     6.75846E-15     7.41300E-15
            1727             358     33.0945E-15     33.2477E-15
            1727             359     46.6111E-15     46.6893E-15
            1727            2395     22.8326E-15     23.6272E-15
            1727            2399     31.0039E-15     31.4021E-15
            1728            2395     22.8326E-15     23.6272E-15
            1728            2396     14.2279E-15     15.0556E-15
            1728            2399     31.0039E-15     31.4021E-15
            1728            2400     22.0545E-15     22.2739E-15
            1729            2396     14.2279E-15     15.0556E-15
            1729            2397     13.1976E-15     14.3286E-15
            1729            2400     22.0545E-15     22.2739E-15
            1729            2401     17.8455E-15     18.5292E-15
            1730            2397     13.1976E-15     14.3286E-15
            1730            2398     6.75846E-15     7.41300E-15
            1730            2401     17.8455E-15     18.5292E-15
            1730            2402     5.40101E-15     6.92631E-15
            1731             185     2.62599E-15     2.67432E-15
            1731             186     3.26104E-15     5.38721E-15
            1731            2398     6.75846E-15     7.41300E-15
            1731            2402     5.40101E-15     6.92631E-15
            1732             359     46.6111E-15     46.6893E-15
            1732             360     33.0648E-15     32.8317E-15
            1732            2399     31.0039E-15     31.4021E-15
            1732            2403     21.0261E-15     20.5400E-15
            1733            2399     31.0039E-15     31.4021E-15
            1733            2400     22.0545E-15     22.2739E-15
            1733            2403     21.0261E-15     20.5400E-15
            1733            2404     17.6434E-15     17.6841E-15
            1734            2400     22.0545E-15     22.2739E-15
            1734            2401     17.8455E-15     18.5292E-15
            1734            2404     17.6434E-15     17.6841E-15
            1734            2405     16.5748E-15     17.4605E-15
            1735            2401     17.8455E-15     18.5292E-15
            1735            2402     5.40101E-15     6.92631E-15
            1735            2405     16.5748E-15     17.4605E-15
            1735            2406     15.2451E-15     17.0260E-15
            1736             186     3.26104E-15     5.38721E-15
            1736             187     22.7794E-15     25.3045E-15
            1736            2402     5.40101E-15     6.92631E-15
            1736            2406     15.2451E-15     17.0260E-15
            1737             360     33.0648E-15     32.8317E-15
            1737             361     12.0042E-15     11.6630E-15
            1737            2403     21.0261E-15     20.5400E-15
            1737            2407     10.5482E-15     10.0085E-15
            1738            2403     21.0261E-15     20.5400E-15
            1738            2404     17.6434E-15     17.6841E-15
            1738            2407     10.5482E-15     10.0085E-15
            1738            2408     8.98008E-15     8.26599E-15
            1739            2404     17.6434E-15     17.6841E-15
            1739            2405     16.5748E-15     17.4605E-15
            1739            2408     8.98008E-15     8.26599E-15
            1739            2409     10.7331E-15     10.5055E-15
            1740            2405     16.5748E-15     17.4605E-15
            1740            2406     15.2451E-15     17.0260E-15
            1740            2409     10.7331E-15     10.5055E-15
            1740            2410     16.5354E-15     16.7732E-15
            1741             187     22.7794E-15     25.3045E-15
            1741             188     22.2236E-15     22.2490E-15
            1741            2406     15.2451E-15     17.0260E-15
            1741            2410     16.5354E-15     16.7732E-15
            1742              14     6.00437E-15     5.88437E-15
            1742             361     12.0042E-15     11.6630E-15
            1742             428     10.9897E-15     10.7364E-15
            1742            2407     10.5482E-15     10.0085E-15
            1743             427     8.21394E-15     7.07207E-15
            1743             428     10.9897E-15     10.7364E-15
            1743            2407     10.5482E-15     10.0085E-15
            1743            2408     8.98008E-15     8.26599E-15
            1744             426     8.10767E-15     6.93979E-15
            1744             427     8.21394E-15     7.07207E-15
            1744            2408     8.98008E-15     8.26599E-15
            1744            2409     10.7331E-15     10.5055E-15
            1745             425     6.70985E-15     6.24415E-15
            1745             426     8.10767E-15     6.93979E-15
            1745            2409     10.7331E-15     10.5055E-15
            1745            2410     16.5354E-15     16.7732E-15
            1746               6     2.41763E-15     1.84883E-15
            1746             188     22.2236E-15     22.2490E-15
            1746             425     6.70985E-15     6.24415E-15
            1746            2410     16.5354E-15     16.7732E-15
            1747              15     200.361E-03     199.547E-03
            1747             429     258.979E-03     251.377E-03
            1747             446     252.282E-03     247.879E-03
            1747            2411     308.369E-03     302.722E-03
            1748             429     258.979E-03     251.377E-03
            1748             430     398.317E-03     376.051E-03
            1748            2411     308.369E-03     302.722E-03
            1748            2412     438.972E-03     428.185E-03
            1749             430     398.317E-03     376.051E-03
            1749             431     565.298E-03     523.421E-03
            1749            2412     438.972E-03     428.185E-03
            1749            2413     598.199E-03     583.055E-03
            1750             431     565.298E-03     523.421E-03
            1750             432     773.712E-03     715.622E-03
            1750            2413     598.199E-03     583.055E-03
            1750            2414     773.967E-03     755.009E-03
            1751               3     895.864E-03     833.298E-03
            1751             432     773.712E-03     715.622E-03
            1751             433     865.025E-03     842.710E-03
            1751            2414     773.967E-03     755.009E-03
            1752             445     214.989E-03     213.848E-03
            1752             446     252.282E-03     247.879E-03
            1752            2411     308.369E-03     302.722E-03
            1752            2415     287.077E-03     289.420E-03
            1753            2411     308.369E-03     302.722E-03
            1753            2412     438.972E-03     428.185E-03
            1753            2415     287.077E-03     289.420E-03
            1753            2416     452.297E-03     465.518E-03
            1754            2412     438.972E-03     428.185E-03
            1754            2413     598.199E-03     583.055E-03
            1754            2416     452.297E-03     465.518E-03
            1754            2417     638.404E-03     665.067E-03
            1755            2413     598.199E-03     583.055E-03
            1755            2414     773.967E-03     755.009E-03
            1755            2417     638.404E-03     665.067E-03
            1755            2418     818.253E-03     837.510E-03
            1756             433     865.025E-03     842.710E-03
            1756             434     905.127E-03     910.930E-03
            1756            2414     773.967E-03     755.009E-03
            1756            2418     818.253E-03     837.510E-03
            1757             444     185.641E-03     189.679E-03
            1757             445     214.989E-03     213.848E-03
            1757            2415     287.077E-03     289.420E-03
            1757            2419     266.231E-03     273.600E-03
            1758            2415     287.077E-03     289.420E-03
            1758            2416     452.297E-03     465.518E-03
            1758            2419     266.231E-03     273.600E-03
            1758            2420     446.603E-03     466.925E-03
            1759            2416     452.297E-03     465.518E-03
            1759            2417     638.404E-03     665.067E-03
            1759            2420     446.603E-03     466.925E-03
            1759            2421     651.371E-03     684.705E-03
            1760            2417     638.404E-03     665.067E-03
            1760            2418     818.253E-03     837.510E-03
            1760            2421     651.371E-03     684.705E-03
            1760            2422     851.925E-03     870.866E-03
            1761             434     905.127E-03     910.930E-03
            1761             435     947.492E-03     948.651E-03
            1761            2418     818.253E-03     837.510E-03
            1761            2422     851.925E-03     870.866E-03
            1762             443     142.445E-03     144.965E-03
            1762             444     185.641E-03     189.679E-03
            1762            2419     266.231E-03     273.600E-03
            1762            2423     230.810E-03     233.019E-03
            1763            2419     266.231E-03     273.600E-03
            1763            2420     446.603E-03     466.925E-03
            1763            2423     230.810E-03     233.019E-03
            1763            2424     415.072E-03     415.050E-03
            1764            2420     446.603E-03     466.925E-03
            1764            2421     651.371E-03     684.705E-03
            1764            2424     415.072E-03     415.050E-03
            1764            2425     625.935E-03     622.526E-03
            1765            2421     651.371E-03     684.705E-03
            1765            2422     851.925E-03     870.866E-03
            1765            2425     625.935E-03     622.526E-03
            1765            2426     873.662E-03     856.638E-03
            1766             435     947.492E-03     948.651E-03
            1766             436         1.00642     977.250E-03
            1766            2422     851.925E-03     870.866E-03
            1766            2426     873.662E-03     856.638E-03
            1767             442     124.305E-03     124.193E-03
            1767             443     142.445E-03     144.965E-03
            1767            2423     230.810E-03     233.019E-03
            1767            2427     212.724E-03     210.733E-03
            1768            2423     230.810E-03     233.019E-03
            1768            2424     415.072E-03     415.050E-03
            1768            2427     212.724E-03     210.733E-03
            1768            2428     399.222E-03     391.379E-03
            1769            2424     415.072E-03     415.050E-03
            1769            2425     625.935E-03     622.526E-03
            1769            2428     399.222E-03     391.379E-03
            1769            2429     600.554E-03     583.542E-03
            1770            2425     625.935E-03     622.526E-03
            1770            2426     873.662E-03     856.638E-03
            1770            2429     600.554E-03     583.542E-03
            1770            2430     833.587E-03     806.242E-03
            1771             436         1.00642     977.250E-03
            1771             437     963.366E-03     930.885E-03
            1771            2426     873.662E-03     856.638E-03
            1771            2430     833.587E-03     806.242E-03
            1772              17     170.031E-03     172.262E-03
            1772             441     248.655E-03     247.507E-03
            1772             442     124.305E-03     124.193E-03
            1772            2427     212.724E-03     210.733E-03
            1773             440     422.248E-03     413.022E-03
            1773             441     248.655E-03     247.507E-03
            1773            2427     212.724E-03     210.733E-03
            1773            2428     399.222E-03     391.379E-03
            1774             439     622.277E-03     603.199E-03
            1774             440     422.248E-03     413.022E-03
            1774            2428     399.222E-03     391.379E-03
            1774            2429     600.554E-03     583.542E-03
            1775             438     863.300E-03     833.440E-03
            1775             439     622.277E-03     603.199E-03
            1775            2429     600.554E-03     583.542E-03
            1775            2430     833.587E-03     806.242E-03
            1776              16     999.264E-03     963.774E-03
            1776             437     963.366E-03     930.885E-03
            1776             438     863.300E-03     833.440E-03
            1776            2430     833.587E-03     806.242E-03
            3465              13     84.1851E-03     84.2180E-03
            3465             355     84.3763E-03     84.3821E-03
            3465             370     167.786E-03     167.854E-03
            3465            3890     167.997E-03     168.009E-03
            3466             354     82.1759E-03     81.9396E-03
            3466             355     84.3763E-03     84.3821E-03
            3466            3890     167.997E-03     168.009E-03
            3466            3891     166.733E-03     166.494E-03
            3467             353     77.9700E-03     77.7881E-03
            3467             354     82.1759E-03     81.9396E-03
            3467            3891     166.733E-03     166.494E-03
            3467            3892     160.517E-03     159.843E-03
            3468             352     67.8904E-03     67.8591E-03
            3468             353     77.9700E-03     77.7881E-03
            3468            3892     160.517E-03     159.843E-03
            3468            3893     134.477E-03     134.552E-03
            3469               2     59.6251E-03     59.4750E-03
            3469              51     113.178E-03     114.242E-03
            3469             352     67.8904E-03     67.8591E-03
            3469            3893     134.477E-03     134.552E-03
            3470             370     167.786E-03     167.854E-03
            3470             371     166.190E-03     166.231E-03
            3470            3890     167.997E-03     168.009E-03
            3470            3894     166.438E-03     166.495E-03
            3471            3890     167.997E-03     168.009E-03
            3471            3891     166.733E-03     166.494E-03
            3471            3894     166.438E-03     166.495E-03
            3471            3895     168.450E-03     168.694E-03
            3472            3891     166.733E-03     166.494E-03
            3472            3892     160.517E-03     159.843E-03
            3472            3895     168.450E-03     168.694E-03
            3472            3896     166.095E-03     165.953E-03
            3473            3892     160.517E-03     159.843E-03
            3473            3893     134.477E-03     134.552E-03
            3473            3896     166.095E-03     165.953E-03
            3473            3897     138.615E-03     138.920E-03
            3474              51     113.178E-03     114.242E-03
            3474              52     115.253E-03     116.561E-03
            3474            3893     134.477E-03     134.552E-03
            3474            3897     138.615E-03     138.920E-03
            3475             371     166.190E-03     166.231E-03
            3475             372     163.176E-03     163.184E-03
            3475            3894     166.438E-03     166.495E-03
            3475            3898     163.929E-03     164.024E-03
            3476            3894     166.438E-03     166.495E-03
            3476            3895     168.450E-03     168.694E-03
            3476            3898     163.929E-03     164.024E-03
            3476            3899     164.221E-03     164.546E-03
            3477            3895     168.450E-03     168.694E-03
            3477            3896     166.095E-03     165.953E-03
            3477            3899     164.221E-03     164.546E-03
            3477            3900     163.030E-03     163.821E-03
            3478            3896     166.095E-03     165.953E-03
            3478            3897     138.615E-03     138.920E-03
            3478            3900     163.030E-03     163.821E-03
            3478            3901     152.226E-03     152.074E-03
            3479              52     115.253E-03     116.561E-03
            3479              53     142.153E-03     140.733E-03
            3479            3897     138.615E-03     138.920E-03
            3479            3901     152.226E-03     152.074E-03
            3480             372     163.176E-03     163.184E-03
            3480             373     167.995E-03     166.741E-03
            3480            3898     163.929E-03     164.024E-03
            3480            3902     167.733E-03     166.313E-03
            3481            3898     163.929E-03     164.024E-03
            3481            3899     164.221E-03     164.546E-03
            3481            3902     167.733E-03     166.313E-03
            3481            3903     163.704E-03     161.864E-03
            3482            3899     164.221E-03     164.546E-03
            3482            3900     163.030E-03     163.821E-03
            3482            3903     163.704E-03     161.864E-03
            3482            3904     157.300E-03     155.211E-03
            3483            3900     163.030E-03     163.821E-03
            3483            3901     152.226E-03     152.074E-03
            3483            3904     157.300E-03     155.211E-03
            3483            3905     142.451E-03     140.773E-03
            3484              53     142.153E-03     140.733E-03
            3484              54     130.239E-03     128.967E-03
            3484            3901     152.226E-03     152.074E-03
            3484            3905     142.451E-03     140.773E-03
            3485             373     167.995E-03     166.741E-03
            3485             374     175.572E-03     171.522E-03
            3485            3902     167.733E-03     166.313E-03
            3485            3906     174.366E-03     170.176E-03
            3486            3902     167.733E-03     166.313E-03
            3486            3903     163.704E-03     161.864E-03
            3486            3906     174.366E-03     170.176E-03
            3486            3907     169.563E-03     165.148E-03
            3487            3903     163.704E-03     161.864E-03
            3487            3904     157.300E-03     155.211E-03
            3487            3907     169.563E-03     165.148E-03
            3487            3908     159.602E-03     155.618E-03
            3488            3904     157.300E-03     155.211E-03
            3488            3905     142.451E-03     140.773E-03
            3488            3908     159.602E-03     155.618E-03
            3488            3909     129.832E-03     130.640E-03
            3489              54     130.239E-03     128.967E-03
            3489              55     106.424E-03     111.510E-03
            3489            3905     142.451E-03     140.773E-03
            3489            3909     129.832E-03     130.640E-03
            3490             374     175.572E-03     171.522E-03
            3490             375     178.896E-03     173.276E-03
            3490            3906     174.366E-03     170.176E-03
            3490            3910     178.016E-03     172.768E-03
            3491            3906     174.366E-03     170.176E-03
            3491            3907     169.563E-03     165.148E-03
            3491            3910     178.016E-03     172.768E-03
            3491            3911     175.099E-03     170.986E-03
            3492            3907     169.563E-03     165.148E-03
            3492            3908     159.602E-03     155.618E-03
            3492            3911     175.099E-03     170.986E-03
            3492            3912     164.907E-03     164.066E-03
            3493            3908     159.602E-03     155.618E-03
            3493            3909     129.832E-03     130.640E-03
            3493            3912     164.907E-03     164.066E-03
            3493            3913     139.654E-03     143.600E-03
            3494              55     106.424E-03     111.510E-03
            3494              56     122.555E-03     128.780E-03
            3494            3909     129.832E-03     130.640E-03
            3494            3913     139.654E-03     143.600E-03
            3495             375     178.896E-03     173.276E-03
            3495             376     183.731E-03     178.993E-03
            3495            3910     178.016E-03     172.768E-03
            3495            3914     182.949E-03     178.812E-03
            3496            3910     178.016E-03     172.768E-03
            3496            3911     175.099E-03     170.986E-03
            3496            3914     182.949E-03     178.812E-03
            3496            3915     179.186E-03     177.153E-03
            3497            3911     175.099E-03     170.986E-03
            3497            3912     164.907E-03     164.066E-03
            3497            3915     179.186E-03     177.153E-03
            3497            3916     168.503E-03     169.793E-03
            3498            3912     164.907E-03     164.066E-03
            3498            3913     139.654E-03     143.600E-03
            3498            3916     168.503E-03     169.793E-03
            3498            3917     151.548E-03     154.030E-03
            3499              56     122.555E-03     128.780E-03
            3499              57     142.298E-03     144.150E-03
            3499            3913     139.654E-03     143.600E-03
            3499            3917     151.548E-03     154.030E-03
            3500             376     183.731E-03     178.993E-03
            3500             377     187.541E-03     184.862E-03
            3500            3914     182.949E-03     178.812E-03
            3500            3918     186.655E-03     184.646E-03
            3501            3914     182.949E-03     178.812E-03
            3501            3915     179.186E-03     177.153E-03
            3501            3918     186.655E-03     184.646E-03
            3501            3919     182.516E-03     182.197E-03
            3502            3915     179.186E-03     177.153E-03
            3502            3916     168.503E-03     169.793E-03
            3502            3919     182.516E-03     182.197E-03
            3502            3920     174.584E-03     175.727E-03
            3503            3916     168.503E-03     169.793E-03
            3503            3917     151.548E-03     154.030E-03
            3503            3920     174.584E-03     175.727E-03
            3503            3921     166.326E-03     167.004E-03
            3504              57     142.298E-03     144.150E-03
            3504              58     162.744E-03     162.519E-03
            3504            3917     151.548E-03     154.030E-03
            3504            3921     166.326E-03     167.004E-03
            3505             377     187.541E-03     184.862E-03
            3505             378     189.686E-03     189.684E-03
            3505            3918     186.655E-03     184.646E-03
            3505            3922     188.657E-03     188.854E-03
            3506            3918     186.655E-03     184.646E-03
            3506            3919     182.516E-03     182.197E-03
            3506            3922     188.657E-03     188.854E-03
            3506            3923     186.443E-03     187.110E-03
            3507            3919     182.516E-03     182.197E-03
            3507            3920     174.584E-03     175.727E-03
            3507            3923     186.443E-03     187.110E-03
            3507            3924     183.558E-03     184.262E-03
            3508            3920     174.584E-03     175.727E-03
            3508            3921     166.326E-03     167.004E-03
            3508            3924     183.558E-03     184.262E-03
            3508            3925     182.682E-03     181.974E-03
            3509              58     162.744E-03     162.519E-03
            3509              59     183.506E-03     181.620E-03
            3509            3921     166.326E-03     167.004E-03
            3509            3925     182.682E-03     181.974E-03
            3510             378     189.686E-03     189.684E-03
            3510             379     188.718E-03     191.469E-03
            3510            3922     188.657E-03     188.854E-03
            3510            3926     189.552E-03     192.099E-03
            3511            3922     188.657E-03     188.854E-03
            3511            3923     186.443E-03     187.110E-03
            3511            3926     189.552E-03     192.099E-03
            3511            3927     190.794E-03     192.462E-03
            3512            3923     186.443E-03     187.110E-03
            3512            3924     183.558E-03     184.262E-03
            3512            3927     190.794E-03     192.462E-03
            3512            3928     193.638E-03     193.862E-03
            3513            3924     183.558E-03     184.262E-03
            3513            3925     182.682E-03     181.974E-03
            3513            3928     193.638E-03     193.862E-03
            3513            3929     201.193E-03     199.435E-03
            3514              59     183.506E-03     181.620E-03
            3514              60     206.313E-03     203.341E-03
            3514            3925     182.682E-03     181.974E-03
            3514            3929     201.193E-03     199.435E-03
            3515             379     188.718E-03     191.469E-03
            3515             380     184.256E-03     189.189E-03
            3515            3926     189.552E-03     192.099E-03
            3515            3930     186.797E-03     191.543E-03
            3516            3926     189.552E-03     192.099E-03
            3516            3927     190.794E-03     192.462E-03
            3516            3930     186.797E-03     191.543E-03
            3516            3931     194.811E-03     198.343E-03
            3517            3927     190.794E-03     192.462E-03
            3517            3928     193.638E-03     193.862E-03
            3517            3931     194.811E-03     198.343E-03
            3517            3932     205.969E-03     206.575E-03
            3518            3928     193.638E-03     193.862E-03
            3518            3929     201.193E-03     199.435E-03
            3518            3932     205.969E-03     206.575E-03
            3518            3933     220.212E-03     217.993E-03
            3519              60     206.313E-03     203.341E-03
            3519              61     228.771E-03     225.624E-03
            3519            3929     201.193E-03     199.435E-03
            3519            3933     220.212E-03     217.993E-03
            3520             380     184.256E-03     189.189E-03
            3520             381     174.681E-03     180.526E-03
            3520            3930     186.797E-03     191.543E-03
            3520            3934     178.743E-03     184.125E-03
            3521            3930     186.797E-03     191.543E-03
            3521            3931     194.811E-03     198.343E-03
            3521            3934     178.743E-03     184.125E-03
            3521            3935     192.950E-03     197.471E-03
            3522            3931     194.811E-03     198.343E-03
            3522            3932     205.969E-03     206.575E-03
            3522            3935     192.950E-03     197.471E-03
            3522            3936     218.387E-03     220.815E-03
            3523            3932     205.969E-03     206.575E-03
            3523            3933     220.212E-03     217.993E-03
            3523            3936     218.387E-03     220.815E-03
            3523            3937     246.632E-03     245.470E-03
            3524              61     228.771E-03     225.624E-03
            3524              62     259.584E-03     256.527E-03
            3524            3933     220.212E-03     217.993E-03
            3524            3937     246.632E-03     245.470E-03
            3525             381     174.681E-03     180.526E-03
            3525             382     158.576E-03     162.591E-03
            3525            3934     178.743E-03     184.125E-03
            3525            3938     164.980E-03     168.250E-03
            3526            3934     178.743E-03     184.125E-03
            3526            3935     192.950E-03     197.471E-03
            3526            3938     164.980E-03     168.250E-03
            3526            3939     182.660E-03     183.910E-03
            3527            3935     192.950E-03     197.471E-03
            3527            3936     218.387E-03     220.815E-03
            3527            3939     182.660E-03     183.910E-03
            3527            3940     218.235E-03     217.393E-03
            3528            3936     218.387E-03     220.815E-03
            3528            3937     246.632E-03     245.470E-03
            3528            3940     218.235E-03     217.393E-03
            3528            3941     273.515E-03     268.001E-03
            3529              62     259.584E-03     256.527E-03
            3529              63     304.496E-03     295.128E-03
            3529            3937     246.632E-03     245.470E-03
            3529            3941     273.515E-03     268.001E-03
            3530             382     158.576E-03     162.591E-03
            3530             383     169.716E-03     167.949E-03
            3530            3938     164.980E-03     168.250E-03
            3530            3942     174.873E-03     171.595E-03
            3531            3938     164.980E-03     168.250E-03
            3531            3939     182.660E-03     183.910E-03
            3531            3942     174.873E-03     171.595E-03
            3531            3943     188.389E-03     181.129E-03
            3532            3939     182.660E-03     183.910E-03
            3532            3940     218.235E-03     217.393E-03
            3532            3943     188.389E-03     181.129E-03
            3532            3944     211.553E-03     198.528E-03
            3533            3940     218.235E-03     217.393E-03
            3533            3941     273.515E-03     268.001E-03
            3533            3944     211.553E-03     198.528E-03
            3533            3945     245.241E-03     227.547E-03
            3534              63     304.496E-03     295.128E-03
            3534              64     264.125E-03     245.055E-03
            3534            3941     273.515E-03     268.001E-03
            3534            3945     245.241E-03     227.547E-03
            3535             383     169.716E-03     167.949E-03
            3535             384     186.547E-03     177.378E-03
            3535            3942     174.873E-03     171.595E-03
            3535            3946     190.998E-03     181.135E-03
            3536            3942     174.873E-03     171.595E-03
            3536            3943     188.389E-03     181.129E-03
            3536            3946     190.998E-03     181.135E-03
            3536            3947     202.835E-03     191.048E-03
            3537            3943     188.389E-03     181.129E-03
            3537            3944     211.553E-03     198.528E-03
            3537            3947     202.835E-03     191.048E-03
            3537            3948     217.447E-03     204.838E-03
            3538            3944     211.553E-03     198.528E-03
            3538            3945     245.241E-03     227.547E-03
            3538            3948     217.447E-03     204.838E-03
            3538            3949     223.218E-03     214.321E-03
            3539              64     264.125E-03     245.055E-03
            3539              65     221.763E-03     216.169E-03
            3539            3945     245.241E-03     227.547E-03
            3539            3949     223.218E-03     214.321E-03
            3540             384     186.547E-03     177.378E-03
            3540             385     183.044E-03     170.595E-03
            3540            3946     190.998E-03     181.135E-03
            3540            3950     189.957E-03     178.735E-03
            3541            3946     190.998E-03     181.135E-03
            3541            3947     202.835E-03     191.048E-03
            3541            3950     189.957E-03     178.735E-03
            3541            3951     208.139E-03     200.569E-03
            3542            3947     202.835E-03     191.048E-03
            3542            3948     217.447E-03     204.838E-03
            3542            3951     208.139E-03     200.569E-03
            3542            3952     230.164E-03     230.332E-03
            3543            3948     217.447E-03     204.838E-03
            3543            3949     223.218E-03     214.321E-03
            3543            3952     230.164E-03     230.332E-03
            3543            3953     250.814E-03     256.090E-03
            3544              65     221.763E-03     216.169E-03
            3544              66     260.708E-03     265.779E-03
            3544            3949     223.218E-03     214.321E-03
            3544            3953     250.814E-03     256.090E-03
            3545             385     183.044E-03     170.595E-03
            3545             386     185.274E-03     174.481E-03
            3545            3950     189.957E-03     178.735E-03
            3545            3954     193.353E-03     184.765E-03
            3546            3950     189.957E-03     178.735E-03
            3546            3951     208.139E-03     200.569E-03
            3546            3954     193.353E-03     184.765E-03
            3546            3955     214.389E-03     211.945E-03
            3547            3951     208.139E-03     200.569E-03
            3547            3952     230.164E-03     230.332E-03
            3547            3955     214.389E-03     211.945E-03
            3547            3956     241.068E-03     244.804E-03
            3548            3952     230.164E-03     230.332E-03
            3548            3953     250.814E-03     256.090E-03
            3548            3956     241.068E-03     244.804E-03
            3548            3957     272.345E-03     274.827E-03
            3549              66     260.708E-03     265.779E-03
            3549              67     289.899E-03     288.886E-03
            3549            3953     250.814E-03     256.090E-03
            3549            3957     272.345E-03     274.827E-03
            3550             386     185.274E-03     174.481E-03
            3550             387     188.876E-03     182.046E-03
            3550            3954     193.353E-03     184.765E-03
            3550            3958     197.521E-03     192.874E-03
            3551            3954     193.353E-03     184.765E-03
            3551            3955     214.389E-03     211.945E-03
            3551            3958     197.521E-03     192.874E-03
            3551            3959     220.390E-03     220.281E-03
            3552            3955     214.389E-03     211.945E-03
            3552            3956     241.068E-03     244.804E-03
            3552            3959     220.390E-03     220.281E-03
            3552            3960     252.693E-03     254.721E-03
            3553            3956     241.068E-03     244.804E-03
            3553            3957     272.345E-03     274.827E-03
            3553            3960     252.693E-03     254.721E-03
            3553            3961     293.309E-03     292.743E-03
            3554              67     289.899E-03     288.886E-03
            3554              68     315.846E-03     312.903E-03
            3554            3957     272.345E-03     274.827E-03
            3554            3961     293.309E-03     292.743E-03
            3555             387     188.876E-03     182.046E-03
            3555             388     191.675E-03     189.429E-03
            3555            3958     197.521E-03     192.874E-03
            3555            3962     201.385E-03     200.385E-03
            3556            3958     197.521E-03     192.874E-03
            3556            3959     220.390E-03     220.281E-03
            3556            3962     201.385E-03     200.385E-03
            3556            3963     227.480E-03     228.306E-03
            3557            3959     220.390E-03     220.281E-03
            3557            3960     252.693E-03     254.721E-03
            3557            3963     227.480E-03     228.306E-03
            3557            3964     265.501E-03     266.214E-03
            3558            3960     252.693E-03     254.721E-03
            3558            3961     293.309E-03     292.743E-03
            3558            3964     265.501E-03     266.214E-03
            3558            3965     313.530E-03     311.147E-03
            3559              68     315.846E-03     312.903E-03
            3559              69     339.923E-03     335.140E-03
            3559            3961     293.309E-03     292.743E-03
            3559            3965     313.530E-03     311.147E-03
            3560             388     191.675E-03     189.429E-03
            3560             389     193.847E-03     196.394E-03
            3560            3962     201.385E-03     200.385E-03
            3560            3966     204.471E-03     206.952E-03
            3561            3962     201.385E-03     200.385E-03
            3561            3963     227.480E-03     228.306E-03
            3561            3966     204.471E-03     206.952E-03
            3561            3967     234.917E-03     236.982E-03
            3562            3963     227.480E-03     228.306E-03
            3562            3964     265.501E-03     266.214E-03
            3562            3967     234.917E-03     236.982E-03
            3562            3968     279.650E-03     279.825E-03
            3563            3964     265.501E-03     266.214E-03
            3563            3965     313.530E-03     311.147E-03
            3563            3968     279.650E-03     279.825E-03
            3563            3969     333.864E-03     330.450E-03
            3564              69     339.923E-03     335.140E-03
            3564              70     363.169E-03     357.703E-03
            3564            3965     313.530E-03     311.147E-03
            3564            3969     333.864E-03     330.450E-03
            3565             389     193.847E-03     196.394E-03
            3565             390     192.984E-03     200.316E-03
            3565            3966     204.471E-03     206.952E-03
            3565            3970     206.759E-03     213.436E-03
            3566            3966     204.471E-03     206.952E-03
            3566            3967     234.917E-03     236.982E-03
            3566            3970     206.759E-03     213.436E-03
            3566            3971     242.427E-03     246.666E-03
            3567            3967     234.917E-03     236.982E-03
            3567            3968     279.650E-03     279.825E-03
            3567            3971     242.427E-03     246.666E-03
            3567            3972     293.360E-03     293.780E-03
            3568            3968     279.650E-03     279.825E-03
            3568            3969     333.864E-03     330.450E-03
            3568            3972     293.360E-03     293.780E-03
            3568            3973     355.114E-03     351.095E-03
            3569              70     363.169E-03     357.703E-03
            3569              71     387.827E-03     381.406E-03
            3569            3969     333.864E-03     330.450E-03
            3569            3973     355.114E-03     351.095E-03
            3570             390     192.984E-03     200.316E-03
            3570             391     188.122E-03     199.349E-03
            3570            3970     206.759E-03     213.436E-03
            3570            3974     204.148E-03     214.576E-03
            3571            3970     206.759E-03     213.436E-03
            3571            3971     242.427E-03     246.666E-03
            3571            3974     204.148E-03     214.576E-03
            3571            3975     248.507E-03     256.401E-03
            3572            3971     242.427E-03     246.666E-03
            3572            3972     293.360E-03     293.780E-03
            3572            3975     248.507E-03     256.401E-03
            3572            3976     308.553E-03     311.271E-03
            3573            3972     293.360E-03     293.780E-03
            3573            3973     355.114E-03     351.095E-03
            3573            3976     308.553E-03     311.271E-03
            3573            3977     375.533E-03     372.029E-03
            3574              71     387.827E-03     381.406E-03
            3574              72     410.799E-03     404.516E-03
            3574            3973     355.114E-03     351.095E-03
            3574            3977     375.533E-03     372.029E-03
            3575             391     188.122E-03     199.349E-03
            3575             392     175.577E-03     188.154E-03
            3575            3974     204.148E-03     214.576E-03
            3575            3978     194.036E-03     204.847E-03
            3576            3974     204.148E-03     214.576E-03
            3576            3975     248.507E-03     256.401E-03
            3576            3978     194.036E-03     204.847E-03
            3576            3979     245.570E-03     253.604E-03
            3577            3975     248.507E-03     256.401E-03
            3577            3976     308.553E-03     311.271E-03
            3577            3979     245.570E-03     253.604E-03
            3577            3980     321.581E-03     326.900E-03
            3578            3976     308.553E-03     311.271E-03
            3578            3977     375.533E-03     372.029E-03
            3578            3980     321.581E-03     326.900E-03
            3578            3981     404.024E-03     403.365E-03
            3579              72     410.799E-03     404.516E-03
            3579              73     443.529E-03     438.600E-03
            3579            3977     375.533E-03     372.029E-03
            3579            3981     404.024E-03     403.365E-03
            3580             392     175.577E-03     188.154E-03
            3580             393     151.681E-03     159.817E-03
            3580            3978     194.036E-03     204.847E-03
            3580            3982     174.217E-03     179.387E-03
            3581            3978     194.036E-03     204.847E-03
            3581            3979     245.570E-03     253.604E-03
            3581            3982     174.217E-03     179.387E-03
            3581            3983     230.920E-03     229.711E-03
            3582            3979     245.570E-03     253.604E-03
            3582            3980     321.581E-03     326.900E-03
            3582            3983     230.920E-03     229.711E-03
            3582            3984     316.699E-03     310.903E-03
            3583            3980     321.581E-03     326.900E-03
            3583            3981     404.024E-03     403.365E-03
            3583            3984     316.699E-03     310.903E-03
            3583            3985     429.849E-03     417.622E-03
            3584              73     443.529E-03     438.600E-03
            3584              74     491.388E-03     473.902E-03
            3584            3981     404.024E-03     403.365E-03
            3584            3985     429.849E-03     417.622E-03
            3585             393     151.681E-03     159.817E-03
            3585             394     173.526E-03     170.866E-03
            3585            3982     174.217E-03     179.387E-03
            3585            3986     191.735E-03     184.999E-03
            3586            3982     174.217E-03     179.387E-03
            3586            3983     230.920E-03     229.711E-03
            3586            3986     191.735E-03     184.999E-03
            3586            3987     239.306E-03     223.232E-03
            3587            3983     230.920E-03     229.711E-03
            3587            3984     316.699E-03     310.903E-03
            3587            3987     239.306E-03     223.232E-03
            3587            3988     305.841E-03     278.591E-03
            3588            3984     316.699E-03     310.903E-03
            3588            3985     429.849E-03     417.622E-03
            3588            3988     305.841E-03     278.591E-03
            3588            3989     395.280E-03     360.410E-03
            3589              74     491.388E-03     473.902E-03
            3589              75     447.545E-03     410.971E-03
            3589            3985     429.849E-03     417.622E-03
            3589            3989     395.280E-03     360.410E-03
            3590             394     173.526E-03     170.866E-03
            3590             395     200.965E-03     186.483E-03
            3590            3986     191.735E-03     184.999E-03
            3590            3990     217.128E-03     201.366E-03
            3591            3986     191.735E-03     184.999E-03
            3591            3987     239.306E-03     223.232E-03
            3591            3990     217.128E-03     201.366E-03
            3591            3991     259.382E-03     240.098E-03
            3592            3987     239.306E-03     223.232E-03
            3592            3988     305.841E-03     278.591E-03
            3592            3991     259.382E-03     240.098E-03
            3592            3992     315.539E-03     294.667E-03
            3593            3988     305.841E-03     278.591E-03
            3593            3989     395.280E-03     360.410E-03
            3593            3992     315.539E-03     294.667E-03
            3593            3993     373.640E-03     356.162E-03
            3594              75     447.545E-03     410.971E-03
            3594              76     401.675E-03     386.936E-03
            3594            3989     395.280E-03     360.410E-03
            3594            3993     373.640E-03     356.162E-03
            3595             395     200.965E-03     186.483E-03
            3595             396     190.382E-03     171.376E-03
            3595            3990     217.128E-03     201.366E-03
            3595            3994     211.921E-03     195.767E-03
            3596            3990     217.128E-03     201.366E-03
            3596            3991     259.382E-03     240.098E-03
            3596            3994     211.921E-03     195.767E-03
            3596            3995     266.107E-03     256.999E-03
            3597            3991     259.382E-03     240.098E-03
            3597            3992     315.539E-03     294.667E-03
            3597            3995     266.107E-03     256.999E-03
            3597            3996     334.716E-03     336.829E-03
            3598            3992     315.539E-03     294.667E-03
            3598            3993     373.640E-03     356.162E-03
            3598            3996     334.716E-03     336.829E-03
            3598            3997     406.445E-03     412.757E-03
            3599              76     401.675E-03     386.936E-03
            3599              77     442.213E-03     445.695E-03
            3599            3993     373.640E-03     356.162E-03
            3599            3997     406.445E-03     412.757E-03
            3600             396     190.382E-03     171.376E-03
            3600             397     189.996E-03     173.779E-03
            3600            3994     211.921E-03     195.767E-03
            3600            3998     214.089E-03     202.565E-03
            3601            3994     211.921E-03     195.767E-03
            3601            3995     266.107E-03     256.999E-03
            3601            3998     214.089E-03     202.565E-03
            3601            3999     274.480E-03     273.538E-03
            3602            3995     266.107E-03     256.999E-03
            3602            3996     334.716E-03     336.829E-03
            3602            3999     274.480E-03     273.538E-03
            3602            4000     349.212E-03     355.650E-03
            3603            3996     334.716E-03     336.829E-03
            3603            3997     406.445E-03     412.757E-03
            3603            4000     349.212E-03     355.650E-03
            3603            4001     430.050E-03     432.021E-03
            3604              77     442.213E-03     445.695E-03
            3604              78     472.454E-03     468.468E-03
            3604            3997     406.445E-03     412.757E-03
            3604            4001     430.050E-03     432.021E-03
            3605             397     189.996E-03     173.779E-03
            3605             398     193.129E-03     183.010E-03
            3605            3998     214.089E-03     202.565E-03
            3605            4002     218.699E-03     212.852E-03
            3606            3998     214.089E-03     202.565E-03
            3606            3999     274.480E-03     273.538E-03
            3606            4002     218.699E-03     212.852E-03
            3606            4003     282.059E-03     283.447E-03
            3607            3999     274.480E-03     273.538E-03
            3607            4000     349.212E-03     355.650E-03
            3607            4003     282.059E-03     283.447E-03
            3607            4004     362.929E-03     365.965E-03
            3608            4000     349.212E-03     355.650E-03
            3608            4001     430.050E-03     432.021E-03
            3608            4004     362.929E-03     365.965E-03
            3608            4005     453.157E-03     451.023E-03
            3609              78     472.454E-03     468.468E-03
            3609              79     500.307E-03     494.317E-03
            3609            4001     430.050E-03     432.021E-03
            3609            4005     453.157E-03     451.023E-03
            3610             398     193.129E-03     183.010E-03
            3610             399     196.501E-03     193.361E-03
            3610            4002     218.699E-03     212.852E-03
            3610            4006     223.516E-03     222.640E-03
            3611            4002     218.699E-03     212.852E-03
            3611            4003     282.059E-03     283.447E-03
            3611            4006     223.516E-03     222.640E-03
            3611            4007     290.760E-03     292.716E-03
            3612            4003     282.059E-03     283.447E-03
            3612            4004     362.929E-03     365.965E-03
            3612            4007     290.760E-03     292.716E-03
            3612            4008     377.483E-03     378.456E-03
            3613            4004     362.929E-03     365.965E-03
            3613            4005     453.157E-03     451.023E-03
            3613            4008     377.483E-03     378.456E-03
            3613            4009     474.554E-03     470.296E-03
            3614              79     500.307E-03     494.317E-03
            3614              80     525.129E-03     517.192E-03
            3614            4005     453.157E-03     451.023E-03
            3614            4009     474.554E-03     470.296E-03
            3615             399     196.501E-03     193.361E-03
            3615             400     199.804E-03     203.919E-03
            3615            4006     223.516E-03     222.640E-03
            3615            4010     227.799E-03     231.962E-03
            3616            4006     223.516E-03     222.640E-03
            3616            4007     290.760E-03     292.716E-03
            3616            4010     227.799E-03     231.962E-03
            3616            4011     299.681E-03     303.211E-03
            3617            4007     290.760E-03     292.716E-03
            3617            4008     377.483E-03     378.456E-03
            3617            4011     299.681E-03     303.211E-03
            3617            4012     393.086E-03     393.487E-03
            3618            4008     377.483E-03     378.456E-03
            3618            4009     474.554E-03     470.296E-03
            3618            4012     393.086E-03     393.487E-03
            3618            4013     495.759E-03     490.432E-03
            3619              80     525.129E-03     517.192E-03
            3619              81     548.914E-03     540.307E-03
            3619            4009     474.554E-03     470.296E-03
            3619            4013     495.759E-03     490.432E-03
            3620             400     199.804E-03     203.919E-03
            3620             401     199.380E-03     210.770E-03
            3620            4010     227.799E-03     231.962E-03
            3620            4014     231.271E-03     241.638E-03
            3621            4010     227.799E-03     231.962E-03
            3621            4011     299.681E-03     303.211E-03
            3621            4014     231.271E-03     241.638E-03
            3621            4015     308.703E-03     315.605E-03
            3622            4011     299.681E-03     303.211E-03
            3622            4012     393.086E-03     393.487E-03
            3622            4015     308.703E-03     315.605E-03
            3622            4016     407.749E-03     409.021E-03
            3623            4012     393.086E-03     393.487E-03
            3623            4013     495.759E-03     490.432E-03
            3623            4016     407.749E-03     409.021E-03
            3623            4017     517.665E-03     511.966E-03
            3624              81     548.914E-03     540.307E-03
            3624              82     574.078E-03     564.596E-03
            3624            4013     495.759E-03     490.432E-03
            3624            4017     517.665E-03     511.966E-03
            3625             401     199.380E-03     210.770E-03
            3625             402     194.328E-03     211.509E-03
            3625            4014     231.271E-03     241.638E-03
            3625            4018     228.586E-03     244.160E-03
            3626            4014     231.271E-03     241.638E-03
            3626            4015     308.703E-03     315.605E-03
            3626            4018     228.586E-03     244.160E-03
            3626            4019     315.566E-03     327.515E-03
            3627            4015     308.703E-03     315.605E-03
            3627            4016     407.749E-03     409.021E-03
            3627            4019     315.566E-03     327.515E-03
            3627            4020     423.866E-03     429.140E-03
            3628            4016     407.749E-03     409.021E-03
            3628            4017     517.665E-03     511.966E-03
            3628            4020     423.866E-03     429.140E-03
            3628            4021     537.928E-03     533.664E-03
            3629              82     574.078E-03     564.596E-03
            3629              83     596.411E-03     587.269E-03
            3629            4017     517.665E-03     511.966E-03
            3629            4021     537.928E-03     533.664E-03
            3630             402     194.328E-03     211.509E-03
            3630             403     179.025E-03     197.999E-03
            3630            4018     228.586E-03     244.160E-03
            3630            4022     216.506E-03     231.865E-03
            3631            4018     228.586E-03     244.160E-03
            3631            4019     315.566E-03     327.515E-03
            3631            4022     216.506E-03     231.865E-03
            3631            4023     310.976E-03     321.418E-03
            3632            4019     315.566E-03     327.515E-03
            3632            4020     423.866E-03     429.140E-03
            3632            4023     310.976E-03     321.418E-03
            3632            4024     436.245E-03     444.188E-03
            3633            4020     423.866E-03     429.140E-03
            3633            4021     537.928E-03     533.664E-03
            3633            4024     436.245E-03     444.188E-03
            3633            4025     567.308E-03     567.530E-03
            3634              83     596.411E-03     587.269E-03
            3634              84     630.093E-03     623.790E-03
            3634            4021     537.928E-03     533.664E-03
            3634            4025     567.308E-03     567.530E-03
            3635             403     179.025E-03     197.999E-03
            3635             404     148.260E-03     159.784E-03
            3635            4022     216.506E-03     231.865E-03
            3635            4026     191.623E-03     197.232E-03
            3636            4022     216.506E-03     231.865E-03
            3636            4023     310.976E-03     321.418E-03
            3636            4026     191.623E-03     197.232E-03
            3636            4027     292.339E-03     286.841E-03
            3637            4023     310.976E-03     321.418E-03
            3637            4024     436.245E-03     444.188E-03
            3637            4027     292.339E-03     286.841E-03
            3637            4028     426.188E-03     414.299E-03
            3638            4024     436.245E-03     444.188E-03
            3638            4025     567.308E-03     567.530E-03
            3638            4028     426.188E-03     414.299E-03
            3638            4029     591.266E-03     571.981E-03
            3639              84     630.093E-03     623.790E-03
            3639              85     679.849E-03     654.367E-03
            3639            4025     567.308E-03     567.530E-03
            3639            4029     591.266E-03     571.981E-03
            3640             404     148.260E-03     159.784E-03
            3640             405     180.991E-03     176.963E-03
            3640            4026     191.623E-03     197.232E-03
            3640            4030     215.652E-03     204.630E-03
            3641            4026     191.623E-03     197.232E-03
            3641            4027     292.339E-03     286.841E-03
            3641            4030     215.652E-03     204.630E-03
            3641            4031     301.899E-03     276.310E-03
            3642            4027     292.339E-03     286.841E-03
            3642            4028     426.188E-03     414.299E-03
            3642            4031     301.899E-03     276.310E-03
            3642            4032     411.940E-03     370.745E-03
            3643            4028     426.188E-03     414.299E-03
            3643            4029     591.266E-03     571.981E-03
            3643            4032     411.940E-03     370.745E-03
            3643            4033     553.005E-03     501.935E-03
            3644              85     679.849E-03     654.367E-03
            3644              86     635.616E-03     582.704E-03
            3644            4029     591.266E-03     571.981E-03
            3644            4033     553.005E-03     501.935E-03
            3645             405     180.991E-03     176.963E-03
            3645             406     217.948E-03     198.812E-03
            3645            4030     215.652E-03     204.630E-03
            3645            4034     249.242E-03     228.368E-03
            3646            4030     215.652E-03     204.630E-03
            3646            4031     301.899E-03     276.310E-03
            3646            4034     249.242E-03     228.368E-03
            3646            4035     326.670E-03     301.156E-03
            3647            4031     301.899E-03     276.310E-03
            3647            4032     411.940E-03     370.745E-03
            3647            4035     326.670E-03     301.156E-03
            3647            4036     426.180E-03     398.641E-03
            3648            4032     411.940E-03     370.745E-03
            3648            4033     553.005E-03     501.935E-03
            3648            4036     426.180E-03     398.641E-03
            3648            4037     534.585E-03     509.967E-03
            3649              86     635.616E-03     582.704E-03
            3649              87     589.614E-03     567.039E-03
            3649            4033     553.005E-03     501.935E-03
            3649            4037     534.585E-03     509.967E-03
            3650             406     217.948E-03     198.812E-03
            3650             407     201.204E-03     177.212E-03
            3650            4034     249.242E-03     228.368E-03
            3650            4038     240.768E-03     221.691E-03
            3651            4034     249.242E-03     228.368E-03
            3651            4035     326.670E-03     301.156E-03
            3651            4038     240.768E-03     221.691E-03
            3651            4039     335.902E-03     327.116E-03
            3652            4035     326.670E-03     301.156E-03
            3652            4036     426.180E-03     398.641E-03
            3652            4039     335.902E-03     327.116E-03
            3652            4040     451.721E-03     456.486E-03
            3653            4036     426.180E-03     398.641E-03
            3653            4037     534.585E-03     509.967E-03
            3653            4040     451.721E-03     456.486E-03
            3653            4041     570.723E-03     578.476E-03
            3654              87     589.614E-03     567.039E-03
            3654              88     629.477E-03     632.041E-03
            3654            4037     534.585E-03     509.967E-03
            3654            4041     570.723E-03     578.476E-03
            3655             407     201.204E-03     177.212E-03
            3655             408     198.615E-03     179.618E-03
            3655            4038     240.768E-03     221.691E-03
            3655            4042     242.335E-03     230.535E-03
            3656            4038     240.768E-03     221.691E-03
            3656            4039     335.902E-03     327.116E-03
            3656            4042     242.335E-03     230.535E-03
            3656            4043     346.418E-03     348.989E-03
            3657            4039     335.902E-03     327.116E-03
            3657            4040     451.721E-03     456.486E-03
            3657            4043     346.418E-03     348.989E-03
            3657            4044     468.532E-03     478.563E-03
            3658            4040     451.721E-03     456.486E-03
            3658            4041     570.723E-03     578.476E-03
            3658            4044     468.532E-03     478.563E-03
            3658            4045     595.353E-03     597.129E-03
            3659              88     629.477E-03     632.041E-03
            3659              89     660.424E-03     653.660E-03
            3659            4041     570.723E-03     578.476E-03
            3659            4045     595.353E-03     597.129E-03
            3660             408     198.615E-03     179.618E-03
            3660             409     200.816E-03     190.775E-03
            3660            4042     242.335E-03     230.535E-03
            3660            4046     247.443E-03     243.827E-03
            3661            4042     242.335E-03     230.535E-03
            3661            4043     346.418E-03     348.989E-03
            3661            4046     247.443E-03     243.827E-03
            3661            4047     355.421E-03     361.007E-03
            3662            4043     346.418E-03     348.989E-03
            3662            4044     468.532E-03     478.563E-03
            3662            4047     355.421E-03     361.007E-03
            3662            4048     483.198E-03     488.796E-03
            3663            4044     468.532E-03     478.563E-03
            3663            4045     595.353E-03     597.129E-03
            3663            4048     483.198E-03     488.796E-03
            3663            4049     619.525E-03     616.805E-03
            3664              89     660.424E-03     653.660E-03
            3664              90     689.427E-03     681.152E-03
            3664            4045     595.353E-03     597.129E-03
            3664            4049     619.525E-03     616.805E-03
            3665             409     200.816E-03     190.775E-03
            3665             410     205.613E-03     207.182E-03
            3665            4046     247.443E-03     243.827E-03
            3665            4050     252.265E-03     256.315E-03
            3666            4046     247.443E-03     243.827E-03
            3666            4047     355.421E-03     361.007E-03
            3666            4050     252.265E-03     256.315E-03
            3666            4051     364.230E-03     370.923E-03
            3667            4047     355.421E-03     361.007E-03
            3667            4048     483.198E-03     488.796E-03
            3667            4051     364.230E-03     370.923E-03
            3667            4052     499.432E-03     503.358E-03
            3668            4048     483.198E-03     488.796E-03
            3668            4049     619.525E-03     616.805E-03
            3668            4052     499.432E-03     503.358E-03
            3668            4053     642.214E-03     637.274E-03
            3669              90     689.427E-03     681.152E-03
            3669              91     715.107E-03     704.228E-03
            3669            4049     619.525E-03     616.805E-03
            3669            4053     642.214E-03     637.274E-03
            3670             410     205.613E-03     207.182E-03
            3670             411     205.779E-03     218.493E-03
            3670            4050     252.265E-03     256.315E-03
            3670            4054     256.489E-03     269.194E-03
            3671            4050     252.265E-03     256.315E-03
            3671            4051     364.230E-03     370.923E-03
            3671            4054     256.489E-03     269.194E-03
            3671            4055     373.754E-03     384.367E-03
            3672            4051     364.230E-03     370.923E-03
            3672            4052     499.432E-03     503.358E-03
            3672            4055     373.754E-03     384.367E-03
            3672            4056     514.199E-03     518.331E-03
            3673            4052     499.432E-03     503.358E-03
            3673            4053     642.214E-03     637.274E-03
            3673            4056     514.199E-03     518.331E-03
            3673            4057     664.438E-03     658.669E-03
            3674              91     715.107E-03     704.228E-03
            3674              92     740.787E-03     729.516E-03
            3674            4053     642.214E-03     637.274E-03
            3674            4057     664.438E-03     658.669E-03
            3675             411     205.779E-03     218.493E-03
            3675             412     200.840E-03     222.143E-03
            3675            4054     256.489E-03     269.194E-03
            3675            4058     253.685E-03     273.210E-03
            3676            4054     256.489E-03     269.194E-03
            3676            4055     373.754E-03     384.367E-03
            3676            4058     253.685E-03     273.210E-03
            3676            4059     380.675E-03     396.834E-03
            3677            4055     373.754E-03     384.367E-03
            3677            4056     514.199E-03     518.331E-03
            3677            4059     380.675E-03     396.834E-03
            3677            4060     530.615E-03     539.459E-03
            3678            4056     514.199E-03     518.331E-03
            3678            4057     664.438E-03     658.669E-03
            3678            4060     530.615E-03     539.459E-03
            3678            4061     684.813E-03     680.539E-03
            3679              92     740.787E-03     729.516E-03
            3679              93     763.216E-03     751.553E-03
            3679            4057     664.438E-03     658.669E-03
            3679            4061     684.813E-03     680.539E-03
            3680             412     200.840E-03     222.143E-03
            3680             413     183.452E-03     207.392E-03
            3680            4058     253.685E-03     273.210E-03
            3680            4062     239.964E-03     258.781E-03
            3681            4058     253.685E-03     273.210E-03
            3681            4059     380.675E-03     396.834E-03
            3681            4062     239.964E-03     258.781E-03
            3681            4063     374.468E-03     386.993E-03
            3682            4059     380.675E-03     396.834E-03
            3682            4060     530.615E-03     539.459E-03
            3682            4063     374.468E-03     386.993E-03
            3682            4064     542.295E-03     553.028E-03
            3683            4060     530.615E-03     539.459E-03
            3683            4061     684.813E-03     680.539E-03
            3683            4064     542.295E-03     553.028E-03
            3683            4065     714.780E-03     716.253E-03
            3684              93     763.216E-03     751.553E-03
            3684              94     797.432E-03     790.266E-03
            3684            4061     684.813E-03     680.539E-03
            3684            4065     714.780E-03     716.253E-03
            3685             413     183.452E-03     207.392E-03
            3685             414     147.618E-03     161.269E-03
            3685            4062     239.964E-03     258.781E-03
            3685            4066     211.538E-03     216.624E-03
            3686            4062     239.964E-03     258.781E-03
            3686            4063     374.468E-03     386.993E-03
            3686            4066     211.538E-03     216.624E-03
            3686            4067     352.701E-03     342.739E-03
            3687            4063     374.468E-03     386.993E-03
            3687            4064     542.295E-03     553.028E-03
            3687            4067     352.701E-03     342.739E-03
            3687            4068     527.653E-03     510.062E-03
            3688            4064     542.295E-03     553.028E-03
            3688            4065     714.780E-03     716.253E-03
            3688            4068     527.653E-03     510.062E-03
            3688            4069     737.198E-03     711.424E-03
            3689              94     797.432E-03     790.266E-03
            3689              95     849.033E-03     816.223E-03
            3689            4065     714.780E-03     716.253E-03
            3689            4069     737.198E-03     711.424E-03
            3690             414     147.618E-03     161.269E-03
            3690             415     194.065E-03     191.873E-03
            3690            4066     211.538E-03     216.624E-03
            3690            4070     244.898E-03     234.392E-03
            3691            4066     211.538E-03     216.624E-03
            3691            4067     352.701E-03     342.739E-03
            3691            4070     244.898E-03     234.392E-03
            3691            4071     365.402E-03     337.748E-03
            3692            4067     352.701E-03     342.739E-03
            3692            4068     527.653E-03     510.062E-03
            3692            4071     365.402E-03     337.748E-03
            3692            4072     511.541E-03     465.087E-03
            3693            4068     527.653E-03     510.062E-03
            3693            4069     737.198E-03     711.424E-03
            3693            4072     511.541E-03     465.087E-03
            3693            4073     695.843E-03     636.941E-03
            3694              95     849.033E-03     816.223E-03
            3694              96     803.677E-03     742.293E-03
            3694            4069     737.198E-03     711.424E-03
            3694            4073     695.843E-03     636.941E-03
            3695             415     194.065E-03     191.873E-03
            3695             416     242.402E-03     231.772E-03
            3695            4070     244.898E-03     234.392E-03
            3695            4074     287.476E-03     274.774E-03
            3696            4070     244.898E-03     234.392E-03
            3696            4071     365.402E-03     337.748E-03
            3696            4074     287.476E-03     274.774E-03
            3696            4075     396.948E-03     378.833E-03
            3697            4071     365.402E-03     337.748E-03
            3697            4072     511.541E-03     465.087E-03
            3697            4075     396.948E-03     378.833E-03
            3697            4076     534.462E-03     513.425E-03
            3698            4072     511.541E-03     465.087E-03
            3698            4073     695.843E-03     636.941E-03
            3698            4076     534.462E-03     513.425E-03
            3698            4077     685.026E-03     662.968E-03
            3699              96     803.677E-03     742.293E-03
            3699              97     762.474E-03     738.978E-03
            3699            4073     695.843E-03     636.941E-03
            3699            4077     685.026E-03     662.968E-03
            3700             416     242.402E-03     231.772E-03
            3700             417     214.485E-03     206.585E-03
            3700            4074     287.476E-03     274.774E-03
            3700            4078     274.675E-03     271.392E-03
            3701            4074     287.476E-03     274.774E-03
            3701            4075     396.948E-03     378.833E-03
            3701            4078     274.675E-03     271.392E-03
            3701            4079     410.317E-03     416.289E-03
            3702            4075     396.948E-03     378.833E-03
            3702            4076     534.462E-03     513.425E-03
            3702            4079     410.317E-03     416.289E-03
            3702            4080     568.186E-03     585.404E-03
            3703            4076     534.462E-03     513.425E-03
            3703            4077     685.026E-03     662.968E-03
            3703            4080     568.186E-03     585.404E-03
            3703            4081     728.949E-03     742.589E-03
            3704              97     762.474E-03     738.978E-03
            3704              98     807.293E-03     810.751E-03
            3704            4077     685.026E-03     662.968E-03
            3704            4081     728.949E-03     742.589E-03
            3705             417     214.485E-03     206.585E-03
            3705             418     201.043E-03     203.681E-03
            3705            4078     274.675E-03     271.392E-03
            3705            4082     266.796E-03     275.804E-03
            3706            4078     274.675E-03     271.392E-03
            3706            4079     410.317E-03     416.289E-03
            3706            4082     266.796E-03     275.804E-03
            3706            4083     419.654E-03     443.447E-03
            3707            4079     410.317E-03     416.289E-03
            3707            4080     568.186E-03     585.404E-03
            3707            4083     419.654E-03     443.447E-03
            3707            4084     588.034E-03     616.211E-03
            3708            4080     568.186E-03     585.404E-03
            3708            4081     728.949E-03     742.589E-03
            3708            4084     588.034E-03     616.211E-03
            3708            4085     752.244E-03     761.625E-03
            3709              98     807.293E-03     810.751E-03
            3709              99     835.178E-03     829.793E-03
            3709            4081     728.949E-03     742.589E-03
            3709            4085     752.244E-03     761.625E-03
            3710             418     201.043E-03     203.681E-03
            3710             419     181.192E-03     191.893E-03
            3710            4082     266.796E-03     275.804E-03
            3710            4086     251.463E-03     264.805E-03
            3711            4082     266.796E-03     275.804E-03
            3711            4083     419.654E-03     443.447E-03
            3711            4086     251.463E-03     264.805E-03
            3711            4087     409.950E-03     430.229E-03
            3712            4083     419.654E-03     443.447E-03
            3712            4084     588.034E-03     616.211E-03
            3712            4087     409.950E-03     430.229E-03
            3712            4088     596.847E-03     621.304E-03
            3713            4084     588.034E-03     616.211E-03
            3713            4085     752.244E-03     761.625E-03
            3713            4088     596.847E-03     621.304E-03
            3713            4089     786.748E-03     797.679E-03
            3714              99     835.178E-03     829.793E-03
            3714             100     877.967E-03     875.492E-03
            3714            4085     752.244E-03     761.625E-03
            3714            4089     786.748E-03     797.679E-03
            3715             419     181.192E-03     191.893E-03
            3715             420     143.337E-03     150.582E-03
            3715            4086     251.463E-03     264.805E-03
            3715            4090     219.545E-03     222.911E-03
            3716            4086     251.463E-03     264.805E-03
            3716            4087     409.950E-03     430.229E-03
            3716            4090     219.545E-03     222.911E-03
            3716            4091     382.731E-03     377.914E-03
            3717            4087     409.950E-03     430.229E-03
            3717            4088     596.847E-03     621.304E-03
            3717            4091     382.731E-03     377.914E-03
            3717            4092     577.198E-03     567.216E-03
            3718            4088     596.847E-03     621.304E-03
            3718            4089     786.748E-03     797.679E-03
            3718            4092     577.198E-03     567.216E-03
            3718            4093     807.952E-03     786.476E-03
            3719             100     877.967E-03     875.492E-03
            3719             101     931.216E-03     899.108E-03
            3719            4089     786.748E-03     797.679E-03
            3719            4093     807.952E-03     786.476E-03
            3720              15     200.361E-03     199.547E-03
            3720             420     143.337E-03     150.582E-03
            3720             429     258.979E-03     251.377E-03
            3720            4090     219.545E-03     222.911E-03
            3721             429     258.979E-03     251.377E-03
            3721             430     398.317E-03     376.051E-03
            3721            4090     219.545E-03     222.911E-03
            3721            4091     382.731E-03     377.914E-03
            3722             430     398.317E-03     376.051E-03
            3722             431     565.298E-03     523.421E-03
            3722            4091     382.731E-03     377.914E-03
            3722            4092     577.198E-03     567.216E-03
            3723             431     565.298E-03     523.421E-03
            3723             432     773.712E-03     715.622E-03
            3723            4092     577.198E-03     567.216E-03
            3723            4093     807.952E-03     786.476E-03
            3724               3     895.864E-03     833.298E-03
            3724             101     931.216E-03     899.108E-03
            3724             432     773.712E-03     715.622E-03
            3724            4093     807.952E-03     786.476E-03
            3725              20     999.264E-03     963.774E-03
            3725             560         1.06390         1.02718
            3725             577     863.300E-03     833.440E-03
            3725            4094     924.741E-03     902.026E-03
            3726             577     863.300E-03     833.440E-03
            3726             578     622.277E-03     603.199E-03
            3726            4094     924.741E-03     902.026E-03
            3726            4095     667.176E-03     659.972E-03
            3727             578     622.277E-03     603.199E-03
            3727             579     422.248E-03     413.022E-03
            3727            4095     667.176E-03     659.972E-03
            3727            4096     461.105E-03     460.084E-03
            3728             579     422.248E-03     413.022E-03
            3728             580     248.655E-03     247.507E-03
            3728            4096     461.105E-03     460.084E-03
            3728            4097     306.740E-03     313.349E-03
            3729              17     170.031E-03     172.262E-03
            3729             580     248.655E-03     247.507E-03
            3729             581     240.036E-03     249.599E-03
            3729            4097     306.740E-03     313.349E-03
            3730             560         1.06390         1.02718
            3730             561     978.338E-03     974.442E-03
            3730            4094     924.741E-03     902.026E-03
            3730            4098     883.070E-03     894.010E-03
            3731            4094     924.741E-03     902.026E-03
            3731            4095     667.176E-03     659.972E-03
            3731            4098     883.070E-03     894.010E-03
            3731            4099     684.849E-03     711.989E-03
            3732            4095     667.176E-03     659.972E-03
            3732            4096     461.105E-03     460.084E-03
            3732            4099     684.849E-03     711.989E-03
            3732            4100     494.620E-03     517.956E-03
            3733            4096     461.105E-03     460.084E-03
            3733            4097     306.740E-03     313.349E-03
            3733            4100     494.620E-03     517.956E-03
            3733            4101     347.642E-03     362.556E-03
            3734             581     240.036E-03     249.599E-03
            3734             582     287.940E-03     299.602E-03
            3734            4097     306.740E-03     313.349E-03
            3734            4101     347.642E-03     362.556E-03
            3735             561     978.338E-03     974.442E-03
            3735             562     911.851E-03     906.570E-03
            3735            4098     883.070E-03     894.010E-03
            3735            4102     829.246E-03     839.399E-03
            3736            4098     883.070E-03     894.010E-03
            3736            4099     684.849E-03     711.989E-03
            3736            4102     829.246E-03     839.399E-03
            3736            4103     667.623E-03     696.525E-03
            3737            4099     684.849E-03     711.989E-03
            3737            4100     494.620E-03     517.956E-03
            3737            4103     667.623E-03     696.525E-03
            3737            4104     505.693E-03     528.877E-03
            3738            4100     494.620E-03     517.956E-03
            3738            4101     347.642E-03     362.556E-03
            3738            4104     505.693E-03     528.877E-03
            3738            4105     367.327E-03     375.417E-03
            3739             582     287.940E-03     299.602E-03
            3739             583     311.874E-03     313.904E-03
            3739            4101     347.642E-03     362.556E-03
            3739            4105     367.327E-03     375.417E-03
            3740             562     911.851E-03     906.570E-03
            3740             563     862.008E-03     867.936E-03
            3740            4102     829.246E-03     839.399E-03
            3740            4106     788.963E-03     804.182E-03
            3741            4102     829.246E-03     839.399E-03
            3741            4103     667.623E-03     696.525E-03
            3741            4106     788.963E-03     804.182E-03
            3741            4107     639.620E-03     655.207E-03
            3742            4103     667.623E-03     696.525E-03
            3742            4104     505.693E-03     528.877E-03
            3742            4107     639.620E-03     655.207E-03
            3742            4108     494.930E-03     497.138E-03
            3743            4104     505.693E-03     528.877E-03
            3743            4105     367.327E-03     375.417E-03
            3743            4108     494.930E-03     497.138E-03
            3743            4109     376.798E-03     371.027E-03
            3744             583     311.874E-03     313.904E-03
            3744             584     327.058E-03     317.764E-03
            3744            4105     367.327E-03     375.417E-03
            3744            4109     376.798E-03     371.027E-03
            3745             563     862.008E-03     867.936E-03
            3745             564     786.458E-03     764.228E-03
            3745            4106     788.963E-03     804.182E-03
            3745            4110     724.619E-03     701.399E-03
            3746            4106     788.963E-03     804.182E-03
            3746            4107     639.620E-03     655.207E-03
            3746            4110     724.619E-03     701.399E-03
            3746            4111     599.794E-03     575.379E-03
            3747            4107     639.620E-03     655.207E-03
            3747            4108     494.930E-03     497.138E-03
            3747            4111     599.794E-03     575.379E-03
            3747            4112     481.494E-03     460.729E-03
            3748            4108     494.930E-03     497.138E-03
            3748            4109     376.798E-03     371.027E-03
            3748            4112     481.494E-03     460.729E-03
            3748            4113     391.408E-03     377.248E-03
            3749             584     327.058E-03     317.764E-03
            3749             585     356.636E-03     345.226E-03
            3749            4109     376.798E-03     371.027E-03
            3749            4113     391.408E-03     377.248E-03
            3750              23     824.466E-03     771.996E-03
            3750             564     786.458E-03     764.228E-03
            3750             589     726.100E-03     678.355E-03
            3750            4110     724.619E-03     701.399E-03
            3751             588     559.645E-03     527.686E-03
            3751             589     726.100E-03     678.355E-03
            3751            4110     724.619E-03     701.399E-03
            3751            4111     599.794E-03     575.379E-03
            3752             587     431.489E-03     415.967E-03
            3752             588     559.645E-03     527.686E-03
            3752            4111     599.794E-03     575.379E-03
            3752            4112     481.494E-03     460.729E-03
            3753             586     331.953E-03     324.520E-03
            3753             587     431.489E-03     415.967E-03
            3753            4112     481.494E-03     460.729E-03
            3753            4113     391.408E-03     377.248E-03
            3754              25     292.485E-03     287.763E-03
            3754             585     356.636E-03     345.226E-03
            3754             586     331.953E-03     324.520E-03
            3754            4113     391.408E-03     377.248E-03
            4035              11     895.864E-03     833.298E-03
            4035             424     773.712E-03     715.622E-03
            4035             527     865.025E-03     842.710E-03
            4035            4345     773.967E-03     755.009E-03
            4036             423     565.298E-03     523.421E-03
            4036             424     773.712E-03     715.622E-03
            4036            4345     773.967E-03     755.009E-03
            4036            4346     598.199E-03     583.055E-03
            4037             422     398.317E-03     376.051E-03
            4037             423     565.298E-03     523.421E-03
            4037            4346     598.199E-03     583.055E-03
            4037            4347     438.972E-03     428.185E-03
            4038             421     258.979E-03     251.377E-03
            4038             422     398.317E-03     376.051E-03
            4038            4347     438.972E-03     428.185E-03
            4038            4348     308.369E-03     302.722E-03
            4039              15     200.361E-03     199.547E-03
            4039             421     258.979E-03     251.377E-03
            4039             446     252.282E-03     247.879E-03
            4039            4348     308.369E-03     302.722E-03
            4040             526     905.127E-03     910.930E-03
            4040             527     865.025E-03     842.710E-03
            4040            4345     773.967E-03     755.009E-03
            4040            4349     818.253E-03     837.510E-03
            4041            4345     773.967E-03     755.009E-03
            4041            4346     598.199E-03     583.055E-03
            4041            4349     818.253E-03     837.510E-03
            4041            4350     638.404E-03     665.067E-03
            4042            4346     598.199E-03     583.055E-03
            4042            4347     438.972E-03     428.185E-03
            4042            4350     638.404E-03     665.067E-03
            4042            4351     452.297E-03     465.518E-03
            4043            4347     438.972E-03     428.185E-03
            4043            4348     308.369E-03     302.722E-03
            4043            4351     452.297E-03     465.518E-03
            4043            4352     287.077E-03     289.420E-03
            4044             445     214.989E-03     213.848E-03
            4044             446     252.282E-03     247.879E-03
            4044            4348     308.369E-03     302.722E-03
            4044            4352     287.077E-03     289.420E-03
            4045             525     947.492E-03     948.651E-03
            4045             526     905.127E-03     910.930E-03
            4045            4349     818.253E-03     837.510E-03
            4045            4353     851.925E-03     870.866E-03
            4046            4349     818.253E-03     837.510E-03
            4046            4350     638.404E-03     665.067E-03
            4046            4353     851.925E-03     870.866E-03
            4046            4354     651.371E-03     684.705E-03
            4047            4350     638.404E-03     665.067E-03
            4047            4351     452.297E-03     465.518E-03
            4047            4354     651.371E-03     684.705E-03
            4047            4355     446.603E-03     466.925E-03
            4048            4351     452.297E-03     465.518E-03
            4048            4352     287.077E-03     289.420E-03
            4048            4355     446.603E-03     466.925E-03
            4048            4356     266.231E-03     273.600E-03
            4049             444     185.641E-03     189.679E-03
            4049             445     214.989E-03     213.848E-03
            4049            4352     287.077E-03     289.420E-03
            4049            4356     266.231E-03     273.600E-03
            4050             524         1.00642     977.250E-03
            4050             525     947.492E-03     948.651E-03
            4050            4353     851.925E-03     870.866E-03
            4050            4357     873.662E-03     856.638E-03
            4051            4353     851.925E-03     870.866E-03
            4051            4354     651.371E-03     684.705E-03
            4051            4357     873.662E-03     856.638E-03
            4051            4358     625.935E-03     622.526E-03
            4052            4354     651.371E-03     684.705E-03
            4052            4355     446.603E-03     466.925E-03
            4052            4358     625.935E-03     622.526E-03
            4052            4359     415.072E-03     415.050E-03
            4053            4355     446.603E-03     466.925E-03
            4053            4356     266.231E-03     273.600E-03
            4053            4359     415.072E-03     415.050E-03
            4053            4360     230.810E-03     233.019E-03
            4054             443     142.445E-03     144.965E-03
            4054             444     185.641E-03     189.679E-03
            4054            4356     266.231E-03     273.600E-03
            4054            4360     230.810E-03     233.019E-03
            4055             523     963.366E-03     930.885E-03
            4055             524         1.00642     977.250E-03
            4055            4357     873.662E-03     856.638E-03
            4055            4361     833.587E-03     806.242E-03
            4056            4357     873.662E-03     856.638E-03
            4056            4358     625.935E-03     622.526E-03
            4056            4361     833.587E-03     806.242E-03
            4056            4362     600.554E-03     583.542E-03
            4057            4358     625.935E-03     622.526E-03
            4057            4359     415.072E-03     415.050E-03
            4057            4362     600.554E-03     583.542E-03
            4057            4363     399.222E-03     391.379E-03
            4058            4359     415.072E-03     415.050E-03
            4058            4360     230.810E-03     233.019E-03
            4058            4363     399.222E-03     391.379E-03
            4058            4364     212.724E-03     210.733E-03
            4059             442     124.305E-03     124.193E-03
            4059             443     142.445E-03     144.965E-03
            4059            4360     230.810E-03     233.019E-03
            4059            4364     212.724E-03     210.733E-03
            4060              20     999.264E-03     963.774E-03
            4060             523     963.366E-03     930.885E-03
            4060             577     863.300E-03     833.440E-03
            4060            4361     833.587E-03     806.242E-03
            4061             577     863.300E-03     833.440E-03
            4061             578     622.277E-03     603.199E-03
            4061            4361     833.587E-03     806.242E-03
            4061            4362     600.554E-03     583.542E-03
            4062             578     622.277E-03     603.199E-03
            4062             579     422.248E-03     413.022E-03
            4062            4362     600.554E-03     583.542E-03
            4062            4363     399.222E-03     391.379E-03
            4063             579     422.248E-03     413.022E-03
            4063             580     248.655E-03     247.507E-03
            4063            4363     399.222E-03     391.379E-03
            4063            4364     212.724E-03     210.733E-03
            4064              17     170.031E-03     172.262E-03
            4064             442     124.305E-03     124.193E-03
            4064             580     248.655E-03     247.507E-03
            4064            4364     212.724E-03     210.733E-03
            4065              25     292.485E-03     287.763E-03
            4065             660     331.953E-03     324.520E-03
            4065             723     237.887E-03     237.374E-03
            4065            4365     288.164E-03     288.786E-03
            4066             660     331.953E-03     324.520E-03
            4066             661     431.489E-03     415.967E-03
            4066            4365     288.164E-03     288.786E-03
            4066            4366     407.574E-03     411.559E-03
            4067             661     431.489E-03     415.967E-03
            4067             662     559.645E-03     527.686E-03
            4067            4366     407.574E-03     411.559E-03
            4067            4367     566.983E-03     575.981E-03
            4068             662     559.645E-03     527.686E-03
            4068             663     726.100E-03     678.355E-03
            4068            4367     566.983E-03     575.981E-03
            4068            4368     762.510E-03     758.377E-03
            4069              21     824.466E-03     771.996E-03
            4069             663     726.100E-03     678.355E-03
            4069             664     867.761E-03     847.712E-03
            4069            4368     762.510E-03     758.377E-03
            4070             722     289.165E-03     289.129E-03
            4070             723     237.887E-03     237.374E-03
            4070            4365     288.164E-03     288.786E-03
            4070            4369     331.715E-03     332.087E-03
            4071            4365     288.164E-03     288.786E-03
            4071            4366     407.574E-03     411.559E-03
            4071            4369     331.715E-03     332.087E-03
            4071            4370     439.084E-03     444.803E-03
            4072            4366     407.574E-03     411.559E-03
            4072            4367     566.983E-03     575.981E-03
            4072            4370     439.084E-03     444.803E-03
            4072            4371     581.057E-03     602.747E-03
            4073            4367     566.983E-03     575.981E-03
            4073            4368     762.510E-03     758.377E-03
            4073            4371     581.057E-03     602.747E-03
            4073            4372     718.860E-03     739.943E-03
            4074             664     867.761E-03     847.712E-03
            4074             665     779.508E-03     788.951E-03
            4074            4368     762.510E-03     758.377E-03
            4074            4372     718.860E-03     739.943E-03
            4075             721     337.052E-03     337.824E-03
            4075             722     289.165E-03     289.129E-03
            4075            4369     331.715E-03     332.087E-03
            4075            4373     367.762E-03     367.264E-03
            4076            4369     331.715E-03     332.087E-03
            4076            4370     439.084E-03     444.803E-03
            4076            4373     367.762E-03     367.264E-03
            4076            4374     447.191E-03     443.781E-03
            4077            4370     439.084E-03     444.803E-03
            4077            4371     581.057E-03     602.747E-03
            4077            4374     447.191E-03     443.781E-03
            4077            4375     545.723E-03     539.234E-03
            4078            4371     581.057E-03     602.747E-03
            4078            4372     718.860E-03     739.943E-03
            4078            4375     545.723E-03     539.234E-03
            4078            4376     638.814E-03     629.763E-03
            4079             665     779.508E-03     788.951E-03
            4079             666     682.093E-03     671.915E-03
            4079            4372     718.860E-03     739.943E-03
            4079            4376     638.814E-03     629.763E-03
            4080             720     296.058E-03     299.974E-03
            4080             721     337.052E-03     337.824E-03
            4080            4373     367.762E-03     367.264E-03
            4080            4377     327.774E-03     327.798E-03
            4081            4373     367.762E-03     367.264E-03
            4081            4374     447.191E-03     443.781E-03
            4081            4377     327.774E-03     327.798E-03
            4081            4378     405.798E-03     394.169E-03
            4082            4374     447.191E-03     443.781E-03
            4082            4375     545.723E-03     539.234E-03
            4082            4378     405.798E-03     394.169E-03
            4082            4379     512.946E-03     484.783E-03
            4083            4375     545.723E-03     539.234E-03
            4083            4376     638.814E-03     629.763E-03
            4083            4379     512.946E-03     484.783E-03
            4083            4380     657.612E-03     616.906E-03
            4084             666     682.093E-03     671.915E-03
            4084             667     741.438E-03     696.962E-03
            4084            4376     638.814E-03     629.763E-03
            4084            4380     657.612E-03     616.906E-03
            4085             719     252.526E-03     266.118E-03
            4085             720     296.058E-03     299.974E-03
            4085            4377     327.774E-03     327.798E-03
            4085            4381     289.195E-03     297.928E-03
            4086            4377     327.774E-03     327.798E-03
            4086            4378     405.798E-03     394.169E-03
            4086            4381     289.195E-03     297.928E-03
            4086            4382     381.631E-03     379.761E-03
            4087            4378     405.798E-03     394.169E-03
            4087            4379     512.946E-03     484.783E-03
            4087            4382     381.631E-03     379.761E-03
            4087            4383     522.300E-03     512.639E-03
            4088            4379     512.946E-03     484.783E-03
            4088            4380     657.612E-03     616.906E-03
            4088            4383     522.300E-03     512.639E-03
            4088            4384     708.864E-03     688.259E-03
            4089             667     741.438E-03     696.962E-03
            4089             668     810.523E-03     781.024E-03
            4089            4380     657.612E-03     616.906E-03
            4089            4384     708.864E-03     688.259E-03
            4090             718     291.811E-03     312.611E-03
            4090             719     252.526E-03     266.118E-03
            4090            4381     289.195E-03     297.928E-03
            4090            4385     321.701E-03     339.794E-03
            4091            4381     289.195E-03     297.928E-03
            4091            4382     381.631E-03     379.761E-03
            4091            4385     321.701E-03     339.794E-03
            4091            4386     405.549E-03     419.402E-03
            4092            4382     381.631E-03     379.761E-03
            4092            4383     522.300E-03     512.639E-03
            4092            4386     405.549E-03     419.402E-03
            4092            4387     529.970E-03     539.315E-03
            4093            4383     522.300E-03     512.639E-03
            4093            4384     708.864E-03     688.259E-03
            4093            4387     529.970E-03     539.315E-03
            4093            4388     665.502E-03     664.553E-03
            4094             668     810.523E-03     781.024E-03
            4094             669     730.572E-03     722.302E-03
            4094            4384     708.864E-03     688.259E-03
            4094            4388     665.502E-03     664.553E-03
            4095             717     312.527E-03     330.482E-03
            4095             718     291.811E-03     312.611E-03
            4095            4385     321.701E-03     339.794E-03
            4095            4389     338.502E-03     355.650E-03
            4096            4385     321.701E-03     339.794E-03
            4096            4386     405.549E-03     419.402E-03
            4096            4389     338.502E-03     355.650E-03
            4096            4390     410.514E-03     424.379E-03
            4097            4386     405.549E-03     419.402E-03
            4097            4387     529.970E-03     539.315E-03
            4097            4390     410.514E-03     424.379E-03
            4097            4391     508.270E-03     513.906E-03
            4098            4387     529.970E-03     539.315E-03
            4098            4388     665.502E-03     664.553E-03
            4098            4391     508.270E-03     513.906E-03
            4098            4392     617.887E-03     612.562E-03
            4099             669     730.572E-03     722.302E-03
            4099             670     675.786E-03     665.252E-03
            4099            4388     665.502E-03     664.553E-03
            4099            4392     617.887E-03     612.562E-03
            4100             716     320.493E-03     330.838E-03
            4100             717     312.527E-03     330.482E-03
            4100            4389     338.502E-03     355.650E-03
            4100            4393     342.894E-03     353.060E-03
            4101            4389     338.502E-03     355.650E-03
            4101            4390     410.514E-03     424.379E-03
            4101            4393     342.894E-03     353.060E-03
            4101            4394     400.764E-03     408.726E-03
            4102            4390     410.514E-03     424.379E-03
            4102            4391     508.270E-03     513.906E-03
            4102            4394     400.764E-03     408.726E-03
            4102            4395     483.151E-03     485.622E-03
            4103            4391     508.270E-03     513.906E-03
            4103            4392     617.887E-03     612.562E-03
            4103            4395     483.151E-03     485.622E-03
            4103            4396     583.367E-03     577.912E-03
            4104             670     675.786E-03     665.252E-03
            4104             671     636.664E-03     626.750E-03
            4104            4392     617.887E-03     612.562E-03
            4104            4396     583.367E-03     577.912E-03
            4105             715     321.315E-03     321.867E-03
            4105             716     320.493E-03     330.838E-03
            4105            4393     342.894E-03     353.060E-03
            4105            4397     339.010E-03     341.058E-03
            4106            4393     342.894E-03     353.060E-03
            4106            4394     400.764E-03     408.726E-03
            4106            4397     339.010E-03     341.058E-03
            4106            4398     388.810E-03     393.015E-03
            4107            4394     400.764E-03     408.726E-03
            4107            4395     483.151E-03     485.622E-03
            4107            4398     388.810E-03     393.015E-03
            4107            4399     460.691E-03     463.699E-03
            4108            4395     483.151E-03     485.622E-03
            4108            4396     583.367E-03     577.912E-03
            4108            4399     460.691E-03     463.699E-03
            4108            4400     547.673E-03     544.054E-03
            4109             671     636.664E-03     626.750E-03
            4109             672     594.878E-03     586.491E-03
            4109            4396     583.367E-03     577.912E-03
            4109            4400     547.673E-03     544.054E-03
            4110             714     316.371E-03     307.026E-03
            4110             715     321.315E-03     321.867E-03
            4110            4397     339.010E-03     341.058E-03
            4110            4401     333.493E-03     327.961E-03
            4111            4397     339.010E-03     341.058E-03
            4111            4398     388.810E-03     393.015E-03
            4111            4401     333.493E-03     327.961E-03
            4111            4402     377.413E-03     379.264E-03
            4112            4398     388.810E-03     393.015E-03
            4112            4399     460.691E-03     463.699E-03
            4112            4402     377.413E-03     379.264E-03
            4112            4403     437.902E-03     442.503E-03
            4113            4399     460.691E-03     463.699E-03
            4113            4400     547.673E-03     544.054E-03
            4113            4403     437.902E-03     442.503E-03
            4113            4404     512.761E-03     512.179E-03
            4114             672     594.878E-03     586.491E-03
            4114             673     553.927E-03     548.984E-03
            4114            4400     547.673E-03     544.054E-03
            4114            4404     512.761E-03     512.179E-03
            4115             713     310.909E-03     293.909E-03
            4115             714     316.371E-03     307.026E-03
            4115            4401     333.493E-03     327.961E-03
            4115            4405     326.353E-03     313.086E-03
            4116            4401     333.493E-03     327.961E-03
            4116            4402     377.413E-03     379.264E-03
            4116            4405     326.353E-03     313.086E-03
            4116            4406     366.619E-03     363.799E-03
            4117            4402     377.413E-03     379.264E-03
            4117            4403     437.902E-03     442.503E-03
            4117            4406     366.619E-03     363.799E-03
            4117            4407     418.053E-03     425.305E-03
            4118            4403     437.902E-03     442.503E-03
            4118            4404     512.761E-03     512.179E-03
            4118            4407     418.053E-03     425.305E-03
            4118            4408     477.456E-03     481.663E-03
            4119             673     553.927E-03     548.984E-03
            4119             674     510.246E-03     508.049E-03
            4119            4404     512.761E-03     512.179E-03
            4119            4408     477.456E-03     481.663E-03
            4120             712     307.505E-03     286.939E-03
            4120             713     310.909E-03     293.909E-03
            4120            4405     326.353E-03     313.086E-03
            4120            4409     320.710E-03     302.343E-03
            4121            4405     326.353E-03     313.086E-03
            4121            4406     366.619E-03     363.799E-03
            4121            4409     320.710E-03     302.343E-03
            4121            4410     355.760E-03     343.614E-03
            4122            4406     366.619E-03     363.799E-03
            4122            4407     418.053E-03     425.305E-03
            4122            4410     355.760E-03     343.614E-03
            4122            4411     398.923E-03     399.799E-03
            4123            4407     418.053E-03     425.305E-03
            4123            4408     477.456E-03     481.663E-03
            4123            4411     398.923E-03     399.799E-03
            4123            4412     440.429E-03     449.513E-03
            4124             674     510.246E-03     508.049E-03
            4124             675     460.619E-03     468.906E-03
            4124            4408     477.456E-03     481.663E-03
            4124            4412     440.429E-03     449.513E-03
            4125             711     314.302E-03     298.985E-03
            4125             712     307.505E-03     286.939E-03
            4125            4409     320.710E-03     302.343E-03
            4125            4413     323.240E-03     306.576E-03
            4126            4409     320.710E-03     302.343E-03
            4126            4410     355.760E-03     343.614E-03
            4126            4413     323.240E-03     306.576E-03
            4126            4414     346.587E-03     326.532E-03
            4127            4410     355.760E-03     343.614E-03
            4127            4411     398.923E-03     399.799E-03
            4127            4414     346.587E-03     326.532E-03
            4127            4415     376.137E-03     354.543E-03
            4128            4411     398.923E-03     399.799E-03
            4128            4412     440.429E-03     449.513E-03
            4128            4415     376.137E-03     354.543E-03
            4128            4416     393.192E-03     377.413E-03
            4129             675     460.619E-03     468.906E-03
            4129             676     395.105E-03     384.637E-03
            4129            4412     440.429E-03     449.513E-03
            4129            4416     393.192E-03     377.413E-03
            4130             710     283.889E-03     280.921E-03
            4130             711     314.302E-03     298.985E-03
            4130            4413     323.240E-03     306.576E-03
            4130            4417     293.748E-03     288.078E-03
            4131            4413     323.240E-03     306.576E-03
            4131            4414     346.587E-03     326.532E-03
            4131            4417     293.748E-03     288.078E-03
            4131            4418     320.857E-03     307.961E-03
            4132            4414     346.587E-03     326.532E-03
            4132            4415     376.137E-03     354.543E-03
            4132            4418     320.857E-03     307.961E-03
            4132            4419     365.636E-03     342.488E-03
            4133            4415     376.137E-03     354.543E-03
            4133            4416     393.192E-03     377.413E-03
            4133            4419     365.636E-03     342.488E-03
            4133            4420     429.807E-03     398.690E-03
            4134             676     395.105E-03     384.637E-03
            4134             677     466.451E-03     433.092E-03
            4134            4416     393.192E-03     377.413E-03
            4134            4420     429.807E-03     398.690E-03
            4135             709     262.491E-03     269.553E-03
            4135             710     283.889E-03     280.921E-03
            4135            4417     293.748E-03     288.078E-03
            4135            4421     275.256E-03     280.853E-03
            4136            4417     293.748E-03     288.078E-03
            4136            4418     320.857E-03     307.961E-03
            4136            4421     275.256E-03     280.853E-03
            4136            4422     310.205E-03     311.977E-03
            4137            4418     320.857E-03     307.961E-03
            4137            4419     365.636E-03     342.488E-03
            4137            4422     310.205E-03     311.977E-03
            4137            4423     377.389E-03     375.463E-03
            4138            4419     365.636E-03     342.488E-03
            4138            4420     429.807E-03     398.690E-03
            4138            4423     377.389E-03     375.463E-03
            4138            4424     479.265E-03     469.411E-03
            4139             677     466.451E-03     433.092E-03
            4139             678     536.143E-03     519.696E-03
            4139            4420     429.807E-03     398.690E-03
            4139            4424     479.265E-03     469.411E-03
            4140             708     290.593E-03     301.049E-03
            4140             709     262.491E-03     269.553E-03
            4140            4421     275.256E-03     280.853E-03
            4140            4425     299.234E-03     308.746E-03
            4141            4421     275.256E-03     280.853E-03
            4141            4422     310.205E-03     311.977E-03
            4141            4425     299.234E-03     308.746E-03
            4141            4426     328.212E-03     335.996E-03
            4142            4422     310.205E-03     311.977E-03
            4142            4423     377.389E-03     375.463E-03
            4142            4426     328.212E-03     335.996E-03
            4142            4427     378.741E-03     382.989E-03
            4143            4423     377.389E-03     375.463E-03
            4143            4424     479.265E-03     469.411E-03
            4143            4427     378.741E-03     382.989E-03
            4143            4428     435.037E-03     433.185E-03
            4144             678     536.143E-03     519.696E-03
            4144             679     461.142E-03     455.941E-03
            4144            4424     479.265E-03     469.411E-03
            4144            4428     435.037E-03     433.185E-03
            4145             707     307.075E-03     316.295E-03
            4145             708     290.593E-03     301.049E-03
            4145            4425     299.234E-03     308.746E-03
            4145            4429     313.024E-03     321.713E-03
            4146            4425     299.234E-03     308.746E-03
            4146            4426     328.212E-03     335.996E-03
            4146            4429     313.024E-03     321.713E-03
            4146            4430     331.558E-03     337.792E-03
            4147            4426     328.212E-03     335.996E-03
            4147            4427     378.741E-03     382.989E-03
            4147            4430     331.558E-03     337.792E-03
            4147            4431     358.028E-03     358.932E-03
            4148            4427     378.741E-03     382.989E-03
            4148            4428     435.037E-03     433.185E-03
            4148            4431     358.028E-03     358.932E-03
            4148            4432     390.921E-03     386.914E-03
            4149             679     461.142E-03     455.941E-03
            4149             680     409.930E-03     404.415E-03
            4149            4428     435.037E-03     433.185E-03
            4149            4432     390.921E-03     386.914E-03
            4150             706     314.849E-03     320.777E-03
            4150             707     307.075E-03     316.295E-03
            4150            4429     313.024E-03     321.713E-03
            4150            4433     317.742E-03     323.031E-03
            4151            4429     313.024E-03     321.713E-03
            4151            4430     331.558E-03     337.792E-03
            4151            4433     317.742E-03     323.031E-03
            4151            4434     324.409E-03     327.365E-03
            4152            4430     331.558E-03     337.792E-03
            4152            4431     358.028E-03     358.932E-03
            4152            4434     324.409E-03     327.365E-03
            4152            4435     336.863E-03     336.621E-03
            4153            4431     358.028E-03     358.932E-03
            4153            4432     390.921E-03     386.914E-03
            4153            4435     336.863E-03     336.621E-03
            4153            4436     359.136E-03     355.438E-03
            4154             680     409.930E-03     404.415E-03
            4154             681     372.727E-03     367.080E-03
            4154            4432     390.921E-03     386.914E-03
            4154            4436     359.136E-03     355.438E-03
            4155             705     317.123E-03     319.058E-03
            4155             706     314.849E-03     320.777E-03
            4155            4433     317.742E-03     323.031E-03
            4155            4437     316.470E-03     318.218E-03
            4156            4433     317.742E-03     323.031E-03
            4156            4434     324.409E-03     327.365E-03
            4156            4437     316.470E-03     318.218E-03
            4156            4438     316.378E-03     317.788E-03
            4157            4434     324.409E-03     327.365E-03
            4157            4435     336.863E-03     336.621E-03
            4157            4438     316.378E-03     317.788E-03
            4157            4439     318.848E-03     319.021E-03
            4158            4435     336.863E-03     336.621E-03
            4158            4436     359.136E-03     355.438E-03
            4158            4439     318.848E-03     319.021E-03
            4158            4440     327.958E-03     325.436E-03
            4159             681     372.727E-03     367.080E-03
            4159             682     335.159E-03     331.027E-03
            4159            4436     359.136E-03     355.438E-03
            4159            4440     327.958E-03     325.436E-03
            4160             704     315.361E-03     313.326E-03
            4160             705     317.123E-03     319.058E-03
            4160            4437     316.470E-03     318.218E-03
            4160            4441     313.784E-03     312.531E-03
            4161            4437     316.470E-03     318.218E-03
            4161            4438     316.378E-03     317.788E-03
            4161            4441     313.784E-03     312.531E-03
            4161            4442     308.766E-03     308.970E-03
            4162            4438     316.378E-03     317.788E-03
            4162            4439     318.848E-03     319.021E-03
            4162            4442     308.766E-03     308.970E-03
            4162            4443     301.944E-03     302.825E-03
            4163            4439     318.848E-03     319.021E-03
            4163            4440     327.958E-03     325.436E-03
            4163            4443     301.944E-03     302.825E-03
            4163            4444     299.599E-03     298.586E-03
            4164             682     335.159E-03     331.027E-03
            4164             683     300.635E-03     297.726E-03
            4164            4440     327.958E-03     325.436E-03
            4164            4444     299.599E-03     298.586E-03
            4165             703     311.554E-03     305.805E-03
            4165             704     315.361E-03     313.326E-03
            4165            4441     313.784E-03     312.531E-03
            4165            4445     309.603E-03     305.065E-03
            4166            4441     313.784E-03     312.531E-03
            4166            4442     308.766E-03     308.970E-03
            4166            4445     309.603E-03     305.065E-03
            4166            4446     302.094E-03     300.816E-03
            4167            4442     308.766E-03     308.970E-03
            4167            4443     301.944E-03     302.825E-03
            4167            4446     302.094E-03     300.816E-03
            4167            4447     288.339E-03     290.082E-03
            4168            4443     301.944E-03     302.825E-03
            4168            4444     299.599E-03     298.586E-03
            4168            4447     288.339E-03     290.082E-03
            4168            4448     273.543E-03     274.859E-03
            4169             683     300.635E-03     297.726E-03
            4169             684     266.944E-03     266.861E-03
            4169            4444     299.599E-03     298.586E-03
            4169            4448     273.543E-03     274.859E-03
            4170             702     304.883E-03     295.995E-03
            4170             703     311.554E-03     305.805E-03
            4170            4445     309.603E-03     305.065E-03
            4170            4449     303.505E-03     295.726E-03
            4171            4445     309.603E-03     305.065E-03
            4171            4446     302.094E-03     300.816E-03
            4171            4449     303.505E-03     295.726E-03
            4171            4450     296.989E-03     292.976E-03
            4172            4446     302.094E-03     300.816E-03
            4172            4447     288.339E-03     290.082E-03
            4172            4450     296.989E-03     292.976E-03
            4172            4451     278.585E-03     280.576E-03
            4173            4447     288.339E-03     290.082E-03
            4173            4448     273.543E-03     274.859E-03
            4173            4451     278.585E-03     280.576E-03
            4173            4452     249.504E-03     253.993E-03
            4174             684     266.944E-03     266.861E-03
            4174             685     233.691E-03     237.330E-03
            4174            4448     273.543E-03     274.859E-03
            4174            4452     249.504E-03     253.993E-03
            4175             701     296.919E-03     286.858E-03
            4175             702     304.883E-03     295.995E-03
            4175            4449     303.505E-03     295.726E-03
            4175            4453     295.423E-03     286.005E-03
            4176            4449     303.505E-03     295.726E-03
            4176            4450     296.989E-03     292.976E-03
            4176            4453     295.423E-03     286.005E-03
            4176            4454     290.305E-03     282.927E-03
            4177            4450     296.989E-03     292.976E-03
            4177            4451     278.585E-03     280.576E-03
            4177            4454     290.305E-03     282.927E-03
            4177            4455     273.119E-03     271.460E-03
            4178            4451     278.585E-03     280.576E-03
            4178            4452     249.504E-03     253.993E-03
            4178            4455     273.119E-03     271.460E-03
            4178            4456     230.695E-03     237.447E-03
            4179             685     233.691E-03     237.330E-03
            4179             686     201.836E-03     212.677E-03
            4179            4452     249.504E-03     253.993E-03
            4179            4456     230.695E-03     237.447E-03
            4180             700     291.335E-03     284.169E-03
            4180             701     296.919E-03     286.858E-03
            4180            4453     295.423E-03     286.005E-03
            4180            4457     289.239E-03     281.900E-03
            4181            4453     295.423E-03     286.005E-03
            4181            4454     290.305E-03     282.927E-03
            4181            4457     289.239E-03     281.900E-03
            4181            4458     281.233E-03     273.510E-03
            4182            4454     290.305E-03     282.927E-03
            4182            4455     273.119E-03     271.460E-03
            4182            4458     281.233E-03     273.510E-03
            4182            4459     264.691E-03     257.770E-03
            4183            4455     273.119E-03     271.460E-03
            4183            4456     230.695E-03     237.447E-03
            4183            4459     264.691E-03     257.770E-03
            4183            4460     215.062E-03     216.543E-03
            4184             686     201.836E-03     212.677E-03
            4184             687     176.064E-03     184.936E-03
            4184            4456     230.695E-03     237.447E-03
            4184            4460     215.062E-03     216.543E-03
            4185             699     279.034E-03     276.856E-03
            4185             700     291.335E-03     284.169E-03
            4185            4457     289.239E-03     281.900E-03
            4185            4461     278.854E-03     276.358E-03
            4186            4457     289.239E-03     281.900E-03
            4186            4458     281.233E-03     273.510E-03
            4186            4461     278.854E-03     276.358E-03
            4186            4462     272.024E-03     268.856E-03
            4187            4458     281.233E-03     273.510E-03
            4187            4459     264.691E-03     257.770E-03
            4187            4462     272.024E-03     268.856E-03
            4187            4463     261.480E-03     257.892E-03
            4188            4459     264.691E-03     257.770E-03
            4188            4460     215.062E-03     216.543E-03
            4188            4463     261.480E-03     257.892E-03
            4188            4464     237.022E-03     234.192E-03
            4189             687     176.064E-03     184.936E-03
            4189             688     216.458E-03     214.452E-03
            4189            4460     215.062E-03     216.543E-03
            4189            4464     237.022E-03     234.192E-03
            4190             698     271.713E-03     271.724E-03
            4190             699     279.034E-03     276.856E-03
            4190            4461     278.854E-03     276.358E-03
            4190            4465     272.977E-03     273.130E-03
            4191            4461     278.854E-03     276.358E-03
            4191            4462     272.024E-03     268.856E-03
            4191            4465     272.977E-03     273.130E-03
            4191            4466     273.501E-03     274.030E-03
            4192            4462     272.024E-03     268.856E-03
            4192            4463     261.480E-03     257.892E-03
            4192            4466     273.501E-03     274.030E-03
            4192            4467     271.582E-03     272.892E-03
            4193            4463     261.480E-03     257.892E-03
            4193            4464     237.022E-03     234.192E-03
            4193            4467     271.582E-03     272.892E-03
            4193            4468     253.516E-03     253.270E-03
            4194             688     216.458E-03     214.452E-03
            4194             689     236.627E-03     234.282E-03
            4194            4464     237.022E-03     234.192E-03
            4194            4468     253.516E-03     253.270E-03
            4195             697     276.695E-03     276.764E-03
            4195             698     271.713E-03     271.724E-03
            4195            4465     272.977E-03     273.130E-03
            4195            4469     277.105E-03     277.199E-03
            4196            4465     272.977E-03     273.130E-03
            4196            4466     273.501E-03     274.030E-03
            4196            4469     277.105E-03     277.199E-03
            4196            4470     280.488E-03     280.894E-03
            4197            4466     273.501E-03     274.030E-03
            4197            4467     271.582E-03     272.892E-03
            4197            4470     280.488E-03     280.894E-03
            4197            4471     276.739E-03     276.505E-03
            4198            4467     271.582E-03     272.892E-03
            4198            4468     253.516E-03     253.270E-03
            4198            4471     276.739E-03     276.505E-03
            4198            4472     231.060E-03     231.563E-03
            4199             689     236.627E-03     234.282E-03
            4199             690     192.104E-03     194.270E-03
            4199            4468     253.516E-03     253.270E-03
            4199            4472     231.060E-03     231.563E-03
            4200             696     279.369E-03     279.483E-03
            4200             697     276.695E-03     276.764E-03
            4200            4469     277.105E-03     277.199E-03
            4200            4473     279.732E-03     279.757E-03
            4201            4469     277.105E-03     277.199E-03
            4201            4470     280.488E-03     280.894E-03
            4201            4473     279.732E-03     279.757E-03
            4201            4474     277.690E-03     277.302E-03
            4202            4470     280.488E-03     280.894E-03
            4202            4471     276.739E-03     276.505E-03
            4202            4474     277.690E-03     277.302E-03
            4202            4475     267.478E-03     266.364E-03
            4203            4471     276.739E-03     276.505E-03
            4203            4472     231.060E-03     231.563E-03
            4203            4475     267.478E-03     266.364E-03
            4203            4476     224.182E-03     224.301E-03
            4204             690     192.104E-03     194.270E-03
            4204             691     188.692E-03     190.446E-03
            4204            4472     231.060E-03     231.563E-03
            4204            4476     224.182E-03     224.301E-03
            4205              29     140.179E-03     140.234E-03
            4205             695     140.511E-03     140.525E-03
            4205             696     279.369E-03     279.483E-03
            4205            4473     279.732E-03     279.757E-03
            4206             694     136.891E-03     136.503E-03
            4206             695     140.511E-03     140.525E-03
            4206            4473     279.732E-03     279.757E-03
            4206            4474     277.690E-03     277.302E-03
            4207             693     129.926E-03     129.625E-03
            4207             694     136.891E-03     136.503E-03
            4207            4474     277.690E-03     277.302E-03
            4207            4475     267.478E-03     266.364E-03
            4208             692     113.147E-03     113.092E-03
            4208             693     129.926E-03     129.625E-03
            4208            4475     267.478E-03     266.364E-03
            4208            4476     224.182E-03     224.301E-03
            4209              28     99.3789E-03     99.1240E-03
            4209             691     188.692E-03     190.446E-03
            4209             692     113.147E-03     113.092E-03
            4209            4476     224.182E-03     224.301E-03
            5042              26     99.3789E-03     99.1240E-03
            5042             839     113.147E-03     113.092E-03
            5042             858     5.51303E-15     6.73173E-15
            5042            5187     6.45324E-15     6.65390E-15
            5043             839     113.147E-03     113.092E-03
            5043             840     129.926E-03     129.625E-03
            5043            5187     6.45324E-15     6.65390E-15
            5043            5188     6.62992E-15     6.36845E-15
            5044             840     129.926E-03     129.625E-03
            5044             841     136.891E-03     136.503E-03
            5044            5188     6.62992E-15     6.36845E-15
            5044            5189     8.11878E-15     8.54322E-15
            5045             841     136.891E-03     136.503E-03
            5045             842     140.511E-03     140.525E-03
            5045            5189     8.11878E-15     8.54322E-15
            5045            5190     5.58994E-15     5.86013E-15
            5046              29     140.179E-03     140.234E-03
            5046             842     140.511E-03     140.525E-03
            5046             843     730.001E-18     862.907E-18
            5046            5190     5.58994E-15     5.86013E-15
            5047             857     6.33204E-15     7.43217E-15
            5047             858     5.51303E-15     6.73173E-15
            5047            5187     6.45324E-15     6.65390E-15
            5047            5191     7.23862E-15     7.76409E-15
            5048            5187     6.45324E-15     6.65390E-15
            5048            5188     6.62992E-15     6.36845E-15
            5048            5191     7.23862E-15     7.76409E-15
            5048            5192     7.91006E-15     8.21067E-15
            5049            5188     6.62992E-15     6.36845E-15
            5049            5189     8.11878E-15     8.54322E-15
            5049            5192     7.91006E-15     8.21067E-15
            5049            5193     11.8140E-15     12.1116E-15
            5050            5189     8.11878E-15     8.54322E-15
            5050            5190     5.58994E-15     5.86013E-15
            5050            5193     11.8140E-15     12.1116E-15
            5050            5194     10.3551E-15     10.3506E-15
            5051             843     730.001E-18     862.907E-18
            5051             844     4.57099E-15     4.77690E-15
            5051            5190     5.58994E-15     5.86013E-15
            5051            5194     10.3551E-15     10.3506E-15
            5052             856     7.50537E-15     6.90964E-15
            5052             857     6.33204E-15     7.43217E-15
            5052            5191     7.23862E-15     7.76409E-15
            5052            5195     10.6749E-15     10.2055E-15
            5053            5191     7.23862E-15     7.76409E-15
            5053            5192     7.91006E-15     8.21067E-15
            5053            5195     10.6749E-15     10.2055E-15
            5053            5196     10.7420E-15     10.9339E-15
            5054            5192     7.91006E-15     8.21067E-15
            5054            5193     11.8140E-15     12.1116E-15
            5054            5196     10.7420E-15     10.9339E-15
            5054            5197     10.5150E-15     10.8185E-15
            5055            5193     11.8140E-15     12.1116E-15
            5055            5194     10.3551E-15     10.3506E-15
            5055            5197     10.5150E-15     10.8185E-15
            5055            5198     10.8188E-15     10.8787E-15
            5056             844     4.57099E-15     4.77690E-15
            5056             845     8.01775E-15     8.43466E-15
            5056            5194     10.3551E-15     10.3506E-15
            5056            5198     10.8188E-15     10.8787E-15
            5057             855     5.02987E-15     5.04436E-15
            5057             856     7.50537E-15     6.90964E-15
            5057            5195     10.6749E-15     10.2055E-15
            5057            5199     11.1020E-15     10.7646E-15
            5058            5195     10.6749E-15     10.2055E-15
            5058            5196     10.7420E-15     10.9339E-15
            5058            5199     11.1020E-15     10.7646E-15
            5058            5200     12.4772E-15     12.3557E-15
            5059            5196     10.7420E-15     10.9339E-15
            5059            5197     10.5150E-15     10.8185E-15
            5059            5200     12.4772E-15     12.3557E-15
            5059            5201     9.35556E-15     9.48482E-15
            5060            5197     10.5150E-15     10.8185E-15
            5060            5198     10.8188E-15     10.8787E-15
            5060            5201     9.35556E-15     9.48482E-15
            5060            5202     9.85604E-15     9.82665E-15
            5061             845     8.01775E-15     8.43466E-15
            5061             846     6.52840E-15     6.70281E-15
            5061            5198     10.8188E-15     10.8787E-15
            5061            5202     9.85604E-15     9.82665E-15
            5062             854     3.80466E-15     2.97653E-15
            5062             855     5.02987E-15     5.04436E-15
            5062            5199     11.1020E-15     10.7646E-15
            5062            5203     8.68496E-15     8.02940E-15
            5063            5199     11.1020E-15     10.7646E-15
            5063            5200     12.4772E-15     12.3557E-15
            5063            5203     8.68496E-15     8.02940E-15
            5063            5204     10.6477E-15     10.6765E-15
            5064            5200     12.4772E-15     12.3557E-15
            5064            5201     9.35556E-15     9.48482E-15
            5064            5204     10.6477E-15     10.6765E-15
            5064            5205     7.81802E-15     8.42974E-15
            5065            5201     9.35556E-15     9.48482E-15
            5065            5202     9.85604E-15     9.82665E-15
            5065            5205     7.81802E-15     8.42974E-15
            5065            5206     9.17205E-15     9.29368E-15
            5066             846     6.52840E-15     6.70281E-15
            5066             847     8.10780E-15     7.91263E-15
            5066            5202     9.85604E-15     9.82665E-15
            5066            5206     9.17205E-15     9.29368E-15
            5067             853     19.3446E-15     17.8922E-15
            5067             854     3.80466E-15     2.97653E-15
            5067            5203     8.68496E-15     8.02940E-15
            5067            5207     17.8555E-15     16.7275E-15
            5068            5203     8.68496E-15     8.02940E-15
            5068            5204     10.6477E-15     10.6765E-15
            5068            5207     17.8555E-15     16.7275E-15
            5068            5208     14.7885E-15     14.4502E-15
            5069            5204     10.6477E-15     10.6765E-15
            5069            5205     7.81802E-15     8.42974E-15
            5069            5208     14.7885E-15     14.4502E-15
            5069            5209     12.9869E-15     13.6096E-15
            5070            5205     7.81802E-15     8.42974E-15
            5070            5206     9.17205E-15     9.29368E-15
            5070            5209     12.9869E-15     13.6096E-15
            5070            5210     14.6038E-15     14.6824E-15
            5071             847     8.10780E-15     7.91263E-15
            5071             848     16.1695E-15     15.7803E-15
            5071            5206     9.17205E-15     9.29368E-15
            5071            5210     14.6038E-15     14.6824E-15
            5072              34     32.4123E-15     31.1638E-15
            5072             852     26.6874E-15     26.2714E-15
            5072             853     19.3446E-15     17.8922E-15
            5072            5207     17.8555E-15     16.7275E-15
            5073             851     21.3612E-15     20.9756E-15
            5073             852     26.6874E-15     26.2714E-15
            5073            5207     17.8555E-15     16.7275E-15
            5073            5208     14.7885E-15     14.4502E-15
            5074             850     21.2957E-15     21.0150E-15
            5074             851     21.3612E-15     20.9756E-15
            5074            5208     14.7885E-15     14.4502E-15
            5074            5209     12.9869E-15     13.6096E-15
            5075             849     21.2760E-15     21.0626E-15
            5075             850     21.2957E-15     21.0150E-15
            5075            5209     12.9869E-15     13.6096E-15
            5075            5210     14.6038E-15     14.6824E-15
            5076              33     21.4719E-15     20.8858E-15
            5076             848     16.1695E-15     15.7803E-15
            5076             849     21.2760E-15     21.0626E-15
            5076            5210     14.6038E-15     14.6824E-15
            5309              29     140.179E-03     140.234E-03
            5309             695     140.511E-03     140.525E-03
            5309             843     730.001E-18     862.907E-18
            5309            5407     1.78083E-15     1.92507E-15
            5310             694     136.891E-03     136.503E-03
            5310             695     140.511E-03     140.525E-03
            5310            5407     1.78083E-15     1.92507E-15
            5310            5408     6.93181E-15     6.70393E-15
            5311             693     129.926E-03     129.625E-03
            5311             694     136.891E-03     136.503E-03
            5311            5408     6.93181E-15     6.70393E-15
            5311            5409     10.4946E-15     10.3055E-15
            5312             692     113.147E-03     113.092E-03
            5312             693     129.926E-03     129.625E-03
            5312            5409     10.4946E-15     10.3055E-15
            5312            5410     8.28653E-15     8.03222E-15
            5313              28     99.3789E-03     99.1240E-03
            5313             692     113.147E-03     113.092E-03
            5313             812     6.53712E-15     5.94237E-15
            5313            5410     8.28653E-15     8.03222E-15
            5314             843     730.001E-18     862.907E-18
            5314             844     4.57099E-15     4.77690E-15
            5314            5407     1.78083E-15     1.92507E-15
            5314            5411     5.06102E-15     5.06326E-15
            5315            5407     1.78083E-15     1.92507E-15
            5315            5408     6.93181E-15     6.70393E-15
            5315            5411     5.06102E-15     5.06326E-15
            5315            5412     5.67835E-15     5.46671E-15
            5316            5408     6.93181E-15     6.70393E-15
            5316            5409     10.4946E-15     10.3055E-15
            5316            5412     5.67835E-15     5.46671E-15
            5316            5413     10.9402E-15     10.9374E-15
            5317            5409     10.4946E-15     10.3055E-15
            5317            5410     8.28653E-15     8.03222E-15
            5317            5413     10.9402E-15     10.9374E-15
            5317            5414     13.1733E-15     13.5386E-15
            5318             812     6.53712E-15     5.94237E-15
            5318             813     10.0855E-15     10.7599E-15
            5318            5410     8.28653E-15     8.03222E-15
            5318            5414     13.1733E-15     13.5386E-15
            5319             844     4.57099E-15     4.77690E-15
            5319             845     8.01775E-15     8.43466E-15
            5319            5411     5.06102E-15     5.06326E-15
            5319            5415     10.5577E-15     10.7563E-15
            5320            5411     5.06102E-15     5.06326E-15
            5320            5412     5.67835E-15     5.46671E-15
            5320            5415     10.5577E-15     10.7563E-15
            5320            5416     10.8101E-15     10.6826E-15
            5321            5412     5.67835E-15     5.46671E-15
            5321            5413     10.9402E-15     10.9374E-15
            5321            5416     10.8101E-15     10.6826E-15
            5321            5417     12.0734E-15     12.4000E-15
            5322            5413     10.9402E-15     10.9374E-15
            5322            5414     13.1733E-15     13.5386E-15
            5322            5417     12.0734E-15     12.4000E-15
            5322            5418     11.0715E-15     13.4536E-15
            5323             813     10.0855E-15     10.7599E-15
            5323             814     6.28975E-15     10.3422E-15
            5323            5414     13.1733E-15     13.5386E-15
            5323            5418     11.0715E-15     13.4536E-15
            5324             845     8.01775E-15     8.43466E-15
            5324             846     6.52840E-15     6.70281E-15
            5324            5415     10.5577E-15     10.7563E-15
            5324            5419     8.45855E-15     8.76103E-15
            5325            5415     10.5577E-15     10.7563E-15
            5325            5416     10.8101E-15     10.6826E-15
            5325            5419     8.45855E-15     8.76103E-15
            5325            5420     11.5547E-15     12.0209E-15
            5326            5416     10.8101E-15     10.6826E-15
            5326            5417     12.0734E-15     12.4000E-15
            5326            5420     11.5547E-15     12.0209E-15
            5326            5421     12.4797E-15     12.8326E-15
            5327            5417     12.0734E-15     12.4000E-15
            5327            5418     11.0715E-15     13.4536E-15
            5327            5421     12.4797E-15     12.8326E-15
            5327            5422     9.32499E-15     10.6313E-15
            5328             814     6.28975E-15     10.3422E-15
            5328             815     4.15813E-15     6.61245E-15
            5328            5418     11.0715E-15     13.4536E-15
            5328            5422     9.32499E-15     10.6313E-15
            5329             846     6.52840E-15     6.70281E-15
            5329             847     8.10780E-15     7.91263E-15
            5329            5419     8.45855E-15     8.76103E-15
            5329            5423     7.61054E-15     7.86931E-15
            5330            5419     8.45855E-15     8.76103E-15
            5330            5420     11.5547E-15     12.0209E-15
            5330            5423     7.61054E-15     7.86931E-15
            5330            5424     7.50345E-15     8.09123E-15
            5331            5420     11.5547E-15     12.0209E-15
            5331            5421     12.4797E-15     12.8326E-15
            5331            5424     7.50345E-15     8.09123E-15
            5331            5425     8.11701E-15     8.44205E-15
            5332            5421     12.4797E-15     12.8326E-15
            5332            5422     9.32499E-15     10.6313E-15
            5332            5425     8.11701E-15     8.44205E-15
            5332            5426     8.45342E-15     7.68994E-15
            5333             815     4.15813E-15     6.61245E-15
            5333             816     6.23611E-15     4.76618E-15
            5333            5422     9.32499E-15     10.6313E-15
            5333            5426     8.45342E-15     7.68994E-15
            5334             847     8.10780E-15     7.91263E-15
            5334             848     16.1695E-15     15.7803E-15
            5334            5423     7.61054E-15     7.86931E-15
            5334            5427     13.0866E-15     13.0887E-15
            5335            5423     7.61054E-15     7.86931E-15
            5335            5424     7.50345E-15     8.09123E-15
            5335            5427     13.0866E-15     13.0887E-15
            5335            5428     10.7898E-15     10.5768E-15
            5336            5424     7.50345E-15     8.09123E-15
            5336            5425     8.11701E-15     8.44205E-15
            5336            5428     10.7898E-15     10.5768E-15
            5336            5429     9.62734E-15     9.56421E-15
            5337            5425     8.11701E-15     8.44205E-15
            5337            5426     8.45342E-15     7.68994E-15
            5337            5429     9.62734E-15     9.56421E-15
            5337            5430     13.6861E-15     13.3386E-15
            5338             816     6.23611E-15     4.76618E-15
            5338             817     19.4185E-15     18.6022E-15
            5338            5426     8.45342E-15     7.68994E-15
            5338            5430     13.6861E-15     13.3386E-15
            5339              33     21.4719E-15     20.8858E-15
            5339             848     16.1695E-15     15.7803E-15
            5339             869     16.2129E-15     15.7608E-15
            5339            5427     13.0866E-15     13.0887E-15
            5340             868     16.2421E-15     15.7070E-15
            5340             869     16.2129E-15     15.7608E-15
            5340            5427     13.0866E-15     13.0887E-15
            5340            5428     10.7898E-15     10.5768E-15
            5341             867     16.0027E-15     15.7671E-15
            5341             868     16.2421E-15     15.7070E-15
            5341            5428     10.7898E-15     10.5768E-15
            5341            5429     9.62734E-15     9.56421E-15
            5342             866     21.2992E-15     21.1155E-15
            5342             867     16.0027E-15     15.7671E-15
            5342            5429     9.62734E-15     9.56421E-15
            5342            5430     13.6861E-15     13.3386E-15
            5343              31     31.8748E-15     31.6934E-15
            5343             817     19.4185E-15     18.6022E-15
            5343             866     21.2992E-15     21.1155E-15
            5343            5430     13.6861E-15     13.3386E-15
            5344              17     170.031E-03     172.262E-03
            5344             441     248.655E-03     247.507E-03
            5344             581     240.036E-03     249.599E-03
            5344            5431     306.740E-03     313.349E-03
            5345             440     422.248E-03     413.022E-03
            5345             441     248.655E-03     247.507E-03
            5345            5431     306.740E-03     313.349E-03
            5345            5432     461.105E-03     460.084E-03
            5346             439     622.277E-03     603.199E-03
            5346             440     422.248E-03     413.022E-03
            5346            5432     461.105E-03     460.084E-03
            5346            5433     667.176E-03     659.972E-03
            5347             438     863.300E-03     833.440E-03
            5347             439     622.277E-03     603.199E-03
            5347            5433     667.176E-03     659.972E-03
            5347            5434     924.741E-03     902.026E-03
            5348              16     999.264E-03     963.774E-03
            5348             438     863.300E-03     833.440E-03
            5348             528         1.06390         1.02718
            5348            5434     924.741E-03     902.026E-03
            5349             581     240.036E-03     249.599E-03
            5349             582     287.940E-03     299.602E-03
            5349            5431     306.740E-03     313.349E-03
            5349            5435     347.642E-03     362.556E-03
            5350            5431     306.740E-03     313.349E-03
            5350            5432     461.105E-03     460.084E-03
            5350            5435     347.642E-03     362.556E-03
            5350            5436     494.620E-03     517.956E-03
            5351            5432     461.105E-03     460.084E-03
            5351            5433     667.176E-03     659.972E-03
            5351            5436     494.620E-03     517.956E-03
            5351            5437     684.849E-03     711.989E-03
            5352            5433     667.176E-03     659.972E-03
            5352            5434     924.741E-03     902.026E-03
            5352            5437     684.849E-03     711.989E-03
            5352            5438     883.070E-03     894.010E-03
            5353             528         1.06390         1.02718
            5353             529     978.338E-03     974.442E-03
            5353            5434     924.741E-03     902.026E-03
            5353            5438     883.070E-03     894.010E-03
            5354             582     287.940E-03     299.602E-03
            5354             583     311.874E-03     313.904E-03
            5354            5435     347.642E-03     362.556E-03
            5354            5439     367.327E-03     375.417E-03
            5355            5435     347.642E-03     362.556E-03
            5355            5436     494.620E-03     517.956E-03
            5355            5439     367.327E-03     375.417E-03
            5355            5440     505.693E-03     528.877E-03
            5356            5436     494.620E-03     517.956E-03
            5356            5437     684.849E-03     711.989E-03
            5356            5440     505.693E-03     528.877E-03
            5356            5441     667.623E-03     696.525E-03
            5357            5437     684.849E-03     711.989E-03
            5357            5438     883.070E-03     894.010E-03
            5357            5441     667.623E-03     696.525E-03
            5357            5442     829.246E-03     839.399E-03
            5358             529     978.338E-03     974.442E-03
            5358             530     911.851E-03     906.570E-03
            5358            5438     883.070E-03     894.010E-03
            5358            5442     829.246E-03     839.399E-03
            5359             583     311.874E-03     313.904E-03
            5359             584     327.058E-03     317.764E-03
            5359            5439     367.327E-03     375.417E-03
            5359            5443     376.798E-03     371.027E-03
            5360            5439     367.327E-03     375.417E-03
            5360            5440     505.693E-03     528.877E-03
            5360            5443     376.798E-03     371.027E-03
            5360            5444     494.930E-03     497.138E-03
            5361            5440     505.693E-03     528.877E-03
            5361            5441     667.623E-03     696.525E-03
            5361            5444     494.930E-03     497.138E-03
            5361            5445     639.620E-03     655.207E-03
            5362            5441     667.623E-03     696.525E-03
            5362            5442     829.246E-03     839.399E-03
            5362            5445     639.620E-03     655.207E-03
            5362            5446     788.963E-03     804.182E-03
            5363             530     911.851E-03     906.570E-03
            5363             531     862.008E-03     867.936E-03
            5363            5442     829.246E-03     839.399E-03
            5363            5446     788.963E-03     804.182E-03
            5364             584     327.058E-03     317.764E-03
            5364             585     356.636E-03     345.226E-03
            5364            5443     376.798E-03     371.027E-03
            5364            5447     391.408E-03     377.248E-03
            5365            5443     376.798E-03     371.027E-03
            5365            5444     494.930E-03     497.138E-03
            5365            5447     391.408E-03     377.248E-03
            5365            5448     481.494E-03     460.729E-03
            5366            5444     494.930E-03     497.138E-03
            5366            5445     639.620E-03     655.207E-03
            5366            5448     481.494E-03     460.729E-03
            5366            5449     599.794E-03     575.379E-03
            5367            5445     639.620E-03     655.207E-03
            5367            5446     788.963E-03     804.182E-03
            5367            5449     599.794E-03     575.379E-03
            5367            5450     724.619E-03     701.399E-03
            5368             531     862.008E-03     867.936E-03
            5368             532     786.458E-03     764.228E-03
            5368            5446     788.963E-03     804.182E-03
            5368            5450     724.619E-03     701.399E-03
            5369              25     292.485E-03     287.763E-03
            5369             585     356.636E-03     345.226E-03
            5369             660     331.953E-03     324.520E-03
            5369            5447     391.408E-03     377.248E-03
            5370             660     331.953E-03     324.520E-03
            5370             661     431.489E-03     415.967E-03
            5370            5447     391.408E-03     377.248E-03
            5370            5448     481.494E-03     460.729E-03
            5371             661     431.489E-03     415.967E-03
            5371             662     559.645E-03     527.686E-03
            5371            5448     481.494E-03     460.729E-03
            5371            5449     599.794E-03     575.379E-03
            5372             662     559.645E-03     527.686E-03
            5372             663     726.100E-03     678.355E-03
            5372            5449     599.794E-03     575.379E-03
            5372            5450     724.619E-03     701.399E-03
            5373              21     824.466E-03     771.996E-03
            5373             532     786.458E-03     764.228E-03
            5373             663     726.100E-03     678.355E-03
            5373            5450     724.619E-03     701.399E-03
            5430              23     824.466E-03     771.996E-03
            5430             589     726.100E-03     678.355E-03
            5430             597     867.761E-03     847.712E-03
            5430            5493     762.510E-03     758.377E-03
            5431             588     559.645E-03     527.686E-03
            5431             589     726.100E-03     678.355E-03
            5431            5493     762.510E-03     758.377E-03
            5431            5494     566.983E-03     575.981E-03
            5432             587     431.489E-03     415.967E-03
            5432             588     559.645E-03     527.686E-03
            5432            5494     566.983E-03     575.981E-03
            5432            5495     407.574E-03     411.559E-03
            5433             586     331.953E-03     324.520E-03
            5433             587     431.489E-03     415.967E-03
            5433            5495     407.574E-03     411.559E-03
            5433            5496     288.164E-03     288.786E-03
            5434              25     292.485E-03     287.763E-03
            5434             586     331.953E-03     324.520E-03
            5434             723     237.887E-03     237.374E-03
            5434            5496     288.164E-03     288.786E-03
            5435             597     867.761E-03     847.712E-03
            5435             598     779.508E-03     788.951E-03
            5435            5493     762.510E-03     758.377E-03
            5435            5497     718.860E-03     739.943E-03
            5436            5493     762.510E-03     758.377E-03
            5436            5494     566.983E-03     575.981E-03
            5436            5497     718.860E-03     739.943E-03
            5436            5498     581.057E-03     602.747E-03
            5437            5494     566.983E-03     575.981E-03
            5437            5495     407.574E-03     411.559E-03
            5437            5498     581.057E-03     602.747E-03
            5437            5499     439.084E-03     444.803E-03
            5438            5495     407.574E-03     411.559E-03
            5438            5496     288.164E-03     288.786E-03
            5438            5499     439.084E-03     444.803E-03
            5438            5500     331.715E-03     332.087E-03
            5439             722     289.165E-03     289.129E-03
            5439             723     237.887E-03     237.374E-03
            5439            5496     288.164E-03     288.786E-03
            5439            5500     331.715E-03     332.087E-03
            5440             598     779.508E-03     788.951E-03
            5440             599     682.093E-03     671.915E-03
            5440            5497     718.860E-03     739.943E-03
            5440            5501     638.814E-03     629.763E-03
            5441            5497     718.860E-03     739.943E-03
            5441            5498     581.057E-03     602.747E-03
            5441            5501     638.814E-03     629.763E-03
            5441            5502     545.723E-03     539.234E-03
            5442            5498     581.057E-03     602.747E-03
            5442            5499     439.084E-03     444.803E-03
            5442            5502     545.723E-03     539.234E-03
            5442            5503     447.191E-03     443.781E-03
            5443            5499     439.084E-03     444.803E-03
            5443            5500     331.715E-03     332.087E-03
            5443            5503     447.191E-03     443.781E-03
            5443            5504     367.762E-03     367.264E-03
            5444             721     337.052E-03     337.824E-03
            5444             722     289.165E-03     289.129E-03
            5444            5500     331.715E-03     332.087E-03
            5444            5504     367.762E-03     367.264E-03
            5445             599     682.093E-03     671.915E-03
            5445             600     741.438E-03     696.962E-03
            5445            5501     638.814E-03     629.763E-03
            5445            5505     657.612E-03     616.906E-03
            5446            5501     638.814E-03     629.763E-03
            5446            5502     545.723E-03     539.234E-03
            5446            5505     657.612E-03     616.906E-03
            5446            5506     512.946E-03     484.783E-03
            5447            5502     545.723E-03     539.234E-03
            5447            5503     447.191E-03     443.781E-03
            5447            5506     512.946E-03     484.783E-03
            5447            5507     405.798E-03     394.169E-03
            5448            5503     447.191E-03     443.781E-03
            5448            5504     367.762E-03     367.264E-03
            5448            5507     405.798E-03     394.169E-03
            5448            5508     327.774E-03     327.798E-03
            5449             720     296.058E-03     299.974E-03
            5449             721     337.052E-03     337.824E-03
            5449            5504     367.762E-03     367.264E-03
            5449            5508     327.774E-03     327.798E-03
            5450             600     741.438E-03     696.962E-03
            5450             601     810.523E-03     781.024E-03
            5450            5505     657.612E-03     616.906E-03
            5450            5509     708.864E-03     688.259E-03
            5451            5505     657.612E-03     616.906E-03
            5451            5506     512.946E-03     484.783E-03
            5451            5509     708.864E-03     688.259E-03
            5451            5510     522.300E-03     512.639E-03
            5452            5506     512.946E-03     484.783E-03
            5452            5507     405.798E-03     394.169E-03
            5452            5510     522.300E-03     512.639E-03
            5452            5511     381.631E-03     379.761E-03
            5453            5507     405.798E-03     394.169E-03
            5453            5508     327.774E-03     327.798E-03
            5453            5511     381.631E-03     379.761E-03
            5453            5512     289.195E-03     297.928E-03
            5454             719     252.526E-03     266.118E-03
            5454             720     296.058E-03     299.974E-03
            5454            5508     327.774E-03     327.798E-03
            5454            5512     289.195E-03     297.928E-03
            5455             601     810.523E-03     781.024E-03
            5455             602     730.572E-03     722.302E-03
            5455            5509     708.864E-03     688.259E-03
            5455            5513     665.502E-03     664.553E-03
            5456            5509     708.864E-03     688.259E-03
            5456            5510     522.300E-03     512.639E-03
            5456            5513     665.502E-03     664.553E-03
            5456            5514     529.970E-03     539.315E-03
            5457            5510     522.300E-03     512.639E-03
            5457            5511     381.631E-03     379.761E-03
            5457            5514     529.970E-03     539.315E-03
            5457            5515     405.549E-03     419.402E-03
            5458            5511     381.631E-03     379.761E-03
            5458            5512     289.195E-03     297.928E-03
            5458            5515     405.549E-03     419.402E-03
            5458            5516     321.701E-03     339.794E-03
            5459             718     291.811E-03     312.611E-03
            5459             719     252.526E-03     266.118E-03
            5459            5512     289.195E-03     297.928E-03
            5459            5516     321.701E-03     339.794E-03
            5460             602     730.572E-03     722.302E-03
            5460             603     675.786E-03     665.252E-03
            5460            5513     665.502E-03     664.553E-03
            5460            5517     617.887E-03     612.562E-03
            5461            5513     665.502E-03     664.553E-03
            5461            5514     529.970E-03     539.315E-03
            5461            5517     617.887E-03     612.562E-03
            5461            5518     508.270E-03     513.906E-03
            5462            5514     529.970E-03     539.315E-03
            5462            5515     405.549E-03     419.402E-03
            5462            5518     508.270E-03     513.906E-03
            5462            5519     410.514E-03     424.379E-03
            5463            5515     405.549E-03     419.402E-03
            5463            5516     321.701E-03     339.794E-03
            5463            5519     410.514E-03     424.379E-03
            5463            5520     338.502E-03     355.650E-03
            5464             717     312.527E-03     330.482E-03
            5464             718     291.811E-03     312.611E-03
            5464            5516     321.701E-03     339.794E-03
            5464            5520     338.502E-03     355.650E-03
            5465             603     675.786E-03     665.252E-03
            5465             604     636.664E-03     626.750E-03
            5465            5517     617.887E-03     612.562E-03
            5465            5521     583.367E-03     577.912E-03
            5466            5517     617.887E-03     612.562E-03
            5466            5518     508.270E-03     513.906E-03
            5466            5521     583.367E-03     577.912E-03
            5466            5522     483.151E-03     485.622E-03
            5467            5518     508.270E-03     513.906E-03
            5467            5519     410.514E-03     424.379E-03
            5467            5522     483.151E-03     485.622E-03
            5467            5523     400.764E-03     408.726E-03
            5468            5519     410.514E-03     424.379E-03
            5468            5520     338.502E-03     355.650E-03
            5468            5523     400.764E-03     408.726E-03
            5468            5524     342.894E-03     353.060E-03
            5469             716     320.493E-03     330.838E-03
            5469             717     312.527E-03     330.482E-03
            5469            5520     338.502E-03     355.650E-03
            5469            5524     342.894E-03     353.060E-03
            5470             604     636.664E-03     626.750E-03
            5470             605     594.878E-03     586.491E-03
            5470            5521     583.367E-03     577.912E-03
            5470            5525     547.673E-03     544.054E-03
            5471            5521     583.367E-03     577.912E-03
            5471            5522     483.151E-03     485.622E-03
            5471            5525     547.673E-03     544.054E-03
            5471            5526     460.691E-03     463.699E-03
            5472            5522     483.151E-03     485.622E-03
            5472            5523     400.764E-03     408.726E-03
            5472            5526     460.691E-03     463.699E-03
            5472            5527     388.810E-03     393.015E-03
            5473            5523     400.764E-03     408.726E-03
            5473            5524     342.894E-03     353.060E-03
            5473            5527     388.810E-03     393.015E-03
            5473            5528     339.010E-03     341.058E-03
            5474             715     321.315E-03     321.867E-03
            5474             716     320.493E-03     330.838E-03
            5474            5524     342.894E-03     353.060E-03
            5474            5528     339.010E-03     341.058E-03
            5475             605     594.878E-03     586.491E-03
            5475             606     553.927E-03     548.984E-03
            5475            5525     547.673E-03     544.054E-03
            5475            5529     512.761E-03     512.179E-03
            5476            5525     547.673E-03     544.054E-03
            5476            5526     460.691E-03     463.699E-03
            5476            5529     512.761E-03     512.179E-03
            5476            5530     437.902E-03     442.503E-03
            5477            5526     460.691E-03     463.699E-03
            5477            5527     388.810E-03     393.015E-03
            5477            5530     437.902E-03     442.503E-03
            5477            5531     377.413E-03     379.264E-03
            5478            5527     388.810E-03     393.015E-03
            5478            5528     339.010E-03     341.058E-03
            5478            5531     377.413E-03     379.264E-03
            5478            5532     333.493E-03     327.961E-03
            5479             714     316.371E-03     307.026E-03
            5479             715     321.315E-03     321.867E-03
            5479            5528     339.010E-03     341.058E-03
            5479            5532     333.493E-03     327.961E-03
            5480             606     553.927E-03     548.984E-03
            5480             607     510.246E-03     508.049E-03
            5480            5529     512.761E-03     512.179E-03
            5480            5533     477.456E-03     481.663E-03
            5481            5529     512.761E-03     512.179E-03
            5481            5530     437.902E-03     442.503E-03
            5481            5533     477.456E-03     481.663E-03
            5481            5534     418.053E-03     425.305E-03
            5482            5530     437.902E-03     442.503E-03
            5482            5531     377.413E-03     379.264E-03
            5482            5534     418.053E-03     425.305E-03
            5482            5535     366.619E-03     363.799E-03
            5483            5531     377.413E-03     379.264E-03
            5483            5532     333.493E-03     327.961E-03
            5483            5535     366.619E-03     363.799E-03
            5483            5536     326.353E-03     313.086E-03
            5484             713     310.909E-03     293.909E-03
            5484             714     316.371E-03     307.026E-03
            5484            5532     333.493E-03     327.961E-03
            5484            5536     326.353E-03     313.086E-03
            5485             607     510.246E-03     508.049E-03
            5485             608     460.619E-03     468.906E-03
            5485            5533     477.456E-03     481.663E-03
            5485            5537     440.429E-03     449.513E-03
            5486            5533     477.456E-03     481.663E-03
            5486            5534     418.053E-03     425.305E-03
            5486            5537     440.429E-03     449.513E-03
            5486            5538     398.923E-03     399.799E-03
            5487            5534     418.053E-03     425.305E-03
            5487            5535     366.619E-03     363.799E-03
            5487            5538     398.923E-03     399.799E-03
            5487            5539     355.760E-03     343.614E-03
            5488            5535     366.619E-03     363.799E-03
            5488            5536     326.353E-03     313.086E-03
            5488            5539     355.760E-03     343.614E-03
            5488            5540     320.710E-03     302.343E-03
            5489             712     307.505E-03     286.939E-03
            5489             713     310.909E-03     293.909E-03
            5489            5536     326.353E-03     313.086E-03
            5489            5540     320.710E-03     302.343E-03
            5490             608     460.619E-03     468.906E-03
            5490             609     395.105E-03     384.637E-03
            5490            5537     440.429E-03     449.513E-03
            5490            5541     393.192E-03     377.413E-03
            5491            5537     440.429E-03     449.513E-03
            5491            5538     398.923E-03     399.799E-03
            5491            5541     393.192E-03     377.413E-03
            5491            5542     376.137E-03     354.543E-03
            5492            5538     398.923E-03     399.799E-03
            5492            5539     355.760E-03     343.614E-03
            5492            5542     376.137E-03     354.543E-03
            5492            5543     346.587E-03     326.532E-03
            5493            5539     355.760E-03     343.614E-03
            5493            5540     320.710E-03     302.343E-03
            5493            5543     346.587E-03     326.532E-03
            5493            5544     323.240E-03     306.576E-03
            5494             711     314.302E-03     298.985E-03
            5494             712     307.505E-03     286.939E-03
            5494            5540     320.710E-03     302.343E-03
            5494            5544     323.240E-03     306.576E-03
            5495             609     395.105E-03     384.637E-03
            5495             610     466.451E-03     433.092E-03
            5495            5541     393.192E-03     377.413E-03
            5495            5545     429.807E-03     398.690E-03
            5496            5541     393.192E-03     377.413E-03
            5496            5542     376.137E-03     354.543E-03
            5496            5545     429.807E-03     398.690E-03
            5496            5546     365.636E-03     342.488E-03
            5497            5542     376.137E-03     354.543E-03
            5497            5543     346.587E-03     326.532E-03
            5497            5546     365.636E-03     342.488E-03
            5497            5547     320.857E-03     307.961E-03
            5498            5543     346.587E-03     326.532E-03
            5498            5544     323.240E-03     306.576E-03
            5498            5547     320.857E-03     307.961E-03
            5498            5548     293.748E-03     288.078E-03
            5499             710     283.889E-03     280.921E-03
            5499             711     314.302E-03     298.985E-03
            5499            5544     323.240E-03     306.576E-03
            5499            5548     293.748E-03     288.078E-03
            5500             610     466.451E-03     433.092E-03
            5500             611     536.143E-03     519.696E-03
            5500            5545     429.807E-03     398.690E-03
            5500            5549     479.265E-03     469.411E-03
            5501            5545     429.807E-03     398.690E-03
            5501            5546     365.636E-03     342.488E-03
            5501            5549     479.265E-03     469.411E-03
            5501            5550     377.389E-03     375.463E-03
            5502            5546     365.636E-03     342.488E-03
            5502            5547     320.857E-03     307.961E-03
            5502            5550     377.389E-03     375.463E-03
            5502            5551     310.205E-03     311.977E-03
            5503            5547     320.857E-03     307.961E-03
            5503            5548     293.748E-03     288.078E-03
            5503            5551     310.205E-03     311.977E-03
            5503            5552     275.256E-03     280.853E-03
            5504             709     262.491E-03     269.553E-03
            5504             710     283.889E-03     280.921E-03
            5504            5548     293.748E-03     288.078E-03
            5504            5552     275.256E-03     280.853E-03
            5505             611     536.143E-03     519.696E-03
            5505             612     461.142E-03     455.941E-03
            5505            5549     479.265E-03     469.411E-03
            5505            5553     435.037E-03     433.185E-03
            5506            5549     479.265E-03     469.411E-03
            5506            5550     377.389E-03     375.463E-03
            5506            5553     435.037E-03     433.185E-03
            5506            5554     378.741E-03     382.989E-03
            5507            5550     377.389E-03     375.463E-03
            5507            5551     310.205E-03     311.977E-03
            5507            5554     378.741E-03     382.989E-03
            5507            5555     328.212E-03     335.996E-03
            5508            5551     310.205E-03     311.977E-03
            5508            5552     275.256E-03     280.853E-03
            5508            5555     328.212E-03     335.996E-03
            5508            5556     299.234E-03     308.746E-03
            5509             708     290.593E-03     301.049E-03
            5509             709     262.491E-03     269.553E-03
            5509            5552     275.256E-03     280.853E-03
            5509            5556     299.234E-03     308.746E-03
            5510             612     461.142E-03     455.941E-03
            5510             613     409.930E-03     404.415E-03
            5510            5553     435.037E-03     433.185E-03
            5510            5557     390.921E-03     386.914E-03
            5511            5553     435.037E-03     433.185E-03
            5511            5554     378.741E-03     382.989E-03
            5511            5557     390.921E-03     386.914E-03
            5511            5558     358.028E-03     358.932E-03
            5512            5554     378.741E-03     382.989E-03
            5512            5555     328.212E-03     335.996E-03
            5512            5558     358.028E-03     358.932E-03
            5512            5559     331.558E-03     337.792E-03
            5513            5555     328.212E-03     335.996E-03
            5513            5556     299.234E-03     308.746E-03
            5513            5559     331.558E-03     337.792E-03
            5513            5560     313.024E-03     321.713E-03
            5514             707     307.075E-03     316.295E-03
            5514             708     290.593E-03     301.049E-03
            5514            5556     299.234E-03     308.746E-03
            5514            5560     313.024E-03     321.713E-03
            5515             613     409.930E-03     404.415E-03
            5515             614     372.727E-03     367.080E-03
            5515            5557     390.921E-03     386.914E-03
            5515            5561     359.136E-03     355.438E-03
            5516            5557     390.921E-03     386.914E-03
            5516            5558     358.028E-03     358.932E-03
            5516            5561     359.136E-03     355.438E-03
            5516            5562     336.863E-03     336.621E-03
            5517            5558     358.028E-03     358.932E-03
            5517            5559     331.558E-03     337.792E-03
            5517            5562     336.863E-03     336.621E-03
            5517            5563     324.409E-03     327.365E-03
            5518            5559     331.558E-03     337.792E-03
            5518            5560     313.024E-03     321.713E-03
            5518            5563     324.409E-03     327.365E-03
            5518            5564     317.742E-03     323.031E-03
            5519             706     314.849E-03     320.777E-03
            5519             707     307.075E-03     316.295E-03
            5519            5560     313.024E-03     321.713E-03
            5519            5564     317.742E-03     323.031E-03
            5520             614     372.727E-03     367.080E-03
            5520             615     335.159E-03     331.027E-03
            5520            5561     359.136E-03     355.438E-03
            5520            5565     327.958E-03     325.436E-03
            5521            5561     359.136E-03     355.438E-03
            5521            5562     336.863E-03     336.621E-03
            5521            5565     327.958E-03     325.436E-03
            5521            5566     318.848E-03     319.021E-03
            5522            5562     336.863E-03     336.621E-03
            5522            5563     324.409E-03     327.365E-03
            5522            5566     318.848E-03     319.021E-03
            5522            5567     316.378E-03     317.788E-03
            5523            5563     324.409E-03     327.365E-03
            5523            5564     317.742E-03     323.031E-03
            5523            5567     316.378E-03     317.788E-03
            5523            5568     316.470E-03     318.218E-03
            5524             705     317.123E-03     319.058E-03
            5524             706     314.849E-03     320.777E-03
            5524            5564     317.742E-03     323.031E-03
            5524            5568     316.470E-03     318.218E-03
            5525             615     335.159E-03     331.027E-03
            5525             616     300.635E-03     297.726E-03
            5525            5565     327.958E-03     325.436E-03
            5525            5569     299.599E-03     298.586E-03
            5526            5565     327.958E-03     325.436E-03
            5526            5566     318.848E-03     319.021E-03
            5526            5569     299.599E-03     298.586E-03
            5526            5570     301.944E-03     302.825E-03
            5527            5566     318.848E-03     319.021E-03
            5527            5567     316.378E-03     317.788E-03
            5527            5570     301.944E-03     302.825E-03
            5527            5571     308.766E-03     308.970E-03
            5528            5567     316.378E-03     317.788E-03
            5528            5568     316.470E-03     318.218E-03
            5528            5571     308.766E-03     308.970E-03
            5528            5572     313.784E-03     312.531E-03
            5529             704     315.361E-03     313.326E-03
            5529             705     317.123E-03     319.058E-03
            5529            5568     316.470E-03     318.218E-03
            5529            5572     313.784E-03     312.531E-03
            5530             616     300.635E-03     297.726E-03
            5530             617     266.944E-03     266.861E-03
            5530            5569     299.599E-03     298.586E-03
            5530            5573     273.543E-03     274.859E-03
            5531            5569     299.599E-03     298.586E-03
            5531            5570     301.944E-03     302.825E-03
            5531            5573     273.543E-03     274.859E-03
            5531            5574     288.339E-03     290.082E-03
            5532            5570     301.944E-03     302.825E-03
            5532            5571     308.766E-03     308.970E-03
            5532            5574     288.339E-03     290.082E-03
            5532            5575     302.094E-03     300.816E-03
            5533            5571     308.766E-03     308.970E-03
            5533            5572     313.784E-03     312.531E-03
            5533            5575     302.094E-03     300.816E-03
            5533            5576     309.603E-03     305.065E-03
            5534             703     311.554E-03     305.805E-03
            5534             704     315.361E-03     313.326E-03
            5534            5572     313.784E-03     312.531E-03
            5534            5576     309.603E-03     305.065E-03
            5535             617     266.944E-03     266.861E-03
            5535             618     233.691E-03     237.330E-03
            5535            5573     273.543E-03     274.859E-03
            5535            5577     249.504E-03     253.993E-03
            5536            5573     273.543E-03     274.859E-03
            5536            5574     288.339E-03     290.082E-03
            5536            5577     249.504E-03     253.993E-03
            5536            5578     278.585E-03     280.576E-03
            5537            5574     288.339E-03     290.082E-03
            5537            5575     302.094E-03     300.816E-03
            5537            5578     278.585E-03     280.576E-03
            5537            5579     296.989E-03     292.976E-03
            5538            5575     302.094E-03     300.816E-03
            5538            5576     309.603E-03     305.065E-03
            5538            5579     296.989E-03     292.976E-03
            5538            5580     303.505E-03     295.726E-03
            5539             702     304.883E-03     295.995E-03
            5539             703     311.554E-03     305.805E-03
            5539            5576     309.603E-03     305.065E-03
            5539            5580     303.505E-03     295.726E-03
            5540             618     233.691E-03     237.330E-03
            5540             619     201.836E-03     212.677E-03
            5540            5577     249.504E-03     253.993E-03
            5540            5581     230.695E-03     237.447E-03
            5541            5577     249.504E-03     253.993E-03
            5541            5578     278.585E-03     280.576E-03
            5541            5581     230.695E-03     237.447E-03
            5541            5582     273.119E-03     271.460E-03
            5542            5578     278.585E-03     280.576E-03
            5542            5579     296.989E-03     292.976E-03
            5542            5582     273.119E-03     271.460E-03
            5542            5583     290.305E-03     282.927E-03
            5543            5579     296.989E-03     292.976E-03
            5543            5580     303.505E-03     295.726E-03
            5543            5583     290.305E-03     282.927E-03
            5543            5584     295.423E-03     286.005E-03
            5544             701     296.919E-03     286.858E-03
            5544             702     304.883E-03     295.995E-03
            5544            5580     303.505E-03     295.726E-03
            5544            5584     295.423E-03     286.005E-03
            5545             619     201.836E-03     212.677E-03
            5545             620     176.064E-03     184.936E-03
            5545            5581     230.695E-03     237.447E-03
            5545            5585     215.062E-03     216.543E-03
            5546            5581     230.695E-03     237.447E-03
            5546            5582     273.119E-03     271.460E-03
            5546            5585     215.062E-03     216.543E-03
            5546            5586     264.691E-03     257.770E-03
            5547            5582     273.119E-03     271.460E-03
            5547            5583     290.305E-03     282.927E-03
            5547            5586     264.691E-03     257.770E-03
            5547            5587     281.233E-03     273.510E-03
            5548            5583     290.305E-03     282.927E-03
            5548            5584     295.423E-03     286.005E-03
            5548            5587     281.233E-03     273.510E-03
            5548            5588     289.239E-03     281.900E-03
            5549             700     291.335E-03     284.169E-03
            5549             701     296.919E-03     286.858E-03
            5549            5584     295.423E-03     286.005E-03
            5549            5588     289.239E-03     281.900E-03
            5550             620     176.064E-03     184.936E-03
            5550             621     216.458E-03     214.452E-03
            5550            5585     215.062E-03     216.543E-03
            5550            5589     237.022E-03     234.192E-03
            5551            5585     215.062E-03     216.543E-03
            5551            5586     264.691E-03     257.770E-03
            5551            5589     237.022E-03     234.192E-03
            5551            5590     261.480E-03     257.892E-03
            5552            5586     264.691E-03     257.770E-03
            5552            5587     281.233E-03     273.510E-03
            5552            5590     261.480E-03     257.892E-03
            5552            5591     272.024E-03     268.856E-03
            5553            5587     281.233E-03     273.510E-03
            5553            5588     289.239E-03     281.900E-03
            5553            5591     272.024E-03     268.856E-03
            5553            5592     278.854E-03     276.358E-03
            5554             699     279.034E-03     276.856E-03
            5554             700     291.335E-03     284.169E-03
            5554            5588     289.239E-03     281.900E-03
            5554            5592     278.854E-03     276.358E-03
            5555             621     216.458E-03     214.452E-03
            5555             622     236.627E-03     234.282E-03
            5555            5589     237.022E-03     234.192E-03
            5555            5593     253.516E-03     253.270E-03
            5556            5589     237.022E-03     234.192E-03
            5556            5590     261.480E-03     257.892E-03
            5556            5593     253.516E-03     253.270E-03
            5556            5594     271.582E-03     272.892E-03
            5557            5590     261.480E-03     257.892E-03
            5557            5591     272.024E-03     268.856E-03
            5557            5594     271.582E-03     272.892E-03
            5557            5595     273.501E-03     274.030E-03
            5558            5591     272.024E-03     268.856E-03
            5558            5592     278.854E-03     276.358E-03
            5558            5595     273.501E-03     274.030E-03
            5558            5596     272.977E-03     273.130E-03
            5559             698     271.713E-03     271.724E-03
            5559             699     279.034E-03     276.856E-03
            5559            5592     278.854E-03     276.358E-03
            5559            5596     272.977E-03     273.130E-03
            5560             622     236.627E-03     234.282E-03
            5560             623     192.104E-03     194.270E-03
            5560            5593     253.516E-03     253.270E-03
            5560            5597     231.060E-03     231.563E-03
            5561            5593     253.516E-03     253.270E-03
            5561            5594     271.582E-03     272.892E-03
            5561            5597     231.060E-03     231.563E-03
            5561            5598     276.739E-03     276.505E-03
            5562            5594     271.582E-03     272.892E-03
            5562            5595     273.501E-03     274.030E-03
            5562            5598     276.739E-03     276.505E-03
            5562            5599     280.488E-03     280.894E-03
            5563            5595     273.501E-03     274.030E-03
            5563            5596     272.977E-03     273.130E-03
            5563            5599     280.488E-03     280.894E-03
            5563            5600     277.105E-03     277.199E-03
            5564             697     276.695E-03     276.764E-03
            5564             698     271.713E-03     271.724E-03
            5564            5596     272.977E-03     273.130E-03
            5564            5600     277.105E-03     277.199E-03
            5565             623     192.104E-03     194.270E-03
            5565             624     188.692E-03     190.446E-03
            5565            5597     231.060E-03     231.563E-03
            5565            5601     224.182E-03     224.301E-03
            5566            5597     231.060E-03     231.563E-03
            5566            5598     276.739E-03     276.505E-03
            5566            5601     224.182E-03     224.301E-03
            5566            5602     267.478E-03     266.364E-03
            5567            5598     276.739E-03     276.505E-03
            5567            5599     280.488E-03     280.894E-03
            5567            5602     267.478E-03     266.364E-03
            5567            5603     277.690E-03     277.302E-03
            5568            5599     280.488E-03     280.894E-03
            5568            5600     277.105E-03     277.199E-03
            5568            5603     277.690E-03     277.302E-03
            5568            5604     279.732E-03     279.757E-03
            5569             696     279.369E-03     279.483E-03
            5569             697     276.695E-03     276.764E-03
            5569            5600     277.105E-03     277.199E-03
            5569            5604     279.732E-03     279.757E-03
            5570              26     99.3789E-03     99.1240E-03
            5570             624     188.692E-03     190.446E-03
            5570             839     113.147E-03     113.092E-03
            5570            5601     224.182E-03     224.301E-03
            5571             839     113.147E-03     113.092E-03
            5571             840     129.926E-03     129.625E-03
            5571            5601     224.182E-03     224.301E-03
            5571            5602     267.478E-03     266.364E-03
            5572             840     129.926E-03     129.625E-03
            5572             841     136.891E-03     136.503E-03
            5572            5602     267.478E-03     266.364E-03
            5572            5603     277.690E-03     277.302E-03
            5573             841     136.891E-03     136.503E-03
            5573             842     140.511E-03     140.525E-03
            5573            5603     277.690E-03     277.302E-03
            5573            5604     279.732E-03     279.757E-03
            5574              29     140.179E-03     140.234E-03
            5574             696     279.369E-03     279.483E-03
            5574             842     140.511E-03     140.525E-03
            5574            5604     279.732E-03     279.757E-03


  Minimum                            730.001E-18     862.907E-18
      At Element                            5314            5314
            Node                             843             843

  Maximum                                1.06390         1.02718
      At Element                            5353            5353
            Node                             528             528

           Total                     1.36139E+03     1.35081E+03


Field Output reported at element nodes for region: DO228-1.Region_3
   Computation algorithm: EXTRAPOLATE_COMPUTE_AVERAGE
   Averaged at nodes
   Averaging regions: ODB_REGIONS

   Element Label      Node Label         S.Mises         S.Mises
                                          @Loc 1          @Loc 2
-----------------------------------------------------------------
               1               1     24.8615E-03     28.4172E-03
               1              36     25.9846E-03     27.5967E-03
               1             167     53.2435E-03     53.2820E-03
               1             905     53.3898E-03     53.1431E-03
               2              36     25.9846E-03     27.5967E-03
               2              37     27.4681E-03     26.6251E-03
               2             905     53.3898E-03     53.1431E-03
               2             906     53.7451E-03     52.8749E-03
               3              37     27.4681E-03     26.6251E-03
               3              38     27.8402E-03     26.6051E-03
               3             906     53.7451E-03     52.8749E-03
               3             907     54.1905E-03     52.7534E-03
               4              38     27.8402E-03     26.6051E-03
               4              39     28.0917E-03     26.6970E-03
               4             907     54.1905E-03     52.7534E-03
               4             908     54.7466E-03     52.8115E-03
               5              39     28.0917E-03     26.6970E-03
               5              40     28.4965E-03     26.6550E-03
               5             908     54.7466E-03     52.8115E-03
               5             909     55.3829E-03     52.9716E-03
               6              40     28.4965E-03     26.6550E-03
               6              41     28.9080E-03     26.7415E-03
               6             909     55.3829E-03     52.9716E-03
               6             910     56.1051E-03     53.2453E-03
               7              41     28.9080E-03     26.7415E-03
               7              42     29.3164E-03     26.8187E-03
               7             910     56.1051E-03     53.2453E-03
               7             911     56.8836E-03     53.5858E-03
               8              42     29.3164E-03     26.8187E-03
               8              43     29.8140E-03     26.9952E-03
               8             911     56.8836E-03     53.5858E-03
               8             912     57.7458E-03     54.0154E-03
               9              43     29.8140E-03     26.9952E-03
               9              44     30.2154E-03     27.0797E-03
               9             912     57.7458E-03     54.0154E-03
               9             913     58.6113E-03     54.4765E-03
              10              44     30.2154E-03     27.0797E-03
              10              45     30.8045E-03     27.3767E-03
              10             913     58.6113E-03     54.4765E-03
              10             914     59.5861E-03     55.0508E-03
              11              45     30.8045E-03     27.3767E-03
              11              46     31.0568E-03     27.3422E-03
              11             914     59.5861E-03     55.0508E-03
              11             915     60.5743E-03     55.6082E-03
              12              46     31.0568E-03     27.3422E-03
              12              47     31.7841E-03     27.5254E-03
              12             915     60.5743E-03     55.6082E-03
              12             916     61.7413E-03     56.4157E-03
              13              47     31.7841E-03     27.5254E-03
              13              48     30.4510E-03     26.2349E-03
              13             916     61.7413E-03     56.4157E-03
              13             917     62.3628E-03     56.2721E-03
              14              48     30.4510E-03     26.2349E-03
              14              49     26.9304E-03     22.1612E-03
              14             917     62.3628E-03     56.2721E-03
              14             918     57.1556E-03     51.0272E-03
              15              49     26.9304E-03     22.1612E-03
              15              50     16.5950E-03     19.1211E-03
              15             918     57.1556E-03     51.0272E-03
              15             919     32.9679E-03     37.9366E-03
              16               2     7.44882E-03     18.2453E-03
              16              50     16.5950E-03     19.1211E-03
              16              51     13.8314E-03     29.3308E-03
              16             919     32.9679E-03     37.9366E-03
              17             166     56.0330E-03     48.4529E-03
              17             167     53.2435E-03     53.2820E-03
              17             905     53.3898E-03     53.1431E-03
              17             920     54.0368E-03     50.2216E-03
              18             905     53.3898E-03     53.1431E-03
              18             906     53.7451E-03     52.8749E-03
              18             920     54.0368E-03     50.2216E-03
              18             921     51.6183E-03     52.1175E-03
              19             906     53.7451E-03     52.8749E-03
              19             907     54.1905E-03     52.7534E-03
              19             921     51.6183E-03     52.1175E-03
              19             922     51.6188E-03     52.0099E-03
              20             907     54.1905E-03     52.7534E-03
              20             908     54.7466E-03     52.8115E-03
              20             922     51.6188E-03     52.0099E-03
              20             923     52.1018E-03     52.0714E-03
              21             908     54.7466E-03     52.8115E-03
              21             909     55.3829E-03     52.9716E-03
              21             923     52.1018E-03     52.0714E-03
              21             924     52.4312E-03     52.6234E-03
              22             909     55.3829E-03     52.9716E-03
              22             910     56.1051E-03     53.2453E-03
              22             924     52.4312E-03     52.6234E-03
              22             925     52.9587E-03     53.1386E-03
              23             910     56.1051E-03     53.2453E-03
              23             911     56.8836E-03     53.5858E-03
              23             925     52.9587E-03     53.1386E-03
              23             926     53.5978E-03     53.7841E-03
              24             911     56.8836E-03     53.5858E-03
              24             912     57.7458E-03     54.0154E-03
              24             926     53.5978E-03     53.7841E-03
              24             927     54.2650E-03     54.4805E-03
              25             912     57.7458E-03     54.0154E-03
              25             913     58.6113E-03     54.4765E-03
              25             927     54.2650E-03     54.4805E-03
              25             928     55.1053E-03     55.3327E-03
              26             913     58.6113E-03     54.4765E-03
              26             914     59.5861E-03     55.0508E-03
              26             928     55.1053E-03     55.3327E-03
              26             929     55.9336E-03     56.1676E-03
              27             914     59.5861E-03     55.0508E-03
              27             915     60.5743E-03     55.6082E-03
              27             929     55.9336E-03     56.1676E-03
              27             930     57.2269E-03     57.4150E-03
              28             915     60.5743E-03     55.6082E-03
              28             916     61.7413E-03     56.4157E-03
              28             930     57.2269E-03     57.4150E-03
              28             931     58.5139E-03     58.9768E-03
              29             916     61.7413E-03     56.4157E-03
              29             917     62.3628E-03     56.2721E-03
              29             931     58.5139E-03     58.9768E-03
              29             932     61.6655E-03     61.1825E-03
              30             917     62.3628E-03     56.2721E-03
              30             918     57.1556E-03     51.0272E-03
              30             932     61.6655E-03     61.1825E-03
              30             933     60.3320E-03     61.1366E-03
              31             918     57.1556E-03     51.0272E-03
              31             919     32.9679E-03     37.9366E-03
              31             933     60.3320E-03     61.1366E-03
              31             934     46.5990E-03     47.5937E-03
              32              51     13.8314E-03     29.3308E-03
              32              52     37.0828E-03     35.6952E-03
              32             919     32.9679E-03     37.9366E-03
              32             934     46.5990E-03     47.5937E-03
              33             165     50.5425E-03     50.0789E-03
              33             166     56.0330E-03     48.4529E-03
              33             920     54.0368E-03     50.2216E-03
              33             935     50.3235E-03     50.5094E-03
              34             920     54.0368E-03     50.2216E-03
              34             921     51.6183E-03     52.1175E-03
              34             935     50.3235E-03     50.5094E-03
              34             936     50.0152E-03     51.1761E-03
              35             921     51.6183E-03     52.1175E-03
              35             922     51.6188E-03     52.0099E-03
              35             936     50.0152E-03     51.1761E-03
              35             937     49.8941E-03     51.6371E-03
              36             922     51.6188E-03     52.0099E-03
              36             923     52.1018E-03     52.0714E-03
              36             937     49.8941E-03     51.6371E-03
              36             938     49.9226E-03     52.2129E-03
              37             923     52.1018E-03     52.0714E-03
              37             924     52.4312E-03     52.6234E-03
              37             938     49.9226E-03     52.2129E-03
              37             939     50.0884E-03     52.9145E-03
              38             924     52.4312E-03     52.6234E-03
              38             925     52.9587E-03     53.1386E-03
              38             939     50.0884E-03     52.9145E-03
              38             940     50.3913E-03     53.7258E-03
              39             925     52.9587E-03     53.1386E-03
              39             926     53.5978E-03     53.7841E-03
              39             940     50.3913E-03     53.7258E-03
              39             941     50.7811E-03     54.6074E-03
              40             926     53.5978E-03     53.7841E-03
              40             927     54.2650E-03     54.4805E-03
              40             941     50.7811E-03     54.6074E-03
              40             942     51.3351E-03     55.6345E-03
              41             927     54.2650E-03     54.4805E-03
              41             928     55.1053E-03     55.3327E-03
              41             942     51.3351E-03     55.6345E-03
              41             943     51.9419E-03     56.6851E-03
              42             928     55.1053E-03     55.3327E-03
              42             929     55.9336E-03     56.1676E-03
              42             943     51.9419E-03     56.6851E-03
              42             944     52.8557E-03     57.9848E-03
              43             929     55.9336E-03     56.1676E-03
              43             930     57.2269E-03     57.4150E-03
              43             944     52.8557E-03     57.9848E-03
              43             945     53.7206E-03     59.2569E-03
              44             930     57.2269E-03     57.4150E-03
              44             931     58.5139E-03     58.9768E-03
              44             945     53.7206E-03     59.2569E-03
              44             946     55.2888E-03     60.9703E-03
              45             931     58.5139E-03     58.9768E-03
              45             932     61.6655E-03     61.1825E-03
              45             946     55.2888E-03     60.9703E-03
              45             947     55.9364E-03     62.1565E-03
              46             932     61.6655E-03     61.1825E-03
              46             933     60.3320E-03     61.1366E-03
              46             947     55.9364E-03     62.1565E-03
              46             948     56.0989E-03     63.7676E-03
              47             933     60.3320E-03     61.1366E-03
              47             934     46.5990E-03     47.5937E-03
              47             948     56.0989E-03     63.7676E-03
              47             949     64.7649E-03     71.8491E-03
              48              52     37.0828E-03     35.6952E-03
              48              53     72.5441E-03     78.2088E-03
              48             934     46.5990E-03     47.5937E-03
              48             949     64.7649E-03     71.8491E-03
              49             164     59.9221E-03     70.4722E-03
              49             165     50.5425E-03     50.0789E-03
              49             935     50.3235E-03     50.5094E-03
              49             950     62.9425E-03     68.9479E-03
              50             935     50.3235E-03     50.5094E-03
              50             936     50.0152E-03     51.1761E-03
              50             950     62.9425E-03     68.9479E-03
              50             951     66.9014E-03     67.4360E-03
              51             936     50.0152E-03     51.1761E-03
              51             937     49.8941E-03     51.6371E-03
              51             951     66.9014E-03     67.4360E-03
              51             952     68.4111E-03     68.4021E-03
              52             937     49.8941E-03     51.6371E-03
              52             938     49.9226E-03     52.2129E-03
              52             952     68.4111E-03     68.4021E-03
              52             953     70.0513E-03     70.1964E-03
              53             938     49.9226E-03     52.2129E-03
              53             939     50.0884E-03     52.9145E-03
              53             953     70.0513E-03     70.1964E-03
              53             954     72.0231E-03     72.0240E-03
              54             939     50.0884E-03     52.9145E-03
              54             940     50.3913E-03     53.7258E-03
              54             954     72.0231E-03     72.0240E-03
              54             955     74.1780E-03     74.2472E-03
              55             940     50.3913E-03     53.7258E-03
              55             941     50.7811E-03     54.6074E-03
              55             955     74.1780E-03     74.2472E-03
              55             956     76.3628E-03     76.4669E-03
              56             941     50.7811E-03     54.6074E-03
              56             942     51.3351E-03     55.6345E-03
              56             956     76.3628E-03     76.4669E-03
              56             957     78.6045E-03     78.6626E-03
              57             942     51.3351E-03     55.6345E-03
              57             943     51.9419E-03     56.6851E-03
              57             957     78.6045E-03     78.6626E-03
              57             958     80.5163E-03     80.5184E-03
              58             943     51.9419E-03     56.6851E-03
              58             944     52.8557E-03     57.9848E-03
              58             958     80.5163E-03     80.5184E-03
              58             959     82.2139E-03     81.9427E-03
              59             944     52.8557E-03     57.9848E-03
              59             945     53.7206E-03     59.2569E-03
              59             959     82.2139E-03     81.9427E-03
              59             960     82.9244E-03     82.3368E-03
              60             945     53.7206E-03     59.2569E-03
              60             946     55.2888E-03     60.9703E-03
              60             960     82.9244E-03     82.3368E-03
              60             961     82.9609E-03     81.5324E-03
              61             946     55.2888E-03     60.9703E-03
              61             947     55.9364E-03     62.1565E-03
              61             961     82.9609E-03     81.5324E-03
              61             962     79.7502E-03     77.8850E-03
              62             947     55.9364E-03     62.1565E-03
              62             948     56.0989E-03     63.7676E-03
              62             962     79.7502E-03     77.8850E-03
              62             963     74.3669E-03     71.7521E-03
              63             948     56.0989E-03     63.7676E-03
              63             949     64.7649E-03     71.8491E-03
              63             963     74.3669E-03     71.7521E-03
              63             964     70.4808E-03     71.2504E-03
              64              53     72.5441E-03     78.2088E-03
              64              54     68.3469E-03     73.6520E-03
              64             949     64.7649E-03     71.8491E-03
              64             964     70.4808E-03     71.2504E-03
              65             163     76.4522E-03     84.7560E-03
              65             164     59.9221E-03     70.4722E-03
              65             950     62.9425E-03     68.9479E-03
              65             965     77.6331E-03     83.9127E-03
              66             950     62.9425E-03     68.9479E-03
              66             951     66.9014E-03     67.4360E-03
              66             965     77.6331E-03     83.9127E-03
              66             966     80.8100E-03     82.7314E-03
              67             951     66.9014E-03     67.4360E-03
              67             952     68.4111E-03     68.4021E-03
              67             966     80.8100E-03     82.7314E-03
              67             967     84.7937E-03     83.5169E-03
              68             952     68.4111E-03     68.4021E-03
              68             953     70.0513E-03     70.1964E-03
              68             967     84.7937E-03     83.5169E-03
              68             968     88.7858E-03     86.1683E-03
              69             953     70.0513E-03     70.1964E-03
              69             954     72.0231E-03     72.0240E-03
              69             968     88.7858E-03     86.1683E-03
              69             969     93.1296E-03     89.5893E-03
              70             954     72.0231E-03     72.0240E-03
              70             955     74.1780E-03     74.2472E-03
              70             969     93.1296E-03     89.5893E-03
              70             970     97.8153E-03     93.5756E-03
              71             955     74.1780E-03     74.2472E-03
              71             956     76.3628E-03     76.4669E-03
              71             970     97.8153E-03     93.5756E-03
              71             971     102.646E-03     97.7737E-03
              72             956     76.3628E-03     76.4669E-03
              72             957     78.6045E-03     78.6626E-03
              72             971     102.646E-03     97.7737E-03
              72             972     107.389E-03     101.903E-03
              73             957     78.6045E-03     78.6626E-03
              73             958     80.5163E-03     80.5184E-03
              73             972     107.389E-03     101.903E-03
              73             973     111.740E-03     105.546E-03
              74             958     80.5163E-03     80.5184E-03
              74             959     82.2139E-03     81.9427E-03
              74             973     111.740E-03     105.546E-03
              74             974     115.204E-03     108.252E-03
              75             959     82.2139E-03     81.9427E-03
              75             960     82.9244E-03     82.3368E-03
              75             974     115.204E-03     108.252E-03
              75             975     117.196E-03     109.323E-03
              76             960     82.9244E-03     82.3368E-03
              76             961     82.9609E-03     81.5324E-03
              76             975     117.196E-03     109.323E-03
              76             976     116.672E-03     107.772E-03
              77             961     82.9609E-03     81.5324E-03
              77             962     79.7502E-03     77.8850E-03
              77             976     116.672E-03     107.772E-03
              77             977     112.209E-03     102.295E-03
              78             962     79.7502E-03     77.8850E-03
              78             963     74.3669E-03     71.7521E-03
              78             977     112.209E-03     102.295E-03
              78             978     100.148E-03     89.7300E-03
              79             963     74.3669E-03     71.7521E-03
              79             964     70.4808E-03     71.2504E-03
              79             978     100.148E-03     89.7300E-03
              79             979     78.6186E-03     70.7179E-03
              80              54     68.3469E-03     73.6520E-03
              80              55     65.8324E-03     60.3258E-03
              80             964     70.4808E-03     71.2504E-03
              80             979     78.6186E-03     70.7179E-03
              81             162     75.7517E-03     74.5874E-03
              81             163     76.4522E-03     84.7560E-03
              81             965     77.6331E-03     83.9127E-03
              81             980     75.0966E-03     76.2713E-03
              82             965     77.6331E-03     83.9127E-03
              82             966     80.8100E-03     82.7314E-03
              82             980     75.0966E-03     76.2713E-03
              82             981     75.8662E-03     78.4491E-03
              83             966     80.8100E-03     82.7314E-03
              83             967     84.7937E-03     83.5169E-03
              83             981     75.8662E-03     78.4491E-03
              83             982     79.6512E-03     80.0199E-03
              84             967     84.7937E-03     83.5169E-03
              84             968     88.7858E-03     86.1683E-03
              84             982     79.6512E-03     80.0199E-03
              84             983     84.4752E-03     83.0794E-03
              85             968     88.7858E-03     86.1683E-03
              85             969     93.1296E-03     89.5893E-03
              85             983     84.4752E-03     83.0794E-03
              85             984     89.7251E-03     87.4238E-03
              86             969     93.1296E-03     89.5893E-03
              86             970     97.8153E-03     93.5756E-03
              86             984     89.7251E-03     87.4238E-03
              86             985     95.5079E-03     92.5226E-03
              87             970     97.8153E-03     93.5756E-03
              87             971     102.646E-03     97.7737E-03
              87             985     95.5079E-03     92.5226E-03
              87             986     101.603E-03     98.1651E-03
              88             971     102.646E-03     97.7737E-03
              88             972     107.389E-03     101.903E-03
              88             986     101.603E-03     98.1651E-03
              88             987     107.864E-03     104.001E-03
              89             972     107.389E-03     101.903E-03
              89             973     111.740E-03     105.546E-03
              89             987     107.864E-03     104.001E-03
              89             988     113.900E-03     109.720E-03
              90             973     111.740E-03     105.546E-03
              90             974     115.204E-03     108.252E-03
              90             988     113.900E-03     109.720E-03
              90             989     119.272E-03     114.782E-03
              91             974     115.204E-03     108.252E-03
              91             975     117.196E-03     109.323E-03
              91             989     119.272E-03     114.782E-03
              91             990     123.172E-03     118.564E-03
              92             975     117.196E-03     109.323E-03
              92             976     116.672E-03     107.772E-03
              92             990     123.172E-03     118.564E-03
              92             991     124.237E-03     119.858E-03
              93             976     116.672E-03     107.772E-03
              93             977     112.209E-03     102.295E-03
              93             991     124.237E-03     119.858E-03
              93             992     120.847E-03     117.273E-03
              94             977     112.209E-03     102.295E-03
              94             978     100.148E-03     89.7300E-03
              94             992     120.847E-03     117.273E-03
              94             993     108.512E-03     107.500E-03
              95             978     100.148E-03     89.7300E-03
              95             979     78.6186E-03     70.7179E-03
              95             993     108.512E-03     107.500E-03
              95             994     97.4603E-03     97.0463E-03
              96              55     65.8324E-03     60.3258E-03
              96              56     95.6904E-03     93.9945E-03
              96             979     78.6186E-03     70.7179E-03
              96             994     97.4603E-03     97.0463E-03
              97             161     70.3921E-03     67.5781E-03
              97             162     75.7517E-03     74.5874E-03
              97             980     75.0966E-03     76.2713E-03
              97             995     71.0579E-03     69.0695E-03
              98             980     75.0966E-03     76.2713E-03
              98             981     75.8662E-03     78.4491E-03
              98             995     71.0579E-03     69.0695E-03
              98             996     72.6444E-03     72.5316E-03
              99             981     75.8662E-03     78.4491E-03
              99             982     79.6512E-03     80.0199E-03
              99             996     72.6444E-03     72.5316E-03
              99             997     75.7094E-03     76.2339E-03
             100             982     79.6512E-03     80.0199E-03
             100             983     84.4752E-03     83.0794E-03
             100             997     75.7094E-03     76.2339E-03
             100             998     80.7175E-03     80.3518E-03
             101             983     84.4752E-03     83.0794E-03
             101             984     89.7251E-03     87.4238E-03
             101             998     80.7175E-03     80.3518E-03
             101             999     86.7147E-03     85.6648E-03
             102             984     89.7251E-03     87.4238E-03
             102             985     95.5079E-03     92.5226E-03
             102             999     86.7147E-03     85.6648E-03
             102            1000     93.3599E-03     91.8924E-03
             103             985     95.5079E-03     92.5226E-03
             103             986     101.603E-03     98.1651E-03
             103            1000     93.3599E-03     91.8924E-03
             103            1001     100.548E-03     98.7910E-03
             104             986     101.603E-03     98.1651E-03
             104             987     107.864E-03     104.001E-03
             104            1001     100.548E-03     98.7910E-03
             104            1002     107.978E-03     106.095E-03
             105             987     107.864E-03     104.001E-03
             105             988     113.900E-03     109.720E-03
             105            1002     107.978E-03     106.095E-03
             105            1003     115.397E-03     113.462E-03
             106             988     113.900E-03     109.720E-03
             106             989     119.272E-03     114.782E-03
             106            1003     115.397E-03     113.462E-03
             106            1004     122.205E-03     120.444E-03
             107             989     119.272E-03     114.782E-03
             107             990     123.172E-03     118.564E-03
             107            1004     122.205E-03     120.444E-03
             107            1005     127.535E-03     126.207E-03
             108             990     123.172E-03     118.564E-03
             108             991     124.237E-03     119.858E-03
             108            1005     127.535E-03     126.207E-03
             108            1006     130.238E-03     129.753E-03
             109             991     124.237E-03     119.858E-03
             109             992     120.847E-03     117.273E-03
             109            1006     130.238E-03     129.753E-03
             109            1007     127.911E-03     129.190E-03
             110             992     120.847E-03     117.273E-03
             110             993     108.512E-03     107.500E-03
             110            1007     127.911E-03     129.190E-03
             110            1008     121.578E-03     123.937E-03
             111             993     108.512E-03     107.500E-03
             111             994     97.4603E-03     97.0463E-03
             111            1008     121.578E-03     123.937E-03
             111            1009     120.619E-03     120.948E-03
             112              56     95.6904E-03     93.9945E-03
             112              57     123.149E-03     121.546E-03
             112             994     97.4603E-03     97.0463E-03
             112            1009     120.619E-03     120.948E-03
             113             160     66.2740E-03     63.4264E-03
             113             161     70.3921E-03     67.5781E-03
             113             995     71.0579E-03     69.0695E-03
             113            1010     66.7465E-03     64.3746E-03
             114             995     71.0579E-03     69.0695E-03
             114             996     72.6444E-03     72.5316E-03
             114            1010     66.7465E-03     64.3746E-03
             114            1011     68.6854E-03     67.3705E-03
             115             996     72.6444E-03     72.5316E-03
             115             997     75.7094E-03     76.2339E-03
             115            1011     68.6854E-03     67.3705E-03
             115            1012     72.2435E-03     72.0676E-03
             116             997     75.7094E-03     76.2339E-03
             116             998     80.7175E-03     80.3518E-03
             116            1012     72.2435E-03     72.0676E-03
             116            1013     77.2467E-03     77.5630E-03
             117             998     80.7175E-03     80.3518E-03
             117             999     86.7147E-03     85.6648E-03
             117            1013     77.2467E-03     77.5630E-03
             117            1014     83.6630E-03     83.8258E-03
             118             999     86.7147E-03     85.6648E-03
             118            1000     93.3599E-03     91.8924E-03
             118            1014     83.6630E-03     83.8258E-03
             118            1015     90.9497E-03     91.0338E-03
             119            1000     93.3599E-03     91.8924E-03
             119            1001     100.548E-03     98.7910E-03
             119            1015     90.9497E-03     91.0338E-03
             119            1016     98.8536E-03     98.9117E-03
             120            1001     100.548E-03     98.7910E-03
             120            1002     107.978E-03     106.095E-03
             120            1016     98.8536E-03     98.9117E-03
             120            1017     107.171E-03     107.303E-03
             121            1002     107.978E-03     106.095E-03
             121            1003     115.397E-03     113.462E-03
             121            1017     107.171E-03     107.303E-03
             121            1018     115.529E-03     115.887E-03
             122            1003     115.397E-03     113.462E-03
             122            1004     122.205E-03     120.444E-03
             122            1018     115.529E-03     115.887E-03
             122            1019     123.543E-03     124.277E-03
             123            1004     122.205E-03     120.444E-03
             123            1005     127.535E-03     126.207E-03
             123            1019     123.543E-03     124.277E-03
             123            1020     130.370E-03     131.794E-03
             124            1005     127.535E-03     126.207E-03
             124            1006     130.238E-03     129.753E-03
             124            1020     130.370E-03     131.794E-03
             124            1021     134.887E-03     137.311E-03
             125            1006     130.238E-03     129.753E-03
             125            1007     127.911E-03     129.190E-03
             125            1021     134.887E-03     137.311E-03
             125            1022     136.448E-03     139.739E-03
             126            1007     127.911E-03     129.190E-03
             126            1008     121.578E-03     123.937E-03
             126            1022     136.448E-03     139.739E-03
             126            1023     136.976E-03     140.055E-03
             127            1008     121.578E-03     123.937E-03
             127            1009     120.619E-03     120.948E-03
             127            1023     136.976E-03     140.055E-03
             127            1024     142.297E-03     143.363E-03
             128              57     123.149E-03     121.546E-03
             128              58     147.109E-03     146.672E-03
             128            1009     120.619E-03     120.948E-03
             128            1024     142.297E-03     143.363E-03
             129             159     61.7518E-03     57.6552E-03
             129             160     66.2740E-03     63.4264E-03
             129            1010     66.7465E-03     64.3746E-03
             129            1025     62.4451E-03     59.2881E-03
             130            1010     66.7465E-03     64.3746E-03
             130            1011     68.6854E-03     67.3705E-03
             130            1025     62.4451E-03     59.2881E-03
             130            1026     64.5265E-03     63.1034E-03
             131            1011     68.6854E-03     67.3705E-03
             131            1012     72.2435E-03     72.0676E-03
             131            1026     64.5265E-03     63.1034E-03
             131            1027     68.2688E-03     68.1569E-03
             132            1012     72.2435E-03     72.0676E-03
             132            1013     77.2467E-03     77.5630E-03
             132            1027     68.2688E-03     68.1569E-03
             132            1028     73.6496E-03     74.4769E-03
             133            1013     77.2467E-03     77.5630E-03
             133            1014     83.6630E-03     83.8258E-03
             133            1028     73.6496E-03     74.4769E-03
             133            1029     80.2528E-03     81.6656E-03
             134            1014     83.6630E-03     83.8258E-03
             134            1015     90.9497E-03     91.0338E-03
             134            1029     80.2528E-03     81.6656E-03
             134            1030     87.9208E-03     89.5498E-03
             135            1015     90.9497E-03     91.0338E-03
             135            1016     98.8536E-03     98.9117E-03
             135            1030     87.9208E-03     89.5498E-03
             135            1031     96.2842E-03     98.1343E-03
             136            1016     98.8536E-03     98.9117E-03
             136            1017     107.171E-03     107.303E-03
             136            1031     96.2842E-03     98.1343E-03
             136            1032     105.114E-03     107.203E-03
             137            1017     107.171E-03     107.303E-03
             137            1018     115.529E-03     115.887E-03
             137            1032     105.114E-03     107.203E-03
             137            1033     114.191E-03     116.641E-03
             138            1018     115.529E-03     115.887E-03
             138            1019     123.543E-03     124.277E-03
             138            1033     114.191E-03     116.641E-03
             138            1034     123.138E-03     126.068E-03
             139            1019     123.543E-03     124.277E-03
             139            1020     130.370E-03     131.794E-03
             139            1034     123.138E-03     126.068E-03
             139            1035     131.726E-03     135.197E-03
             140            1020     130.370E-03     131.794E-03
             140            1021     134.887E-03     137.311E-03
             140            1035     131.726E-03     135.197E-03
             140            1036     139.101E-03     143.250E-03
             141            1021     134.887E-03     137.311E-03
             141            1022     136.448E-03     139.739E-03
             141            1036     139.101E-03     143.250E-03
             141            1037     145.490E-03     149.741E-03
             142            1022     136.448E-03     139.739E-03
             142            1023     136.976E-03     140.055E-03
             142            1037     145.490E-03     149.741E-03
             142            1038     152.447E-03     155.597E-03
             143            1023     136.976E-03     140.055E-03
             143            1024     142.297E-03     143.363E-03
             143            1038     152.447E-03     155.597E-03
             143            1039     162.779E-03     164.563E-03
             144              58     147.109E-03     146.672E-03
             144              59     169.327E-03     170.622E-03
             144            1024     142.297E-03     143.363E-03
             144            1039     162.779E-03     164.563E-03
             145             158     56.9168E-03     53.6263E-03
             145             159     61.7518E-03     57.6552E-03
             145            1025     62.4451E-03     59.2881E-03
             145            1040     57.5958E-03     54.9078E-03
             146            1025     62.4451E-03     59.2881E-03
             146            1026     64.5265E-03     63.1034E-03
             146            1040     57.5958E-03     54.9078E-03
             146            1041     59.9199E-03     58.7100E-03
             147            1026     64.5265E-03     63.1034E-03
             147            1027     68.2688E-03     68.1569E-03
             147            1041     59.9199E-03     58.7100E-03
             147            1042     63.9290E-03     64.4559E-03
             148            1027     68.2688E-03     68.1569E-03
             148            1028     73.6496E-03     74.4769E-03
             148            1042     63.9290E-03     64.4559E-03
             148            1043     69.4147E-03     71.3292E-03
             149            1028     73.6496E-03     74.4769E-03
             149            1029     80.2528E-03     81.6656E-03
             149            1043     69.4147E-03     71.3292E-03
             149            1044     76.3025E-03     79.0141E-03
             150            1029     80.2528E-03     81.6656E-03
             150            1030     87.9208E-03     89.5498E-03
             150            1044     76.3025E-03     79.0141E-03
             150            1045     84.1593E-03     87.3792E-03
             151            1030     87.9208E-03     89.5498E-03
             151            1031     96.2842E-03     98.1343E-03
             151            1045     84.1593E-03     87.3792E-03
             151            1046     92.7598E-03     96.3292E-03
             152            1031     96.2842E-03     98.1343E-03
             152            1032     105.114E-03     107.203E-03
             152            1046     92.7598E-03     96.3292E-03
             152            1047     101.861E-03     105.807E-03
             153            1032     105.114E-03     107.203E-03
             153            1033     114.191E-03     116.641E-03
             153            1047     101.861E-03     105.807E-03
             153            1048     111.364E-03     115.667E-03
             154            1033     114.191E-03     116.641E-03
             154            1034     123.138E-03     126.068E-03
             154            1048     111.364E-03     115.667E-03
             154            1049     121.200E-03     125.952E-03
             155            1034     123.138E-03     126.068E-03
             155            1035     131.726E-03     135.197E-03
             155            1049     121.200E-03     125.952E-03
             155            1050     131.232E-03     136.389E-03
             156            1035     131.726E-03     135.197E-03
             156            1036     139.101E-03     143.250E-03
             156            1050     131.232E-03     136.389E-03
             156            1051     142.268E-03     147.353E-03
             157            1036     139.101E-03     143.250E-03
             157            1037     145.490E-03     149.741E-03
             157            1051     142.268E-03     147.353E-03
             157            1052     153.920E-03     158.712E-03
             158            1037     145.490E-03     149.741E-03
             158            1038     152.447E-03     155.597E-03
             158            1052     153.920E-03     158.712E-03
             158            1053     166.879E-03     170.761E-03
             159            1038     152.447E-03     155.597E-03
             159            1039     162.779E-03     164.563E-03
             159            1053     166.879E-03     170.761E-03
             159            1054     183.533E-03     185.008E-03
             160              59     169.327E-03     170.622E-03
             160              60     192.950E-03     192.760E-03
             160            1039     162.779E-03     164.563E-03
             160            1054     183.533E-03     185.008E-03
             161             157     51.6867E-03     48.3162E-03
             161             158     56.9168E-03     53.6263E-03
             161            1040     57.5958E-03     54.9078E-03
             161            1055     52.5050E-03     50.0817E-03
             162            1040     57.5958E-03     54.9078E-03
             162            1041     59.9199E-03     58.7100E-03
             162            1055     52.5050E-03     50.0817E-03
             162            1056     54.8130E-03     54.6770E-03
             163            1041     59.9199E-03     58.7100E-03
             163            1042     63.9290E-03     64.4559E-03
             163            1056     54.8130E-03     54.6770E-03
             163            1057     58.7922E-03     60.9029E-03
             164            1042     63.9290E-03     64.4559E-03
             164            1043     69.4147E-03     71.3292E-03
             164            1057     58.7922E-03     60.9029E-03
             164            1058     64.6132E-03     68.0576E-03
             165            1043     69.4147E-03     71.3292E-03
             165            1044     76.3025E-03     79.0141E-03
             165            1058     64.6132E-03     68.0576E-03
             165            1059     71.7195E-03     75.9745E-03
             166            1044     76.3025E-03     79.0141E-03
             166            1045     84.1593E-03     87.3792E-03
             166            1059     71.7195E-03     75.9745E-03
             166            1060     79.7349E-03     84.5888E-03
             167            1045     84.1593E-03     87.3792E-03
             167            1046     92.7598E-03     96.3292E-03
             167            1060     79.7349E-03     84.5888E-03
             167            1061     88.3997E-03     93.6957E-03
             168            1046     92.7598E-03     96.3292E-03
             168            1047     101.861E-03     105.807E-03
             168            1061     88.3997E-03     93.6957E-03
             168            1062     97.6401E-03     103.275E-03
             169            1047     101.861E-03     105.807E-03
             169            1048     111.364E-03     115.667E-03
             169            1062     97.6401E-03     103.275E-03
             169            1063     107.345E-03     113.359E-03
             170            1048     111.364E-03     115.667E-03
             170            1049     121.200E-03     125.952E-03
             170            1063     107.345E-03     113.359E-03
             170            1064     117.737E-03     124.006E-03
             171            1049     121.200E-03     125.952E-03
             171            1050     131.232E-03     136.389E-03
             171            1064     117.737E-03     124.006E-03
             171            1065     129.163E-03     135.666E-03
             172            1050     131.232E-03     136.389E-03
             172            1051     142.268E-03     147.353E-03
             172            1065     129.163E-03     135.666E-03
             172            1066     142.308E-03     148.671E-03
             173            1051     142.268E-03     147.353E-03
             173            1052     153.920E-03     158.712E-03
             173            1066     142.308E-03     148.671E-03
             173            1067     159.861E-03     164.962E-03
             174            1052     153.920E-03     158.712E-03
             174            1053     166.879E-03     170.761E-03
             174            1067     159.861E-03     164.962E-03
             174            1068     180.908E-03     184.466E-03
             175            1053     166.879E-03     170.761E-03
             175            1054     183.533E-03     185.008E-03
             175            1068     180.908E-03     184.466E-03
             175            1069     203.222E-03     206.839E-03
             176              60     192.950E-03     192.760E-03
             176              61     214.820E-03     219.162E-03
             176            1054     183.533E-03     185.008E-03
             176            1069     203.222E-03     206.839E-03
             177             156     46.3489E-03     43.8445E-03
             177             157     51.6867E-03     48.3162E-03
             177            1055     52.5050E-03     50.0817E-03
             177            1070     46.5895E-03     46.0901E-03
             178            1055     52.5050E-03     50.0817E-03
             178            1056     54.8130E-03     54.6770E-03
             178            1070     46.5895E-03     46.0901E-03
             178            1071     48.5005E-03     51.2166E-03
             179            1056     54.8130E-03     54.6770E-03
             179            1057     58.7922E-03     60.9029E-03
             179            1071     48.5005E-03     51.2166E-03
             179            1072     53.0477E-03     57.3620E-03
             180            1057     58.7922E-03     60.9029E-03
             180            1058     64.6132E-03     68.0576E-03
             180            1072     53.0477E-03     57.3620E-03
             180            1073     59.3346E-03     64.5556E-03
             181            1058     64.6132E-03     68.0576E-03
             181            1059     71.7195E-03     75.9745E-03
             181            1073     59.3346E-03     64.5556E-03
             181            1074     66.6619E-03     72.7261E-03
             182            1059     71.7195E-03     75.9745E-03
             182            1060     79.7349E-03     84.5888E-03
             182            1074     66.6619E-03     72.7261E-03
             182            1075     74.7889E-03     81.4033E-03
             183            1060     79.7349E-03     84.5888E-03
             183            1061     88.3997E-03     93.6957E-03
             183            1075     74.7889E-03     81.4033E-03
             183            1076     83.5390E-03     90.5617E-03
             184            1061     88.3997E-03     93.6957E-03
             184            1062     97.6401E-03     103.275E-03
             184            1076     83.5390E-03     90.5617E-03
             184            1077     92.7693E-03     100.095E-03
             185            1062     97.6401E-03     103.275E-03
             185            1063     107.345E-03     113.359E-03
             185            1077     92.7693E-03     100.095E-03
             185            1078     102.635E-03     110.149E-03
             186            1063     107.345E-03     113.359E-03
             186            1064     117.737E-03     124.006E-03
             186            1078     102.635E-03     110.149E-03
             186            1079     113.246E-03     120.928E-03
             187            1064     117.737E-03     124.006E-03
             187            1065     129.163E-03     135.666E-03
             187            1079     113.246E-03     120.928E-03
             187            1080     125.412E-03     133.047E-03
             188            1065     129.163E-03     135.666E-03
             188            1066     142.308E-03     148.671E-03
             188            1080     125.412E-03     133.047E-03
             188            1081     139.980E-03     147.532E-03
             189            1066     142.308E-03     148.671E-03
             189            1067     159.861E-03     164.962E-03
             189            1081     139.980E-03     147.532E-03
             189            1082     159.304E-03     166.193E-03
             190            1067     159.861E-03     164.962E-03
             190            1068     180.908E-03     184.466E-03
             190            1082     159.304E-03     166.193E-03
             190            1083     189.512E-03     193.829E-03
             191            1068     180.908E-03     184.466E-03
             191            1069     203.222E-03     206.839E-03
             191            1083     189.512E-03     193.829E-03
             191            1084     225.324E-03     225.784E-03
             192              61     214.820E-03     219.162E-03
             192              62     242.412E-03     240.861E-03
             192            1069     203.222E-03     206.839E-03
             192            1084     225.324E-03     225.784E-03
             193             155     38.1232E-03     40.9895E-03
             193             156     46.3489E-03     43.8445E-03
             193            1070     46.5895E-03     46.0901E-03
             193            1085     38.7870E-03     42.9375E-03
             194            1070     46.5895E-03     46.0901E-03
             194            1071     48.5005E-03     51.2166E-03
             194            1085     38.7870E-03     42.9375E-03
             194            1086     41.7842E-03     47.3821E-03
             195            1071     48.5005E-03     51.2166E-03
             195            1072     53.0477E-03     57.3620E-03
             195            1086     41.7842E-03     47.3821E-03
             195            1087     47.1253E-03     53.4435E-03
             196            1072     53.0477E-03     57.3620E-03
             196            1073     59.3346E-03     64.5556E-03
             196            1087     47.1253E-03     53.4435E-03
             196            1088     53.7188E-03     61.0441E-03
             197            1073     59.3346E-03     64.5556E-03
             197            1074     66.6619E-03     72.7261E-03
             197            1088     53.7188E-03     61.0441E-03
             197            1089     61.3104E-03     69.3515E-03
             198            1074     66.6619E-03     72.7261E-03
             198            1075     74.7889E-03     81.4033E-03
             198            1089     61.3104E-03     69.3515E-03
             198            1090     69.6137E-03     78.1873E-03
             199            1075     74.7889E-03     81.4033E-03
             199            1076     83.5390E-03     90.5617E-03
             199            1090     69.6137E-03     78.1873E-03
             199            1091     78.4479E-03     87.3311E-03
             200            1076     83.5390E-03     90.5617E-03
             200            1077     92.7693E-03     100.095E-03
             200            1091     78.4479E-03     87.3311E-03
             200            1092     87.8069E-03     96.8465E-03
             201            1077     92.7693E-03     100.095E-03
             201            1078     102.635E-03     110.149E-03
             201            1092     87.8069E-03     96.8465E-03
             201            1093     97.7265E-03     106.746E-03
             202            1078     102.635E-03     110.149E-03
             202            1079     113.246E-03     120.928E-03
             202            1093     97.7265E-03     106.746E-03
             202            1094     108.626E-03     117.518E-03
             203            1079     113.246E-03     120.928E-03
             203            1080     125.412E-03     133.047E-03
             203            1094     108.626E-03     117.518E-03
             203            1095     120.902E-03     129.539E-03
             204            1080     125.412E-03     133.047E-03
             204            1081     139.980E-03     147.532E-03
             204            1095     120.902E-03     129.539E-03
             204            1096     136.132E-03     144.506E-03
             205            1081     139.980E-03     147.532E-03
             205            1082     159.304E-03     166.193E-03
             205            1096     136.132E-03     144.506E-03
             205            1097     155.441E-03     163.771E-03
             206            1082     159.304E-03     166.193E-03
             206            1083     189.512E-03     193.829E-03
             206            1097     155.441E-03     163.771E-03
             206            1098     185.269E-03     194.062E-03
             207            1083     189.512E-03     193.829E-03
             207            1084     225.324E-03     225.784E-03
             207            1098     185.269E-03     194.062E-03
             207            1099     236.133E-03     243.206E-03
             208              62     242.412E-03     240.861E-03
             208              63     267.720E-03     272.568E-03
             208            1084     225.324E-03     225.784E-03
             208            1099     236.133E-03     243.206E-03
             209             154     66.9948E-03     80.1901E-03
             209             155     38.1232E-03     40.9895E-03
             209            1085     38.7870E-03     42.9375E-03
             209            1100     71.7403E-03     80.2486E-03
             210            1085     38.7870E-03     42.9375E-03
             210            1086     41.7842E-03     47.3821E-03
             210            1100     71.7403E-03     80.2486E-03
             210            1101     79.5254E-03     82.4628E-03
             211            1086     41.7842E-03     47.3821E-03
             211            1087     47.1253E-03     53.4435E-03
             211            1101     79.5254E-03     82.4628E-03
             211            1102     86.5580E-03     88.8938E-03
             212            1087     47.1253E-03     53.4435E-03
             212            1088     53.7188E-03     61.0441E-03
             212            1102     86.5580E-03     88.8938E-03
             212            1103     95.1924E-03     97.7423E-03
             213            1088     53.7188E-03     61.0441E-03
             213            1089     61.3104E-03     69.3515E-03
             213            1103     95.1924E-03     97.7423E-03
             213            1104     104.969E-03     107.589E-03
             214            1089     61.3104E-03     69.3515E-03
             214            1090     69.6137E-03     78.1873E-03
             214            1104     104.969E-03     107.589E-03
             214            1105     115.598E-03     118.259E-03
             215            1090     69.6137E-03     78.1873E-03
             215            1091     78.4479E-03     87.3311E-03
             215            1105     115.598E-03     118.259E-03
             215            1106     126.799E-03     129.228E-03
             216            1091     78.4479E-03     87.3311E-03
             216            1092     87.8069E-03     96.8465E-03
             216            1106     126.799E-03     129.228E-03
             216            1107     138.318E-03     140.362E-03
             217            1092     87.8069E-03     96.8465E-03
             217            1093     97.7265E-03     106.746E-03
             217            1107     138.318E-03     140.362E-03
             217            1108     150.025E-03     151.359E-03
             218            1093     97.7265E-03     106.746E-03
             218            1094     108.626E-03     117.518E-03
             218            1108     150.025E-03     151.359E-03
             218            1109     161.818E-03     162.264E-03
             219            1094     108.626E-03     117.518E-03
             219            1095     120.902E-03     129.539E-03
             219            1109     161.818E-03     162.264E-03
             219            1110     173.798E-03     172.952E-03
             220            1095     120.902E-03     129.539E-03
             220            1096     136.132E-03     144.506E-03
             220            1110     173.798E-03     172.952E-03
             220            1111     186.018E-03     183.839E-03
             221            1096     136.132E-03     144.506E-03
             221            1097     155.441E-03     163.771E-03
             221            1111     186.018E-03     183.839E-03
             221            1112     199.268E-03     195.593E-03
             222            1097     155.441E-03     163.771E-03
             222            1098     185.269E-03     194.062E-03
             222            1112     199.268E-03     195.593E-03
             222            1113     213.613E-03     209.338E-03
             223            1098     185.269E-03     194.062E-03
             223            1099     236.133E-03     243.206E-03
             223            1113     213.613E-03     209.338E-03
             223            1114     234.863E-03     235.270E-03
             224              63     267.720E-03     272.568E-03
             224              64     248.883E-03     253.541E-03
             224            1099     236.133E-03     243.206E-03
             224            1114     234.863E-03     235.270E-03
             225             153     102.508E-03     115.323E-03
             225             154     66.9948E-03     80.1901E-03
             225            1100     71.7403E-03     80.2486E-03
             225            1115     105.572E-03     114.915E-03
             226            1100     71.7403E-03     80.2486E-03
             226            1101     79.5254E-03     82.4628E-03
             226            1115     105.572E-03     114.915E-03
             226            1116     113.497E-03     116.392E-03
             227            1101     79.5254E-03     82.4628E-03
             227            1102     86.5580E-03     88.8938E-03
             227            1116     113.497E-03     116.392E-03
             227            1117     123.936E-03     122.909E-03
             228            1102     86.5580E-03     88.8938E-03
             228            1103     95.1924E-03     97.7423E-03
             228            1117     123.936E-03     122.909E-03
             228            1118     135.661E-03     133.296E-03
             229            1103     95.1924E-03     97.7423E-03
             229            1104     104.969E-03     107.589E-03
             229            1118     135.661E-03     133.296E-03
             229            1119     148.709E-03     145.621E-03
             230            1104     104.969E-03     107.589E-03
             230            1105     115.598E-03     118.259E-03
             230            1119     148.709E-03     145.621E-03
             230            1120     162.856E-03     159.176E-03
             231            1105     115.598E-03     118.259E-03
             231            1106     126.799E-03     129.228E-03
             231            1120     162.856E-03     159.176E-03
             231            1121     177.581E-03     173.347E-03
             232            1106     126.799E-03     129.228E-03
             232            1107     138.318E-03     140.362E-03
             232            1121     177.581E-03     173.347E-03
             232            1122     192.572E-03     187.592E-03
             233            1107     138.318E-03     140.362E-03
             233            1108     150.025E-03     151.359E-03
             233            1122     192.572E-03     187.592E-03
             233            1123     207.338E-03     201.493E-03
             234            1108     150.025E-03     151.359E-03
             234            1109     161.818E-03     162.264E-03
             234            1123     207.338E-03     201.493E-03
             234            1124     221.426E-03     214.482E-03
             235            1109     161.818E-03     162.264E-03
             235            1110     173.798E-03     172.952E-03
             235            1124     221.426E-03     214.482E-03
             235            1125     234.262E-03     226.046E-03
             236            1110     173.798E-03     172.952E-03
             236            1111     186.018E-03     183.839E-03
             236            1125     234.262E-03     226.046E-03
             236            1126     244.948E-03     235.436E-03
             237            1111     186.018E-03     183.839E-03
             237            1112     199.268E-03     195.593E-03
             237            1126     244.948E-03     235.436E-03
             237            1127     252.414E-03     241.710E-03
             238            1112     199.268E-03     195.593E-03
             238            1113     213.613E-03     209.338E-03
             238            1127     252.414E-03     241.710E-03
             238            1128     253.894E-03     243.228E-03
             239            1113     213.613E-03     209.338E-03
             239            1114     234.863E-03     235.270E-03
             239            1128     253.894E-03     243.228E-03
             239            1129     246.523E-03     235.945E-03
             240              64     248.883E-03     253.541E-03
             240              65     240.455E-03     229.447E-03
             240            1114     234.863E-03     235.270E-03
             240            1129     246.523E-03     235.945E-03
             241             152     97.2497E-03     97.9433E-03
             241             153     102.508E-03     115.323E-03
             241            1115     105.572E-03     114.915E-03
             241            1130     97.7676E-03     101.686E-03
             242            1115     105.572E-03     114.915E-03
             242            1116     113.497E-03     116.392E-03
             242            1130     97.7676E-03     101.686E-03
             242            1131     103.105E-03     108.417E-03
             243            1116     113.497E-03     116.392E-03
             243            1117     123.936E-03     122.909E-03
             243            1131     103.105E-03     108.417E-03
             243            1132     114.650E-03     116.470E-03
             244            1117     123.936E-03     122.909E-03
             244            1118     135.661E-03     133.296E-03
             244            1132     114.650E-03     116.470E-03
             244            1133     128.684E-03     128.288E-03
             245            1118     135.661E-03     133.296E-03
             245            1119     148.709E-03     145.621E-03
             245            1133     128.684E-03     128.288E-03
             245            1134     144.059E-03     142.641E-03
             246            1119     148.709E-03     145.621E-03
             246            1120     162.856E-03     159.176E-03
             246            1134     144.059E-03     142.641E-03
             246            1135     160.531E-03     158.474E-03
             247            1120     162.856E-03     159.176E-03
             247            1121     177.581E-03     173.347E-03
             247            1135     160.531E-03     158.474E-03
             247            1136     177.679E-03     175.197E-03
             248            1121     177.581E-03     173.347E-03
             248            1122     192.572E-03     187.592E-03
             248            1136     177.679E-03     175.197E-03
             248            1137     195.116E-03     192.302E-03
             249            1122     192.572E-03     187.592E-03
             249            1123     207.338E-03     201.493E-03
             249            1137     195.116E-03     192.302E-03
             249            1138     212.448E-03     209.325E-03
             250            1123     207.338E-03     201.493E-03
             250            1124     221.426E-03     214.482E-03
             250            1138     212.448E-03     209.325E-03
             250            1139     229.124E-03     225.822E-03
             251            1124     221.426E-03     214.482E-03
             251            1125     234.262E-03     226.046E-03
             251            1139     229.124E-03     225.822E-03
             251            1140     244.414E-03     241.159E-03
             252            1125     234.262E-03     226.046E-03
             252            1126     244.948E-03     235.436E-03
             252            1140     244.414E-03     241.159E-03
             252            1141     257.343E-03     254.566E-03
             253            1126     244.948E-03     235.436E-03
             253            1127     252.414E-03     241.710E-03
             253            1141     257.343E-03     254.566E-03
             253            1142     266.326E-03     265.011E-03
             254            1127     252.414E-03     241.710E-03
             254            1128     253.894E-03     243.228E-03
             254            1142     266.326E-03     265.011E-03
             254            1143     269.162E-03     270.091E-03
             255            1128     253.894E-03     243.228E-03
             255            1129     246.523E-03     235.945E-03
             255            1143     269.162E-03     270.091E-03
             255            1144     270.198E-03     270.749E-03
             256              65     240.455E-03     229.447E-03
             256              66     271.704E-03     270.610E-03
             256            1129     246.523E-03     235.945E-03
             256            1144     270.198E-03     270.749E-03
             257             151     86.2828E-03     84.9859E-03
             257             152     97.2497E-03     97.9433E-03
             257            1130     97.7676E-03     101.686E-03
             257            1145     88.7980E-03     88.9767E-03
             258            1130     97.7676E-03     101.686E-03
             258            1131     103.105E-03     108.417E-03
             258            1145     88.7980E-03     88.9767E-03
             258            1146     95.8207E-03     98.6556E-03
             259            1131     103.105E-03     108.417E-03
             259            1132     114.650E-03     116.470E-03
             259            1146     95.8207E-03     98.6556E-03
             259            1147     107.422E-03     110.503E-03
             260            1132     114.650E-03     116.470E-03
             260            1133     128.684E-03     128.288E-03
             260            1147     107.422E-03     110.503E-03
             260            1148     122.922E-03     124.378E-03
             261            1133     128.684E-03     128.288E-03
             261            1134     144.059E-03     142.641E-03
             261            1148     122.922E-03     124.378E-03
             261            1149     140.244E-03     140.731E-03
             262            1134     144.059E-03     142.641E-03
             262            1135     160.531E-03     158.474E-03
             262            1149     140.244E-03     140.731E-03
             262            1150     158.659E-03     158.628E-03
             263            1135     160.531E-03     158.474E-03
             263            1136     177.679E-03     175.197E-03
             263            1150     158.659E-03     158.628E-03
             263            1151     177.775E-03     177.527E-03
             264            1136     177.679E-03     175.197E-03
             264            1137     195.116E-03     192.302E-03
             264            1151     177.775E-03     177.527E-03
             264            1152     197.234E-03     196.970E-03
             265            1137     195.116E-03     192.302E-03
             265            1138     212.448E-03     209.325E-03
             265            1152     197.234E-03     196.970E-03
             265            1153     216.596E-03     216.556E-03
             266            1138     212.448E-03     209.325E-03
             266            1139     229.124E-03     225.822E-03
             266            1153     216.596E-03     216.556E-03
             266            1154     235.368E-03     235.778E-03
             267            1139     229.124E-03     225.822E-03
             267            1140     244.414E-03     241.159E-03
             267            1154     235.368E-03     235.778E-03
             267            1155     252.774E-03     254.015E-03
             268            1140     244.414E-03     241.159E-03
             268            1141     257.343E-03     254.566E-03
             268            1155     252.774E-03     254.015E-03
             268            1156     267.731E-03     270.355E-03
             269            1141     257.343E-03     254.566E-03
             269            1142     266.326E-03     265.011E-03
             269            1156     267.731E-03     270.355E-03
             269            1157     279.080E-03     283.343E-03
             270            1142     266.326E-03     265.011E-03
             270            1143     269.162E-03     270.091E-03
             270            1157     279.080E-03     283.343E-03
             270            1158     286.716E-03     291.815E-03
             271            1143     269.162E-03     270.091E-03
             271            1144     270.198E-03     270.749E-03
             271            1158     286.716E-03     291.815E-03
             271            1159     295.856E-03     298.233E-03
             272              66     271.704E-03     270.610E-03
             272              67     301.905E-03     301.623E-03
             272            1144     270.198E-03     270.749E-03
             272            1159     295.856E-03     298.233E-03
             273             150     77.5850E-03     76.3522E-03
             273             151     86.2828E-03     84.9859E-03
             273            1145     88.7980E-03     88.9767E-03
             273            1160     80.1548E-03     79.9621E-03
             274            1145     88.7980E-03     88.9767E-03
             274            1146     95.8207E-03     98.6556E-03
             274            1160     80.1548E-03     79.9621E-03
             274            1161     88.3325E-03     90.0168E-03
             275            1146     95.8207E-03     98.6556E-03
             275            1147     107.422E-03     110.503E-03
             275            1161     88.3325E-03     90.0168E-03
             275            1162     101.439E-03     104.316E-03
             276            1147     107.422E-03     110.503E-03
             276            1148     122.922E-03     124.378E-03
             276            1162     101.439E-03     104.316E-03
             276            1163     117.899E-03     120.759E-03
             277            1148     122.922E-03     124.378E-03
             277            1149     140.244E-03     140.731E-03
             277            1163     117.899E-03     120.759E-03
             277            1164     136.620E-03     138.910E-03
             278            1149     140.244E-03     140.731E-03
             278            1150     158.659E-03     158.628E-03
             278            1164     136.620E-03     138.910E-03
             278            1165     156.491E-03     158.546E-03
             279            1150     158.659E-03     158.628E-03
             279            1151     177.775E-03     177.527E-03
             279            1165     156.491E-03     158.546E-03
             279            1166     177.091E-03     179.139E-03
             280            1151     177.775E-03     177.527E-03
             280            1152     197.234E-03     196.970E-03
             280            1166     177.091E-03     179.139E-03
             280            1167     198.026E-03     200.356E-03
             281            1152     197.234E-03     196.970E-03
             281            1153     216.596E-03     216.556E-03
             281            1167     198.026E-03     200.356E-03
             281            1168     219.027E-03     221.852E-03
             282            1153     216.596E-03     216.556E-03
             282            1154     235.368E-03     235.778E-03
             282            1168     219.027E-03     221.852E-03
             282            1169     239.536E-03     243.186E-03
             283            1154     235.368E-03     235.778E-03
             283            1155     252.774E-03     254.015E-03
             283            1169     239.536E-03     243.186E-03
             283            1170     258.969E-03     263.685E-03
             284            1155     252.774E-03     254.015E-03
             284            1156     267.731E-03     270.355E-03
             284            1170     258.969E-03     263.685E-03
             284            1171     276.489E-03     282.387E-03
             285            1156     267.731E-03     270.355E-03
             285            1157     279.080E-03     283.343E-03
             285            1171     276.489E-03     282.387E-03
             285            1172     291.277E-03     298.089E-03
             286            1157     279.080E-03     283.343E-03
             286            1158     286.716E-03     291.815E-03
             286            1172     291.277E-03     298.089E-03
             286            1173     304.805E-03     310.481E-03
             287            1158     286.716E-03     291.815E-03
             287            1159     295.856E-03     298.233E-03
             287            1173     304.805E-03     310.481E-03
             287            1174     319.067E-03     321.623E-03
             288              67     301.905E-03     301.623E-03
             288              68     326.547E-03     327.333E-03
             288            1159     295.856E-03     298.233E-03
             288            1174     319.067E-03     321.623E-03
             289             149     68.6329E-03     65.8974E-03
             289             150     77.5850E-03     76.3522E-03
             289            1160     80.1548E-03     79.9621E-03
             289            1175     71.7809E-03     70.8365E-03
             290            1160     80.1548E-03     79.9621E-03
             290            1161     88.3325E-03     90.0168E-03
             290            1175     71.7809E-03     70.8365E-03
             290            1176     81.0417E-03     82.7679E-03
             291            1161     88.3325E-03     90.0168E-03
             291            1162     101.439E-03     104.316E-03
             291            1176     81.0417E-03     82.7679E-03
             291            1177     95.3943E-03     98.4769E-03
             292            1162     101.439E-03     104.316E-03
             292            1163     117.899E-03     120.759E-03
             292            1177     95.3943E-03     98.4769E-03
             292            1178     113.054E-03     116.809E-03
             293            1163     117.899E-03     120.759E-03
             293            1164     136.620E-03     138.910E-03
             293            1178     113.054E-03     116.809E-03
             293            1179     132.690E-03     136.595E-03
             294            1164     136.620E-03     138.910E-03
             294            1165     156.491E-03     158.546E-03
             294            1179     132.690E-03     136.595E-03
             294            1180     153.576E-03     157.520E-03
             295            1165     156.491E-03     158.546E-03
             295            1166     177.091E-03     179.139E-03
             295            1180     153.576E-03     157.520E-03
             295            1181     175.137E-03     179.325E-03
             296            1166     177.091E-03     179.139E-03
             296            1167     198.026E-03     200.356E-03
             296            1181     175.137E-03     179.325E-03
             296            1182     197.165E-03     201.779E-03
             297            1167     198.026E-03     200.356E-03
             297            1168     219.027E-03     221.852E-03
             297            1182     197.165E-03     201.779E-03
             297            1183     219.313E-03     224.614E-03
             298            1168     219.027E-03     221.852E-03
             298            1169     239.536E-03     243.186E-03
             298            1183     219.313E-03     224.614E-03
             298            1184     241.464E-03     247.567E-03
             299            1169     239.536E-03     243.186E-03
             299            1170     258.969E-03     263.685E-03
             299            1184     241.464E-03     247.567E-03
             299            1185     263.017E-03     270.102E-03
             300            1170     258.969E-03     263.685E-03
             300            1171     276.489E-03     282.387E-03
             300            1185     263.017E-03     270.102E-03
             300            1186     283.544E-03     291.324E-03
             301            1171     276.489E-03     282.387E-03
             301            1172     291.277E-03     298.089E-03
             301            1186     283.544E-03     291.324E-03
             301            1187     302.958E-03     310.429E-03
             302            1172     291.277E-03     298.089E-03
             302            1173     304.805E-03     310.481E-03
             302            1187     302.958E-03     310.429E-03
             302            1188     321.184E-03     327.318E-03
             303            1173     304.805E-03     310.481E-03
             303            1174     319.067E-03     321.623E-03
             303            1188     321.184E-03     327.318E-03
             303            1189     340.428E-03     343.396E-03
             304              68     326.547E-03     327.333E-03
             304              69     350.746E-03     351.484E-03
             304            1174     319.067E-03     321.623E-03
             304            1189     340.428E-03     343.396E-03
             305             148     59.4667E-03     57.5215E-03
             305             149     68.6329E-03     65.8974E-03
             305            1175     71.7809E-03     70.8365E-03
             305            1190     63.1467E-03     62.4763E-03
             306            1175     71.7809E-03     70.8365E-03
             306            1176     81.0417E-03     82.7679E-03
             306            1190     63.1467E-03     62.4763E-03
             306            1191     73.6419E-03     75.5465E-03
             307            1176     81.0417E-03     82.7679E-03
             307            1177     95.3943E-03     98.4769E-03
             307            1191     73.6419E-03     75.5465E-03
             307            1192     89.1751E-03     92.9758E-03
             308            1177     95.3943E-03     98.4769E-03
             308            1178     113.054E-03     116.809E-03
             308            1192     89.1751E-03     92.9758E-03
             308            1193     107.793E-03     112.512E-03
             309            1178     113.054E-03     116.809E-03
             309            1179     132.690E-03     136.595E-03
             309            1193     107.793E-03     112.512E-03
             309            1194     128.192E-03     133.464E-03
             310            1179     132.690E-03     136.595E-03
             310            1180     153.576E-03     157.520E-03
             310            1194     128.192E-03     133.464E-03
             310            1195     149.648E-03     155.274E-03
             311            1180     153.576E-03     157.520E-03
             311            1181     175.137E-03     179.325E-03
             311            1195     149.648E-03     155.274E-03
             311            1196     171.820E-03     177.831E-03
             312            1181     175.137E-03     179.325E-03
             312            1182     197.165E-03     201.779E-03
             312            1196     171.820E-03     177.831E-03
             312            1197     194.448E-03     200.977E-03
             313            1182     197.165E-03     201.779E-03
             313            1183     219.313E-03     224.614E-03
             313            1197     194.448E-03     200.977E-03
             313            1198     217.526E-03     224.707E-03
             314            1183     219.313E-03     224.614E-03
             314            1184     241.464E-03     247.567E-03
             314            1198     217.526E-03     224.707E-03
             314            1199     240.846E-03     248.808E-03
             315            1184     241.464E-03     247.567E-03
             315            1185     263.017E-03     270.102E-03
             315            1199     240.846E-03     248.808E-03
             315            1200     264.727E-03     273.222E-03
             316            1185     263.017E-03     270.102E-03
             316            1186     283.544E-03     291.324E-03
             316            1200     264.727E-03     273.222E-03
             316            1201     288.713E-03     297.496E-03
             317            1186     283.544E-03     291.324E-03
             317            1187     302.958E-03     310.429E-03
             317            1201     288.713E-03     297.496E-03
             317            1202     312.648E-03     320.800E-03
             318            1187     302.958E-03     310.429E-03
             318            1188     321.184E-03     327.318E-03
             318            1202     312.648E-03     320.800E-03
             318            1203     336.722E-03     342.637E-03
             319            1188     321.184E-03     327.318E-03
             319            1189     340.428E-03     343.396E-03
             319            1203     336.722E-03     342.637E-03
             319            1204     360.266E-03     364.164E-03
             320              69     350.746E-03     351.484E-03
             320              70     371.909E-03     375.258E-03
             320            1189     340.428E-03     343.396E-03
             320            1204     360.266E-03     364.164E-03
             321             147     50.1751E-03     47.8522E-03
             321             148     59.4667E-03     57.5215E-03
             321            1190     63.1467E-03     62.4763E-03
             321            1205     54.2812E-03     53.9999E-03
             322            1190     63.1467E-03     62.4763E-03
             322            1191     73.6419E-03     75.5465E-03
             322            1205     54.2812E-03     53.9999E-03
             322            1206     65.8816E-03     68.7123E-03
             323            1191     73.6419E-03     75.5465E-03
             323            1192     89.1751E-03     92.9758E-03
             323            1206     65.8816E-03     68.7123E-03
             323            1207     82.6355E-03     87.3417E-03
             324            1192     89.1751E-03     92.9758E-03
             324            1193     107.793E-03     112.512E-03
             324            1207     82.6355E-03     87.3417E-03
             324            1208     102.043E-03     107.975E-03
             325            1193     107.793E-03     112.512E-03
             325            1194     128.192E-03     133.464E-03
             325            1208     102.043E-03     107.975E-03
             325            1209     122.953E-03     129.560E-03
             326            1194     128.192E-03     133.464E-03
             326            1195     149.648E-03     155.274E-03
             326            1209     122.953E-03     129.560E-03
             326            1210     144.752E-03     151.867E-03
             327            1195     149.648E-03     155.274E-03
             327            1196     171.820E-03     177.831E-03
             327            1210     144.752E-03     151.867E-03
             327            1211     167.168E-03     174.703E-03
             328            1196     171.820E-03     177.831E-03
             328            1197     194.448E-03     200.977E-03
             328            1211     167.168E-03     174.703E-03
             328            1212     190.107E-03     198.143E-03
             329            1197     194.448E-03     200.977E-03
             329            1198     217.526E-03     224.707E-03
             329            1212     190.107E-03     198.143E-03
             329            1213     213.604E-03     222.171E-03
             330            1198     217.526E-03     224.707E-03
             330            1199     240.846E-03     248.808E-03
             330            1213     213.604E-03     222.171E-03
             330            1214     237.954E-03     247.075E-03
             331            1199     240.846E-03     248.808E-03
             331            1200     264.727E-03     273.222E-03
             331            1214     237.954E-03     247.075E-03
             331            1215     263.293E-03     272.861E-03
             332            1200     264.727E-03     273.222E-03
             332            1201     288.713E-03     297.496E-03
             332            1215     263.293E-03     272.861E-03
             332            1216     290.951E-03     300.152E-03
             333            1201     288.713E-03     297.496E-03
             333            1202     312.648E-03     320.800E-03
             333            1216     290.951E-03     300.152E-03
             333            1217     320.227E-03     328.640E-03
             334            1202     312.648E-03     320.800E-03
             334            1203     336.722E-03     342.637E-03
             334            1217     320.227E-03     328.640E-03
             334            1218     350.040E-03     357.049E-03
             335            1203     336.722E-03     342.637E-03
             335            1204     360.266E-03     364.164E-03
             335            1218     350.040E-03     357.049E-03
             335            1219     380.421E-03     383.618E-03
             336              70     371.909E-03     375.258E-03
             336              71     395.536E-03     395.985E-03
             336            1204     360.266E-03     364.164E-03
             336            1219     380.421E-03     383.618E-03
             337             146     39.8798E-03     38.7312E-03
             337             147     50.1751E-03     47.8522E-03
             337            1205     54.2812E-03     53.9999E-03
             337            1220     44.8020E-03     45.5852E-03
             338            1205     54.2812E-03     53.9999E-03
             338            1206     65.8816E-03     68.7123E-03
             338            1220     44.8020E-03     45.5852E-03
             338            1221     57.8986E-03     62.0083E-03
             339            1206     65.8816E-03     68.7123E-03
             339            1207     82.6355E-03     87.3417E-03
             339            1221     57.8986E-03     62.0083E-03
             339            1222     75.7504E-03     81.9480E-03
             340            1207     82.6355E-03     87.3417E-03
             340            1208     102.043E-03     107.975E-03
             340            1222     75.7504E-03     81.9480E-03
             340            1223     95.8802E-03     103.232E-03
             341            1208     102.043E-03     107.975E-03
             341            1209     122.953E-03     129.560E-03
             341            1223     95.8802E-03     103.232E-03
             341            1224     117.126E-03     125.206E-03
             342            1209     122.953E-03     129.560E-03
             342            1210     144.752E-03     151.867E-03
             342            1224     117.126E-03     125.206E-03
             342            1225     139.068E-03     147.579E-03
             343            1210     144.752E-03     151.867E-03
             343            1211     167.168E-03     174.703E-03
             343            1225     139.068E-03     147.579E-03
             343            1226     161.485E-03     170.370E-03
             344            1211     167.168E-03     174.703E-03
             344            1212     190.107E-03     198.143E-03
             344            1226     161.485E-03     170.370E-03
             344            1227     184.442E-03     193.612E-03
             345            1212     190.107E-03     198.143E-03
             345            1213     213.604E-03     222.171E-03
             345            1227     184.442E-03     193.612E-03
             345            1228     208.036E-03     217.565E-03
             346            1213     213.604E-03     222.171E-03
             346            1214     237.954E-03     247.075E-03
             346            1228     208.036E-03     217.565E-03
             346            1229     232.716E-03     242.489E-03
             347            1214     237.954E-03     247.075E-03
             347            1215     263.293E-03     272.861E-03
             347            1229     232.716E-03     242.489E-03
             347            1230     259.199E-03     269.176E-03
             348            1215     263.293E-03     272.861E-03
             348            1216     290.951E-03     300.152E-03
             348            1230     259.199E-03     269.176E-03
             348            1231     288.300E-03     298.174E-03
             349            1216     290.951E-03     300.152E-03
             349            1217     320.227E-03     328.640E-03
             349            1231     288.300E-03     298.174E-03
             349            1232     323.362E-03     331.706E-03
             350            1217     320.227E-03     328.640E-03
             350            1218     350.040E-03     357.049E-03
             350            1232     323.362E-03     331.706E-03
             350            1233     362.068E-03     368.420E-03
             351            1218     350.040E-03     357.049E-03
             351            1219     380.421E-03     383.618E-03
             351            1233     362.068E-03     368.420E-03
             351            1234     398.573E-03     404.748E-03
             352              71     395.536E-03     395.985E-03
             352              72     416.038E-03     422.849E-03
             352            1219     380.421E-03     383.618E-03
             352            1234     398.573E-03     404.748E-03
             353             145     29.1033E-03     29.0078E-03
             353             146     39.8798E-03     38.7312E-03
             353            1220     44.8020E-03     45.5852E-03
             353            1235     34.9054E-03     37.4248E-03
             354            1220     44.8020E-03     45.5852E-03
             354            1221     57.8986E-03     62.0083E-03
             354            1235     34.9054E-03     37.4248E-03
             354            1236     49.7148E-03     56.0345E-03
             355            1221     57.8986E-03     62.0083E-03
             355            1222     75.7504E-03     81.9480E-03
             355            1236     49.7148E-03     56.0345E-03
             355            1237     68.8532E-03     77.0431E-03
             356            1222     75.7504E-03     81.9480E-03
             356            1223     95.8802E-03     103.232E-03
             356            1237     68.8532E-03     77.0431E-03
             356            1238     89.5778E-03     98.7593E-03
             357            1223     95.8802E-03     103.232E-03
             357            1224     117.126E-03     125.206E-03
             357            1238     89.5778E-03     98.7593E-03
             357            1239     111.062E-03     120.769E-03
             358            1224     117.126E-03     125.206E-03
             358            1225     139.068E-03     147.579E-03
             358            1239     111.062E-03     120.769E-03
             358            1240     132.954E-03     142.976E-03
             359            1225     139.068E-03     147.579E-03
             359            1226     161.485E-03     170.370E-03
             359            1240     132.954E-03     142.976E-03
             359            1241     155.262E-03     165.394E-03
             360            1226     161.485E-03     170.370E-03
             360            1227     184.442E-03     193.612E-03
             360            1241     155.262E-03     165.394E-03
             360            1242     177.972E-03     188.145E-03
             361            1227     184.442E-03     193.612E-03
             361            1228     208.036E-03     217.565E-03
             361            1242     177.972E-03     188.145E-03
             361            1243     201.445E-03     211.520E-03
             362            1228     208.036E-03     217.565E-03
             362            1229     232.716E-03     242.489E-03
             362            1243     201.445E-03     211.520E-03
             362            1244     225.948E-03     235.958E-03
             363            1229     232.716E-03     242.489E-03
             363            1230     259.199E-03     269.176E-03
             363            1244     225.948E-03     235.958E-03
             363            1245     252.546E-03     262.302E-03
             364            1230     259.199E-03     269.176E-03
             364            1231     288.300E-03     298.174E-03
             364            1245     252.546E-03     262.302E-03
             364            1246     282.323E-03     291.955E-03
             365            1231     288.300E-03     298.174E-03
             365            1232     323.362E-03     331.706E-03
             365            1246     282.323E-03     291.955E-03
             365            1247     317.777E-03     326.959E-03
             366            1232     323.362E-03     331.706E-03
             366            1233     362.068E-03     368.420E-03
             366            1247     317.777E-03     326.959E-03
             366            1248     366.363E-03     372.727E-03
             367            1233     362.068E-03     368.420E-03
             367            1234     398.573E-03     404.748E-03
             367            1248     366.363E-03     372.727E-03
             367            1249     419.008E-03     420.176E-03
             368              72     416.038E-03     422.849E-03
             368              73     442.910E-03     441.060E-03
             368            1234     398.573E-03     404.748E-03
             368            1249     419.008E-03     420.176E-03
             369             144     16.8879E-03     20.8362E-03
             369             145     29.1033E-03     29.0078E-03
             369            1235     34.9054E-03     37.4248E-03
             369            1250     24.5811E-03     30.8339E-03
             370            1235     34.9054E-03     37.4248E-03
             370            1236     49.7148E-03     56.0345E-03
             370            1250     24.5811E-03     30.8339E-03
             370            1251     42.1689E-03     51.6139E-03
             371            1236     49.7148E-03     56.0345E-03
             371            1237     68.8532E-03     77.0431E-03
             371            1251     42.1689E-03     51.6139E-03
             371            1252     62.5501E-03     73.2424E-03
             372            1237     68.8532E-03     77.0431E-03
             372            1238     89.5778E-03     98.7593E-03
             372            1252     62.5501E-03     73.2424E-03
             372            1253     83.7228E-03     95.0522E-03
             373            1238     89.5778E-03     98.7593E-03
             373            1239     111.062E-03     120.769E-03
             373            1253     83.7228E-03     95.0522E-03
             373            1254     105.200E-03     116.869E-03
             374            1239     111.062E-03     120.769E-03
             374            1240     132.954E-03     142.976E-03
             374            1254     105.200E-03     116.869E-03
             374            1255     126.965E-03     138.696E-03
             375            1240     132.954E-03     142.976E-03
             375            1241     155.262E-03     165.394E-03
             375            1255     126.965E-03     138.696E-03
             375            1256     148.978E-03     160.543E-03
             376            1241     155.262E-03     165.394E-03
             376            1242     177.972E-03     188.145E-03
             376            1256     148.978E-03     160.543E-03
             376            1257     171.450E-03     182.628E-03
             377            1242     177.972E-03     188.145E-03
             377            1243     201.445E-03     211.520E-03
             377            1257     171.450E-03     182.628E-03
             377            1258     194.522E-03     205.095E-03
             378            1243     201.445E-03     211.520E-03
             378            1244     225.948E-03     235.958E-03
             378            1258     194.522E-03     205.095E-03
             378            1259     218.827E-03     228.626E-03
             379            1244     225.948E-03     235.958E-03
             379            1245     252.546E-03     262.302E-03
             379            1259     218.827E-03     228.626E-03
             379            1260     244.781E-03     253.702E-03
             380            1245     252.546E-03     262.302E-03
             380            1246     282.323E-03     291.955E-03
             380            1260     244.781E-03     253.702E-03
             380            1261     274.281E-03     282.389E-03
             381            1246     282.323E-03     291.955E-03
             381            1247     317.777E-03     326.959E-03
             381            1261     274.281E-03     282.389E-03
             381            1262     308.374E-03     316.119E-03
             382            1247     317.777E-03     326.959E-03
             382            1248     366.363E-03     372.727E-03
             382            1262     308.374E-03     316.119E-03
             382            1263     354.575E-03     363.102E-03
             383            1248     366.363E-03     372.727E-03
             383            1249     419.008E-03     420.176E-03
             383            1263     354.575E-03     363.102E-03
             383            1264     424.679E-03     430.665E-03
             384              73     442.910E-03     441.060E-03
             384              74     466.463E-03     469.089E-03
             384            1249     419.008E-03     420.176E-03
             384            1264     424.679E-03     430.665E-03
             385             143     69.6429E-03     84.8844E-03
             385             144     16.8879E-03     20.8362E-03
             385            1250     24.5811E-03     30.8339E-03
             385            1265     79.3667E-03     90.1290E-03
             386            1250     24.5811E-03     30.8339E-03
             386            1251     42.1689E-03     51.6139E-03
             386            1265     79.3667E-03     90.1290E-03
             386            1266     97.6997E-03     103.144E-03
             387            1251     42.1689E-03     51.6139E-03
             387            1252     62.5501E-03     73.2424E-03
             387            1266     97.6997E-03     103.144E-03
             387            1267     116.160E-03     120.984E-03
             388            1252     62.5501E-03     73.2424E-03
             388            1253     83.7228E-03     95.0522E-03
             388            1267     116.160E-03     120.984E-03
             388            1268     136.346E-03     141.407E-03
             389            1253     83.7228E-03     95.0522E-03
             389            1254     105.200E-03     116.869E-03
             389            1268     136.346E-03     141.407E-03
             389            1269     157.864E-03     162.912E-03
             390            1254     105.200E-03     116.869E-03
             390            1255     126.965E-03     138.696E-03
             390            1269     157.864E-03     162.912E-03
             390            1270     180.288E-03     185.195E-03
             391            1255     126.965E-03     138.696E-03
             391            1256     148.978E-03     160.543E-03
             391            1270     180.288E-03     185.195E-03
             391            1271     203.393E-03     207.739E-03
             392            1256     148.978E-03     160.543E-03
             392            1257     171.450E-03     182.628E-03
             392            1271     203.393E-03     207.739E-03
             392            1272     226.864E-03     230.399E-03
             393            1257     171.450E-03     182.628E-03
             393            1258     194.522E-03     205.095E-03
             393            1272     226.864E-03     230.399E-03
             393            1273     250.712E-03     252.889E-03
             394            1258     194.522E-03     205.095E-03
             394            1259     218.827E-03     228.626E-03
             394            1273     250.712E-03     252.889E-03
             394            1274     274.727E-03     275.320E-03
             395            1259     218.827E-03     228.626E-03
             395            1260     244.781E-03     253.702E-03
             395            1274     274.727E-03     275.320E-03
             395            1275     299.303E-03     297.647E-03
             396            1260     244.781E-03     253.702E-03
             396            1261     274.281E-03     282.389E-03
             396            1275     299.303E-03     297.647E-03
             396            1276     324.246E-03     320.414E-03
             397            1261     274.281E-03     282.389E-03
             397            1262     308.374E-03     316.119E-03
             397            1276     324.246E-03     320.414E-03
             397            1277     351.043E-03     344.798E-03
             398            1262     308.374E-03     316.119E-03
             398            1263     354.575E-03     363.102E-03
             398            1277     351.043E-03     344.798E-03
             398            1278     379.394E-03     372.181E-03
             399            1263     354.575E-03     363.102E-03
             399            1264     424.679E-03     430.665E-03
             399            1278     379.394E-03     372.181E-03
             399            1279     418.282E-03     418.947E-03
             400              74     466.463E-03     469.089E-03
             400              75     443.474E-03     451.083E-03
             400            1264     424.679E-03     430.665E-03
             400            1279     418.282E-03     418.947E-03
             401             142     127.417E-03     144.526E-03
             401             143     69.6429E-03     84.8844E-03
             401            1265     79.3667E-03     90.1290E-03
             401            1280     132.846E-03     145.185E-03
             402            1265     79.3667E-03     90.1290E-03
             402            1266     97.6997E-03     103.144E-03
             402            1280     132.846E-03     145.185E-03
             402            1281     146.788E-03     150.922E-03
             403            1266     97.6997E-03     103.144E-03
             403            1267     116.160E-03     120.984E-03
             403            1281     146.788E-03     150.922E-03
             403            1282     165.356E-03     165.199E-03
             404            1267     116.160E-03     120.984E-03
             404            1268     136.346E-03     141.407E-03
             404            1282     165.356E-03     165.199E-03
             404            1283     186.573E-03     185.313E-03
             405            1268     136.346E-03     141.407E-03
             405            1269     157.864E-03     162.912E-03
             405            1283     186.573E-03     185.313E-03
             405            1284     210.006E-03     208.292E-03
             406            1269     157.864E-03     162.912E-03
             406            1270     180.288E-03     185.195E-03
             406            1284     210.006E-03     208.292E-03
             406            1285     235.142E-03     232.966E-03
             407            1270     180.288E-03     185.195E-03
             407            1271     203.393E-03     207.739E-03
             407            1285     235.142E-03     232.966E-03
             407            1286     261.190E-03     258.461E-03
             408            1271     203.393E-03     207.739E-03
             408            1272     226.864E-03     230.399E-03
             408            1286     261.190E-03     258.461E-03
             408            1287     287.751E-03     284.114E-03
             409            1272     226.864E-03     230.399E-03
             409            1273     250.712E-03     252.889E-03
             409            1287     287.751E-03     284.114E-03
             409            1288     314.233E-03     309.446E-03
             410            1273     250.712E-03     252.889E-03
             410            1274     274.727E-03     275.320E-03
             410            1288     314.233E-03     309.446E-03
             410            1289     340.221E-03     333.922E-03
             411            1274     274.727E-03     275.320E-03
             411            1275     299.303E-03     297.647E-03
             411            1289     340.221E-03     333.922E-03
             411            1290     365.109E-03     357.054E-03
             412            1275     299.303E-03     297.647E-03
             412            1276     324.246E-03     320.414E-03
             412            1290     365.109E-03     357.054E-03
             412            1291     388.258E-03     378.430E-03
             413            1276     324.246E-03     320.414E-03
             413            1277     351.043E-03     344.798E-03
             413            1291     388.258E-03     378.430E-03
             413            1292     408.606E-03     397.253E-03
             414            1277     351.043E-03     344.798E-03
             414            1278     379.394E-03     372.181E-03
             414            1292     408.606E-03     397.253E-03
             414            1293     424.607E-03     413.540E-03
             415            1278     379.394E-03     372.181E-03
             415            1279     418.282E-03     418.947E-03
             415            1293     424.607E-03     413.540E-03
             415            1294     434.521E-03     422.619E-03
             416              75     443.474E-03     451.083E-03
             416              76     437.638E-03     424.075E-03
             416            1279     418.282E-03     418.947E-03
             416            1294     434.521E-03     422.619E-03
             417             141     116.980E-03     119.556E-03
             417             142     127.417E-03     144.526E-03
             417            1280     132.846E-03     145.185E-03
             417            1295     119.358E-03     126.055E-03
             418            1280     132.846E-03     145.185E-03
             418            1281     146.788E-03     150.922E-03
             418            1295     119.358E-03     126.055E-03
             418            1296     130.974E-03     139.172E-03
             419            1281     146.788E-03     150.922E-03
             419            1282     165.356E-03     165.199E-03
             419            1296     130.974E-03     139.172E-03
             419            1297     152.250E-03     155.970E-03
             420            1282     165.356E-03     165.199E-03
             420            1283     186.573E-03     185.313E-03
             420            1297     152.250E-03     155.970E-03
             420            1298     177.297E-03     178.615E-03
             421            1283     186.573E-03     185.313E-03
             421            1284     210.006E-03     208.292E-03
             421            1298     177.297E-03     178.615E-03
             421            1299     204.364E-03     204.687E-03
             422            1284     210.006E-03     208.292E-03
             422            1285     235.142E-03     232.966E-03
             422            1299     204.364E-03     204.687E-03
             422            1300     232.890E-03     232.658E-03
             423            1285     235.142E-03     232.966E-03
             423            1286     261.190E-03     258.461E-03
             423            1300     232.890E-03     232.658E-03
             423            1301     262.317E-03     261.693E-03
             424            1286     261.190E-03     258.461E-03
             424            1287     287.751E-03     284.114E-03
             424            1301     262.317E-03     261.693E-03
             424            1302     292.163E-03     291.225E-03
             425            1287     287.751E-03     284.114E-03
             425            1288     314.233E-03     309.446E-03
             425            1302     292.163E-03     291.225E-03
             425            1303     322.035E-03     320.759E-03
             426            1288     314.233E-03     309.446E-03
             426            1289     340.221E-03     333.922E-03
             426            1303     322.035E-03     320.759E-03
             426            1304     351.373E-03     349.929E-03
             427            1289     340.221E-03     333.922E-03
             427            1290     365.109E-03     357.054E-03
             427            1304     351.373E-03     349.929E-03
             427            1305     379.543E-03     378.184E-03
             428            1290     365.109E-03     357.054E-03
             428            1291     388.258E-03     378.430E-03
             428            1305     379.543E-03     378.184E-03
             428            1306     405.739E-03     405.022E-03
             429            1291     388.258E-03     378.430E-03
             429            1292     408.606E-03     397.253E-03
             429            1306     405.739E-03     405.022E-03
             429            1307     428.573E-03     429.678E-03
             430            1292     408.606E-03     397.253E-03
             430            1293     424.607E-03     413.540E-03
             430            1307     428.573E-03     429.678E-03
             430            1308     447.360E-03     450.494E-03
             431            1293     424.607E-03     413.540E-03
             431            1294     434.521E-03     422.619E-03
             431            1308     447.360E-03     450.494E-03
             431            1309     463.076E-03     464.398E-03
             432              76     437.638E-03     424.075E-03
             432              77     470.457E-03     469.062E-03
             432            1294     434.521E-03     422.619E-03
             432            1309     463.076E-03     464.398E-03
             433             140     99.9175E-03     99.9565E-03
             433             141     116.980E-03     119.556E-03
             433            1295     119.358E-03     126.055E-03
             433            1310     105.103E-03     107.540E-03
             434            1295     119.358E-03     126.055E-03
             434            1296     130.974E-03     139.172E-03
             434            1310     105.103E-03     107.540E-03
             434            1311     119.612E-03     125.735E-03
             435            1296     130.974E-03     139.172E-03
             435            1297     152.250E-03     155.970E-03
             435            1311     119.612E-03     125.735E-03
             435            1312     142.058E-03     148.088E-03
             436            1297     152.250E-03     155.970E-03
             436            1298     177.297E-03     178.615E-03
             436            1312     142.058E-03     148.088E-03
             436            1313     169.911E-03     173.784E-03
             437            1298     177.297E-03     178.615E-03
             437            1299     204.364E-03     204.687E-03
             437            1313     169.911E-03     173.784E-03
             437            1314     199.975E-03     202.768E-03
             438            1299     204.364E-03     204.687E-03
             438            1300     232.890E-03     232.658E-03
             438            1314     199.975E-03     202.768E-03
             438            1315     231.324E-03     233.575E-03
             439            1300     232.890E-03     232.658E-03
             439            1301     262.317E-03     261.693E-03
             439            1315     231.324E-03     233.575E-03
             439            1316     263.450E-03     265.573E-03
             440            1301     262.317E-03     261.693E-03
             440            1302     292.163E-03     291.225E-03
             440            1316     263.450E-03     265.573E-03
             440            1317     296.000E-03     298.221E-03
             441            1302     292.163E-03     291.225E-03
             441            1303     322.035E-03     320.759E-03
             441            1317     296.000E-03     298.221E-03
             441            1318     328.545E-03     331.186E-03
             442            1303     322.035E-03     320.759E-03
             442            1304     351.373E-03     349.929E-03
             442            1318     328.545E-03     331.186E-03
             442            1319     360.633E-03     363.968E-03
             443            1304     351.373E-03     349.929E-03
             443            1305     379.543E-03     378.184E-03
             443            1319     360.633E-03     363.968E-03
             443            1320     391.644E-03     396.106E-03
             444            1305     379.543E-03     378.184E-03
             444            1306     405.739E-03     405.022E-03
             444            1320     391.644E-03     396.106E-03
             444            1321     420.459E-03     426.694E-03
             445            1306     405.739E-03     405.022E-03
             445            1307     428.573E-03     429.678E-03
             445            1321     420.459E-03     426.694E-03
             445            1322     446.627E-03     454.483E-03
             446            1307     428.573E-03     429.678E-03
             446            1308     447.360E-03     450.494E-03
             446            1322     446.627E-03     454.483E-03
             446            1323     469.021E-03     477.308E-03
             447            1308     447.360E-03     450.494E-03
             447            1309     463.076E-03     464.398E-03
             447            1323     469.021E-03     477.308E-03
             447            1324     490.373E-03     495.303E-03
             448              77     470.457E-03     469.062E-03
             448              78     501.716E-03     503.567E-03
             448            1309     463.076E-03     464.398E-03
             448            1324     490.373E-03     495.303E-03
             449             139     85.8927E-03     86.5378E-03
             449             140     99.9175E-03     99.9565E-03
             449            1310     105.103E-03     107.540E-03
             449            1325     91.6909E-03     94.0708E-03
             450            1310     105.103E-03     107.540E-03
             450            1311     119.612E-03     125.735E-03
             450            1325     91.6909E-03     94.0708E-03
             450            1326     108.721E-03     113.889E-03
             451            1311     119.612E-03     125.735E-03
             451            1312     142.058E-03     148.088E-03
             451            1326     108.721E-03     113.889E-03
             451            1327     133.949E-03     140.366E-03
             452            1312     142.058E-03     148.088E-03
             452            1313     169.911E-03     173.784E-03
             452            1327     133.949E-03     140.366E-03
             452            1328     163.693E-03     169.676E-03
             453            1313     169.911E-03     173.784E-03
             453            1314     199.975E-03     202.768E-03
             453            1328     163.693E-03     169.676E-03
             453            1329     195.988E-03     201.091E-03
             454            1314     199.975E-03     202.768E-03
             454            1315     231.324E-03     233.575E-03
             454            1329     195.988E-03     201.091E-03
             454            1330     229.406E-03     234.230E-03
             455            1315     231.324E-03     233.575E-03
             455            1316     263.450E-03     265.573E-03
             455            1330     229.406E-03     234.230E-03
             455            1331     263.553E-03     268.430E-03
             456            1316     263.450E-03     265.573E-03
             456            1317     296.000E-03     298.221E-03
             456            1331     263.553E-03     268.430E-03
             456            1332     298.056E-03     303.419E-03
             457            1317     296.000E-03     298.221E-03
             457            1318     328.545E-03     331.186E-03
             457            1332     298.056E-03     303.419E-03
             457            1333     332.707E-03     338.848E-03
             458            1318     328.545E-03     331.186E-03
             458            1319     360.633E-03     363.968E-03
             458            1333     332.707E-03     338.848E-03
             458            1334     367.055E-03     374.377E-03
             459            1319     360.633E-03     363.968E-03
             459            1320     391.644E-03     396.106E-03
             459            1334     367.055E-03     374.377E-03
             459            1335     400.508E-03     409.294E-03
             460            1320     391.644E-03     396.106E-03
             460            1321     420.459E-03     426.694E-03
             460            1335     400.508E-03     409.294E-03
             460            1336     432.508E-03     442.628E-03
             461            1321     420.459E-03     426.694E-03
             461            1322     446.627E-03     454.483E-03
             461            1336     432.508E-03     442.628E-03
             461            1337     461.792E-03     472.760E-03
             462            1322     446.627E-03     454.483E-03
             462            1323     469.021E-03     477.308E-03
             462            1337     461.792E-03     472.760E-03
             462            1338     489.035E-03     498.233E-03
             463            1323     469.021E-03     477.308E-03
             463            1324     490.373E-03     495.303E-03
             463            1338     489.035E-03     498.233E-03
             463            1339     515.025E-03     519.328E-03
             464              78     501.716E-03     503.567E-03
             464              79     527.585E-03     528.936E-03
             464            1324     490.373E-03     495.303E-03
             464            1339     515.025E-03     519.328E-03
             465             138     71.9010E-03     70.7137E-03
             465             139     85.8927E-03     86.5378E-03
             465            1325     91.6909E-03     94.0708E-03
             465            1340     79.0134E-03     80.8143E-03
             466            1325     91.6909E-03     94.0708E-03
             466            1326     108.721E-03     113.889E-03
             466            1340     79.0134E-03     80.8143E-03
             466            1341     98.5835E-03     104.322E-03
             467            1326     108.721E-03     113.889E-03
             467            1327     133.949E-03     140.366E-03
             467            1341     98.5835E-03     104.322E-03
             467            1342     126.293E-03     133.270E-03
             468            1327     133.949E-03     140.366E-03
             468            1328     163.693E-03     169.676E-03
             468            1342     126.293E-03     133.270E-03
             468            1343     158.018E-03     165.300E-03
             469            1328     163.693E-03     169.676E-03
             469            1329     195.988E-03     201.091E-03
             469            1343     158.018E-03     165.300E-03
             469            1344     191.711E-03     198.834E-03
             470            1329     195.988E-03     201.091E-03
             470            1330     229.406E-03     234.230E-03
             470            1344     191.711E-03     198.834E-03
             470            1345     226.544E-03     233.569E-03
             471            1330     229.406E-03     234.230E-03
             471            1331     263.553E-03     268.430E-03
             471            1345     226.544E-03     233.569E-03
             471            1346     261.954E-03     269.293E-03
             472            1331     263.553E-03     268.430E-03
             472            1332     298.056E-03     303.419E-03
             472            1346     261.954E-03     269.293E-03
             472            1347     297.824E-03     305.795E-03
             473            1332     298.056E-03     303.419E-03
             473            1333     332.707E-03     338.848E-03
             473            1347     297.824E-03     305.795E-03
             473            1348     333.897E-03     342.883E-03
             474            1333     332.707E-03     338.848E-03
             474            1334     367.055E-03     374.377E-03
             474            1348     333.897E-03     342.883E-03
             474            1349     370.135E-03     380.312E-03
             475            1334     367.055E-03     374.377E-03
             475            1335     400.508E-03     409.294E-03
             475            1349     370.135E-03     380.312E-03
             475            1350     406.058E-03     417.540E-03
             476            1335     400.508E-03     409.294E-03
             476            1336     432.508E-03     442.628E-03
             476            1350     406.058E-03     417.540E-03
             476            1351     441.099E-03     453.432E-03
             477            1336     432.508E-03     442.628E-03
             477            1337     461.792E-03     472.760E-03
             477            1351     441.099E-03     453.432E-03
             477            1352     474.833E-03     486.549E-03
             478            1337     461.792E-03     472.760E-03
             478            1338     489.035E-03     498.233E-03
             478            1352     474.833E-03     486.549E-03
             478            1353     506.349E-03     515.820E-03
             479            1338     489.035E-03     498.233E-03
             479            1339     515.025E-03     519.328E-03
             479            1353     506.349E-03     515.820E-03
             479            1354     536.774E-03     541.779E-03
             480              79     527.585E-03     528.936E-03
             480              80     552.060E-03     554.111E-03
             480            1339     515.025E-03     519.328E-03
             480            1354     536.774E-03     541.779E-03
             481             137     57.7672E-03     58.1928E-03
             481             138     71.9010E-03     70.7137E-03
             481            1340     79.0134E-03     80.8143E-03
             481            1355     66.3622E-03     69.0980E-03
             482            1340     79.0134E-03     80.8143E-03
             482            1341     98.5835E-03     104.322E-03
             482            1355     66.3622E-03     69.0980E-03
             482            1356     88.9103E-03     95.2434E-03
             483            1341     98.5835E-03     104.322E-03
             483            1342     126.293E-03     133.270E-03
             483            1356     88.9103E-03     95.2434E-03
             483            1357     118.932E-03     126.899E-03
             484            1342     126.293E-03     133.270E-03
             484            1343     158.018E-03     165.300E-03
             484            1357     118.932E-03     126.899E-03
             484            1358     152.135E-03     160.552E-03
             485            1343     158.018E-03     165.300E-03
             485            1344     191.711E-03     198.834E-03
             485            1358     152.135E-03     160.552E-03
             485            1359     186.855E-03     195.470E-03
             486            1344     191.711E-03     198.834E-03
             486            1345     226.544E-03     233.569E-03
             486            1359     186.855E-03     195.470E-03
             486            1360     222.391E-03     231.201E-03
             487            1345     226.544E-03     233.569E-03
             487            1346     261.954E-03     269.293E-03
             487            1360     222.391E-03     231.201E-03
             487            1361     258.493E-03     267.736E-03
             488            1346     261.954E-03     269.293E-03
             488            1347     297.824E-03     305.795E-03
             488            1361     258.493E-03     267.736E-03
             488            1362     295.016E-03     304.967E-03
             489            1347     297.824E-03     305.795E-03
             489            1348     333.897E-03     342.883E-03
             489            1362     295.016E-03     304.967E-03
             489            1363     332.061E-03     342.976E-03
             490            1348     333.897E-03     342.883E-03
             490            1349     370.135E-03     380.312E-03
             490            1363     332.061E-03     342.976E-03
             490            1364     369.504E-03     381.575E-03
             491            1349     370.135E-03     380.312E-03
             491            1350     406.058E-03     417.540E-03
             491            1364     369.504E-03     381.575E-03
             491            1365     407.789E-03     420.701E-03
             492            1350     406.058E-03     417.540E-03
             492            1351     441.099E-03     453.432E-03
             492            1365     407.789E-03     420.701E-03
             492            1366     446.309E-03     459.654E-03
             493            1351     441.099E-03     453.432E-03
             493            1352     474.833E-03     486.549E-03
             493            1366     446.309E-03     459.654E-03
             493            1367     484.554E-03     496.956E-03
             494            1352     474.833E-03     486.549E-03
             494            1353     506.349E-03     515.820E-03
             494            1367     484.554E-03     496.956E-03
             494            1368     521.899E-03     531.151E-03
             495            1353     506.349E-03     515.820E-03
             495            1354     536.774E-03     541.779E-03
             495            1368     521.899E-03     531.151E-03
             495            1369     556.660E-03     562.594E-03
             496              80     552.060E-03     554.111E-03
             496              81     573.319E-03     577.981E-03
             496            1354     536.774E-03     541.779E-03
             496            1369     556.660E-03     562.594E-03
             497             136     43.5687E-03     44.3454E-03
             497             137     57.7672E-03     58.1928E-03
             497            1355     66.3622E-03     69.0980E-03
             497            1370     54.0021E-03     57.7592E-03
             498            1355     66.3622E-03     69.0980E-03
             498            1356     88.9103E-03     95.2434E-03
             498            1370     54.0021E-03     57.7592E-03
             498            1371     79.6831E-03     87.3414E-03
             499            1356     88.9103E-03     95.2434E-03
             499            1357     118.932E-03     126.899E-03
             499            1371     79.6831E-03     87.3414E-03
             499            1372     111.770E-03     120.764E-03
             500            1357     118.932E-03     126.899E-03
             500            1358     152.135E-03     160.552E-03
             500            1372     111.770E-03     120.764E-03
             500            1373     146.031E-03     155.555E-03
             501            1358     152.135E-03     160.552E-03
             501            1359     186.855E-03     195.470E-03
             501            1373     146.031E-03     155.555E-03
             501            1374     181.256E-03     191.054E-03
             502            1359     186.855E-03     195.470E-03
             502            1360     222.391E-03     231.201E-03
             502            1374     181.256E-03     191.054E-03
             502            1375     217.002E-03     227.190E-03
             503            1360     222.391E-03     231.201E-03
             503            1361     258.493E-03     267.736E-03
             503            1375     217.002E-03     227.190E-03
             503            1376     253.207E-03     263.811E-03
             504            1361     258.493E-03     267.736E-03
             504            1362     295.016E-03     304.967E-03
             504            1376     253.207E-03     263.811E-03
             504            1377     289.873E-03     301.132E-03
             505            1362     295.016E-03     304.967E-03
             505            1363     332.061E-03     342.976E-03
             505            1377     289.873E-03     301.132E-03
             505            1378     327.140E-03     339.170E-03
             506            1363     332.061E-03     342.976E-03
             506            1364     369.504E-03     381.575E-03
             506            1378     327.140E-03     339.170E-03
             506            1379     365.435E-03     378.334E-03
             507            1364     369.504E-03     381.575E-03
             507            1365     407.789E-03     420.701E-03
             507            1379     365.435E-03     378.334E-03
             507            1380     404.885E-03     418.589E-03
             508            1365     407.789E-03     420.701E-03
             508            1366     446.309E-03     459.654E-03
             508            1380     404.885E-03     418.589E-03
             508            1381     447.087E-03     460.539E-03
             509            1366     446.309E-03     459.654E-03
             509            1367     484.554E-03     496.956E-03
             509            1381     447.087E-03     460.539E-03
             509            1382     490.845E-03     503.428E-03
             510            1367     484.554E-03     496.956E-03
             510            1368     521.899E-03     531.151E-03
             510            1382     490.845E-03     503.428E-03
             510            1383     534.304E-03     544.840E-03
             511            1368     521.899E-03     531.151E-03
             511            1369     556.660E-03     562.594E-03
             511            1383     534.304E-03     544.840E-03
             511            1384     576.532E-03     581.462E-03
             512              81     573.319E-03     577.981E-03
             512              82     596.875E-03     597.865E-03
             512            1369     556.660E-03     562.594E-03
             512            1384     576.532E-03     581.462E-03
             513             135     29.0723E-03     32.4544E-03
             513             136     43.5687E-03     44.3454E-03
             513            1370     54.0021E-03     57.7592E-03
             513            1385     41.9527E-03     48.1276E-03
             514            1370     54.0021E-03     57.7592E-03
             514            1371     79.6831E-03     87.3414E-03
             514            1385     41.9527E-03     48.1276E-03
             514            1386     71.3710E-03     80.8394E-03
             515            1371     79.6831E-03     87.3414E-03
             515            1372     111.770E-03     120.764E-03
             515            1386     71.3710E-03     80.8394E-03
             515            1387     105.180E-03     115.254E-03
             516            1372     111.770E-03     120.764E-03
             516            1373     146.031E-03     155.555E-03
             516            1387     105.180E-03     115.254E-03
             516            1388     139.973E-03     150.481E-03
             517            1373     146.031E-03     155.555E-03
             517            1374     181.256E-03     191.054E-03
             517            1388     139.973E-03     150.481E-03
             517            1389     175.128E-03     186.124E-03
             518            1374     181.256E-03     191.054E-03
             518            1375     217.002E-03     227.190E-03
             518            1389     175.128E-03     186.124E-03
             518            1390     210.664E-03     221.938E-03
             519            1375     217.002E-03     227.190E-03
             519            1376     253.207E-03     263.811E-03
             519            1390     210.664E-03     221.938E-03
             519            1391     246.487E-03     258.126E-03
             520            1376     253.207E-03     263.811E-03
             520            1377     289.873E-03     301.132E-03
             520            1391     246.487E-03     258.126E-03
             520            1392     282.798E-03     294.753E-03
             521            1377     289.873E-03     301.132E-03
             521            1378     327.140E-03     339.170E-03
             521            1392     282.798E-03     294.753E-03
             521            1393     319.767E-03     332.211E-03
             522            1378     327.140E-03     339.170E-03
             522            1379     365.435E-03     378.334E-03
             522            1393     319.767E-03     332.211E-03
             522            1394     357.922E-03     370.792E-03
             523            1379     365.435E-03     378.334E-03
             523            1380     404.885E-03     418.589E-03
             523            1394     357.922E-03     370.792E-03
             523            1395     398.146E-03     411.458E-03
             524            1380     404.885E-03     418.589E-03
             524            1381     447.087E-03     460.539E-03
             524            1395     398.146E-03     411.458E-03
             524            1396     441.203E-03     454.745E-03
             525            1381     447.087E-03     460.539E-03
             525            1382     490.845E-03     503.428E-03
             525            1396     441.203E-03     454.745E-03
             525            1397     491.098E-03     503.052E-03
             526            1382     490.845E-03     503.428E-03
             526            1383     534.304E-03     544.840E-03
             526            1397     491.098E-03     503.052E-03
             526            1398     544.457E-03     554.001E-03
             527            1383     534.304E-03     544.840E-03
             527            1384     576.532E-03     581.462E-03
             527            1398     544.457E-03     554.001E-03
             527            1399     593.340E-03     602.048E-03
             528              82     596.875E-03     597.865E-03
             528              83     616.347E-03     625.251E-03
             528            1384     576.532E-03     581.462E-03
             528            1399     593.340E-03     602.048E-03
             529             134     15.9967E-03     26.5941E-03
             529             135     29.0723E-03     32.4544E-03
             529            1385     41.9527E-03     48.1276E-03
             529            1400     32.2147E-03     42.8438E-03
             530            1385     41.9527E-03     48.1276E-03
             530            1386     71.3710E-03     80.8394E-03
             530            1400     32.2147E-03     42.8438E-03
             530            1401     65.6384E-03     76.2206E-03
             531            1386     71.3710E-03     80.8394E-03
             531            1387     105.180E-03     115.254E-03
             531            1401     65.6384E-03     76.2206E-03
             531            1402     99.9848E-03     111.062E-03
             532            1387     105.180E-03     115.254E-03
             532            1388     139.973E-03     150.481E-03
             532            1402     99.9848E-03     111.062E-03
             532            1403     134.381E-03     146.240E-03
             533            1388     139.973E-03     150.481E-03
             533            1389     175.128E-03     186.124E-03
             533            1403     134.381E-03     146.240E-03
             533            1404     169.058E-03     181.290E-03
             534            1389     175.128E-03     186.124E-03
             534            1390     210.664E-03     221.938E-03
             534            1404     169.058E-03     181.290E-03
             534            1405     203.879E-03     216.358E-03
             535            1390     210.664E-03     221.938E-03
             535            1391     246.487E-03     258.126E-03
             535            1405     203.879E-03     216.358E-03
             535            1406     239.014E-03     251.501E-03
             536            1391     246.487E-03     258.126E-03
             536            1392     282.798E-03     294.753E-03
             536            1406     239.014E-03     251.501E-03
             536            1407     274.495E-03     286.935E-03
             537            1392     282.798E-03     294.753E-03
             537            1393     319.767E-03     332.211E-03
             537            1407     274.495E-03     286.935E-03
             537            1408     310.768E-03     322.994E-03
             538            1393     319.767E-03     332.211E-03
             538            1394     357.922E-03     370.792E-03
             538            1408     310.768E-03     322.994E-03
             538            1409     348.129E-03     360.227E-03
             539            1394     357.922E-03     370.792E-03
             539            1395     398.146E-03     411.458E-03
             539            1409     348.129E-03     360.227E-03
             539            1410     387.766E-03     399.577E-03
             540            1395     398.146E-03     411.458E-03
             540            1396     441.203E-03     454.745E-03
             540            1410     387.766E-03     399.577E-03
             540            1411     430.921E-03     442.705E-03
             541            1396     441.203E-03     454.745E-03
             541            1397     491.098E-03     503.052E-03
             541            1411     430.921E-03     442.705E-03
             541            1412     480.269E-03     491.896E-03
             542            1397     491.098E-03     503.052E-03
             542            1398     544.457E-03     554.001E-03
             542            1412     480.269E-03     491.896E-03
             542            1413     544.714E-03     553.272E-03
             543            1398     544.457E-03     554.001E-03
             543            1399     593.340E-03     602.048E-03
             543            1413     544.714E-03     553.272E-03
             543            1414     612.286E-03     614.149E-03
             544              83     616.347E-03     625.251E-03
             544              84     642.410E-03     640.117E-03
             544            1399     593.340E-03     602.048E-03
             544            1414     612.286E-03     614.149E-03
             545             133     16.2317E-03     28.2347E-03
             545             134     15.9967E-03     26.5941E-03
             545            1400     32.2147E-03     42.8438E-03
             545            1415     32.3586E-03     43.2121E-03
             546            1400     32.2147E-03     42.8438E-03
             546            1401     65.6384E-03     76.2206E-03
             546            1415     32.3586E-03     43.2121E-03
             546            1416     64.4859E-03     75.3499E-03
             547            1401     65.6384E-03     76.2206E-03
             547            1402     99.9848E-03     111.062E-03
             547            1416     64.4859E-03     75.3499E-03
             547            1417     97.0187E-03     109.578E-03
             548            1402     99.9848E-03     111.062E-03
             548            1403     134.381E-03     146.240E-03
             548            1417     97.0187E-03     109.578E-03
             548            1418     130.252E-03     143.710E-03
             549            1403     134.381E-03     146.240E-03
             549            1404     169.058E-03     181.290E-03
             549            1418     130.252E-03     143.710E-03
             549            1419     163.728E-03     177.656E-03
             550            1404     169.058E-03     181.290E-03
             550            1405     203.879E-03     216.358E-03
             550            1419     163.728E-03     177.656E-03
             550            1420     197.505E-03     211.465E-03
             551            1405     203.879E-03     216.358E-03
             551            1406     239.014E-03     251.501E-03
             551            1420     197.505E-03     211.465E-03
             551            1421     231.517E-03     245.163E-03
             552            1406     239.014E-03     251.501E-03
             552            1407     274.495E-03     286.935E-03
             552            1421     231.517E-03     245.163E-03
             552            1422     266.017E-03     278.993E-03
             553            1407     274.495E-03     286.935E-03
             553            1408     310.768E-03     322.994E-03
             553            1422     266.017E-03     278.993E-03
             553            1423     301.127E-03     313.111E-03
             554            1408     310.768E-03     322.994E-03
             554            1409     348.129E-03     360.227E-03
             554            1423     301.127E-03     313.111E-03
             554            1424     337.566E-03     348.278E-03
             555            1409     348.129E-03     360.227E-03
             555            1410     387.766E-03     399.577E-03
             555            1424     337.566E-03     348.278E-03
             555            1425     375.731E-03     385.003E-03
             556            1410     387.766E-03     399.577E-03
             556            1411     430.921E-03     442.705E-03
             556            1425     375.731E-03     385.003E-03
             556            1426     417.791E-03     425.700E-03
             557            1411     430.921E-03     442.705E-03
             557            1412     480.269E-03     491.896E-03
             557            1426     417.791E-03     425.700E-03
             557            1427     464.783E-03     471.920E-03
             558            1412     480.269E-03     491.896E-03
             558            1413     544.714E-03     553.272E-03
             558            1427     464.783E-03     471.920E-03
             558            1428     525.434E-03     533.549E-03
             559            1413     544.714E-03     553.272E-03
             559            1414     612.286E-03     614.149E-03
             559            1428     525.434E-03     533.549E-03
             559            1429     613.093E-03     617.811E-03
             560              84     642.410E-03     640.117E-03
             560              85     664.379E-03     664.586E-03
             560            1414     612.286E-03     614.149E-03
             560            1429     613.093E-03     617.811E-03
             561             132     86.2882E-03     103.370E-03
             561             133     16.2317E-03     28.2347E-03
             561            1415     32.3586E-03     43.2121E-03
             561            1430     99.8347E-03     111.325E-03
             562            1415     32.3586E-03     43.2121E-03
             562            1416     64.4859E-03     75.3499E-03
             562            1430     99.8347E-03     111.325E-03
             562            1431     126.317E-03     131.960E-03
             563            1416     64.4859E-03     75.3499E-03
             563            1417     97.0187E-03     109.578E-03
             563            1431     126.317E-03     131.960E-03
             563            1432     154.101E-03     159.962E-03
             564            1417     97.0187E-03     109.578E-03
             564            1418     130.252E-03     143.710E-03
             564            1432     154.101E-03     159.962E-03
             564            1433     184.767E-03     191.462E-03
             565            1418     130.252E-03     143.710E-03
             565            1419     163.728E-03     177.656E-03
             565            1433     184.767E-03     191.462E-03
             565            1434     217.338E-03     224.325E-03
             566            1419     163.728E-03     177.656E-03
             566            1420     197.505E-03     211.465E-03
             566            1434     217.338E-03     224.325E-03
             566            1435     251.143E-03     258.093E-03
             567            1420     197.505E-03     211.465E-03
             567            1421     231.517E-03     245.163E-03
             567            1435     251.143E-03     258.093E-03
             567            1436     285.813E-03     292.125E-03
             568            1421     231.517E-03     245.163E-03
             568            1422     266.017E-03     278.993E-03
             568            1436     285.813E-03     292.125E-03
             568            1437     320.890E-03     326.167E-03
             569            1422     266.017E-03     278.993E-03
             569            1423     301.127E-03     313.111E-03
             569            1437     320.890E-03     326.167E-03
             569            1438     356.513E-03     359.987E-03
             570            1423     301.127E-03     313.111E-03
             570            1424     337.566E-03     348.278E-03
             570            1438     356.513E-03     359.987E-03
             570            1439     392.204E-03     393.514E-03
             571            1424     337.566E-03     348.278E-03
             571            1425     375.731E-03     385.003E-03
             571            1439     392.204E-03     393.514E-03
             571            1440     428.794E-03     426.923E-03
             572            1425     375.731E-03     385.003E-03
             572            1426     417.791E-03     425.700E-03
             572            1440     428.794E-03     426.923E-03
             572            1441     465.611E-03     460.652E-03
             573            1426     417.791E-03     425.700E-03
             573            1427     464.783E-03     471.920E-03
             573            1441     465.611E-03     460.652E-03
             573            1442     505.052E-03     496.504E-03
             574            1427     464.783E-03     471.920E-03
             574            1428     525.434E-03     533.549E-03
             574            1442     505.052E-03     496.504E-03
             574            1443     546.323E-03     536.254E-03
             575            1428     525.434E-03     533.549E-03
             575            1429     613.093E-03     617.811E-03
             575            1443     546.323E-03     536.254E-03
             575            1444     601.769E-03     602.805E-03
             576              85     664.379E-03     664.586E-03
             576              86     637.633E-03     648.340E-03
             576            1429     613.093E-03     617.811E-03
             576            1444     601.769E-03     602.805E-03
             577             131     145.392E-03     166.053E-03
             577             132     86.2882E-03     103.370E-03
             577            1430     99.8347E-03     111.325E-03
             577            1445     153.662E-03     168.389E-03
             578            1430     99.8347E-03     111.325E-03
             578            1431     126.317E-03     131.960E-03
             578            1445     153.662E-03     168.389E-03
             578            1446     174.654E-03     179.890E-03
             579            1431     126.317E-03     131.960E-03
             579            1432     154.101E-03     159.962E-03
             579            1446     174.654E-03     179.890E-03
             579            1447     202.512E-03     203.543E-03
             580            1432     154.101E-03     159.962E-03
             580            1433     184.767E-03     191.462E-03
             580            1447     202.512E-03     203.543E-03
             580            1448     234.327E-03     234.619E-03
             581            1433     184.767E-03     191.462E-03
             581            1434     217.338E-03     224.325E-03
             581            1448     234.327E-03     234.619E-03
             581            1449     269.106E-03     269.217E-03
             582            1434     217.338E-03     224.325E-03
             582            1435     251.143E-03     258.093E-03
             582            1449     269.106E-03     269.217E-03
             582            1450     305.944E-03     305.819E-03
             583            1435     251.143E-03     258.093E-03
             583            1436     285.813E-03     292.125E-03
             583            1450     305.944E-03     305.819E-03
             583            1451     343.952E-03     343.274E-03
             584            1436     285.813E-03     292.125E-03
             584            1437     320.890E-03     326.167E-03
             584            1451     343.952E-03     343.274E-03
             584            1452     382.586E-03     381.008E-03
             585            1437     320.890E-03     326.167E-03
             585            1438     356.513E-03     359.987E-03
             585            1452     382.586E-03     381.008E-03
             585            1453     421.241E-03     418.289E-03
             586            1438     356.513E-03     359.987E-03
             586            1439     392.204E-03     393.514E-03
             586            1453     421.241E-03     418.289E-03
             586            1454     459.590E-03     454.809E-03
             587            1439     392.204E-03     393.514E-03
             587            1440     428.794E-03     426.923E-03
             587            1454     459.590E-03     454.809E-03
             587            1455     496.794E-03     489.847E-03
             588            1440     428.794E-03     426.923E-03
             588            1441     465.611E-03     460.652E-03
             588            1455     496.794E-03     489.847E-03
             588            1456     532.746E-03     523.339E-03
             589            1441     465.611E-03     460.652E-03
             589            1442     505.052E-03     496.504E-03
             589            1456     532.746E-03     523.339E-03
             589            1457     565.829E-03     554.579E-03
             590            1442     505.052E-03     496.504E-03
             590            1443     546.323E-03     536.254E-03
             590            1457     565.829E-03     554.579E-03
             590            1458     596.048E-03     584.971E-03
             591            1443     546.323E-03     536.254E-03
             591            1444     601.769E-03     602.805E-03
             591            1458     596.048E-03     584.971E-03
             591            1459     622.841E-03     610.011E-03
             592              86     637.633E-03     648.340E-03
             592              87     634.692E-03     619.335E-03
             592            1444     601.769E-03     602.805E-03
             592            1459     622.841E-03     610.011E-03
             593             130     129.042E-03     133.256E-03
             593             131     145.392E-03     166.053E-03
             593            1445     153.662E-03     168.389E-03
             593            1460     133.973E-03     143.133E-03
             594            1445     153.662E-03     168.389E-03
             594            1446     174.654E-03     179.890E-03
             594            1460     133.973E-03     143.133E-03
             594            1461     153.328E-03     164.151E-03
             595            1446     174.654E-03     179.890E-03
             595            1447     202.512E-03     203.543E-03
             595            1461     153.328E-03     164.151E-03
             595            1462     185.603E-03     191.258E-03
             596            1447     202.512E-03     203.543E-03
             596            1448     234.327E-03     234.619E-03
             596            1462     185.603E-03     191.258E-03
             596            1463     222.563E-03     225.868E-03
             597            1448     234.327E-03     234.619E-03
             597            1449     269.106E-03     269.217E-03
             597            1463     222.563E-03     225.868E-03
             597            1464     261.883E-03     264.378E-03
             598            1449     269.106E-03     269.217E-03
             598            1450     305.944E-03     305.819E-03
             598            1464     261.883E-03     264.378E-03
             598            1465     302.917E-03     304.946E-03
             599            1450     305.944E-03     305.819E-03
             599            1451     343.952E-03     343.274E-03
             599            1465     302.917E-03     304.946E-03
             599            1466     344.915E-03     346.710E-03
             600            1451     343.952E-03     343.274E-03
             600            1452     382.586E-03     381.008E-03
             600            1466     344.915E-03     346.710E-03
             600            1467     387.532E-03     389.019E-03
             601            1452     382.586E-03     381.008E-03
             601            1453     421.241E-03     418.289E-03
             601            1467     387.532E-03     389.019E-03
             601            1468     430.302E-03     431.547E-03
             602            1453     421.241E-03     418.289E-03
             602            1454     459.590E-03     454.809E-03
             602            1468     430.302E-03     431.547E-03
             602            1469     472.741E-03     473.854E-03
             603            1454     459.590E-03     454.809E-03
             603            1455     496.794E-03     489.847E-03
             603            1469     472.741E-03     473.854E-03
             603            1470     514.369E-03     515.589E-03
             604            1455     496.794E-03     489.847E-03
             604            1456     532.746E-03     523.339E-03
             604            1470     514.369E-03     515.589E-03
             604            1471     554.138E-03     556.330E-03
             605            1456     532.746E-03     523.339E-03
             605            1457     565.829E-03     554.579E-03
             605            1471     554.138E-03     556.330E-03
             605            1472     591.306E-03     595.374E-03
             606            1457     565.829E-03     554.579E-03
             606            1458     596.048E-03     584.971E-03
             606            1472     591.306E-03     595.374E-03
             606            1473     625.755E-03     631.873E-03
             607            1458     596.048E-03     584.971E-03
             607            1459     622.841E-03     610.011E-03
             607            1473     625.755E-03     631.873E-03
             607            1474     656.195E-03     658.665E-03
             608              87     634.692E-03     619.335E-03
             608              88     670.104E-03     667.969E-03
             608            1459     622.841E-03     610.011E-03
             608            1474     656.195E-03     658.665E-03
             609             129     104.963E-03     106.503E-03
             609             130     129.042E-03     133.256E-03
             609            1460     133.973E-03     143.133E-03
             609            1475     113.691E-03     118.560E-03
             610            1460     133.973E-03     143.133E-03
             610            1461     153.328E-03     164.151E-03
             610            1475     113.691E-03     118.560E-03
             610            1476     137.553E-03     146.932E-03
             611            1461     153.328E-03     164.151E-03
             611            1462     185.603E-03     191.258E-03
             611            1476     137.553E-03     146.932E-03
             611            1477     172.318E-03     181.212E-03
             612            1462     185.603E-03     191.258E-03
             612            1463     222.563E-03     225.868E-03
             612            1477     172.318E-03     181.212E-03
             612            1478     213.164E-03     219.597E-03
             613            1463     222.563E-03     225.868E-03
             613            1464     261.883E-03     264.378E-03
             613            1478     213.164E-03     219.597E-03
             613            1479     256.271E-03     261.584E-03
             614            1464     261.883E-03     264.378E-03
             614            1465     302.917E-03     304.946E-03
             614            1479     256.271E-03     261.584E-03
             614            1480     300.585E-03     305.471E-03
             615            1465     302.917E-03     304.946E-03
             615            1466     344.915E-03     346.710E-03
             615            1480     300.585E-03     305.471E-03
             615            1481     345.792E-03     350.628E-03
             616            1466     344.915E-03     346.710E-03
             616            1467     387.532E-03     389.019E-03
             616            1481     345.792E-03     350.628E-03
             616            1482     391.436E-03     396.612E-03
             617            1467     387.532E-03     389.019E-03
             617            1468     430.302E-03     431.547E-03
             617            1482     391.436E-03     396.612E-03
             617            1483     437.418E-03     443.187E-03
             618            1468     430.302E-03     431.547E-03
             618            1469     472.741E-03     473.854E-03
             618            1483     437.418E-03     443.187E-03
             618            1484     483.164E-03     490.031E-03
             619            1469     472.741E-03     473.854E-03
             619            1470     514.369E-03     515.589E-03
             619            1484     483.164E-03     490.031E-03
             619            1485     528.317E-03     536.716E-03
             620            1470     514.369E-03     515.589E-03
             620            1471     554.138E-03     556.330E-03
             620            1485     528.317E-03     536.716E-03
             620            1486     571.811E-03     582.338E-03
             621            1471     554.138E-03     556.330E-03
             621            1472     591.306E-03     595.374E-03
             621            1486     571.811E-03     582.338E-03
             621            1487     613.092E-03     625.688E-03
             622            1472     591.306E-03     595.374E-03
             622            1473     625.755E-03     631.873E-03
             622            1487     613.092E-03     625.688E-03
             622            1488     650.970E-03     663.074E-03
             623            1473     625.755E-03     631.873E-03
             623            1474     656.195E-03     658.665E-03
             623            1488     650.970E-03     663.074E-03
             623            1489     684.848E-03     693.148E-03
             624              88     670.104E-03     667.969E-03
             624              89     701.164E-03     706.831E-03
             624            1474     656.195E-03     658.665E-03
             624            1489     684.848E-03     693.148E-03
             625             128     84.4397E-03     87.0458E-03
             625             129     104.963E-03     106.503E-03
             625            1475     113.691E-03     118.560E-03
             625            1490     94.8428E-03     99.9839E-03
             626            1475     113.691E-03     118.560E-03
             626            1476     137.553E-03     146.932E-03
             626            1490     94.8428E-03     99.9839E-03
             626            1491     123.077E-03     132.007E-03
             627            1476     137.553E-03     146.932E-03
             627            1477     172.318E-03     181.212E-03
             627            1491     123.077E-03     132.007E-03
             627            1492     161.867E-03     171.869E-03
             628            1477     172.318E-03     181.212E-03
             628            1478     213.164E-03     219.597E-03
             628            1492     161.867E-03     171.869E-03
             628            1493     205.408E-03     214.452E-03
             629            1478     213.164E-03     219.597E-03
             629            1479     256.271E-03     261.584E-03
             629            1493     205.408E-03     214.452E-03
             629            1494     251.140E-03     259.166E-03
             630            1479     256.271E-03     261.584E-03
             630            1480     300.585E-03     305.471E-03
             630            1494     251.140E-03     259.166E-03
             630            1495     297.843E-03     305.560E-03
             631            1480     300.585E-03     305.471E-03
             631            1481     345.792E-03     350.628E-03
             631            1495     297.843E-03     305.560E-03
             631            1496     345.137E-03     353.062E-03
             632            1481     345.792E-03     350.628E-03
             632            1482     391.436E-03     396.612E-03
             632            1496     345.137E-03     353.062E-03
             632            1497     392.989E-03     401.586E-03
             633            1482     391.436E-03     396.612E-03
             633            1483     437.418E-03     443.187E-03
             633            1497     392.989E-03     401.586E-03
             633            1498     441.030E-03     450.869E-03
             634            1483     437.418E-03     443.187E-03
             634            1484     483.164E-03     490.031E-03
             634            1498     441.030E-03     450.869E-03
             634            1499     489.471E-03     500.842E-03
             635            1484     483.164E-03     490.031E-03
             635            1485     528.317E-03     536.716E-03
             635            1499     489.471E-03     500.842E-03
             635            1500     537.398E-03     550.952E-03
             636            1485     528.317E-03     536.716E-03
             636            1486     571.811E-03     582.338E-03
             636            1500     537.398E-03     550.952E-03
             636            1501     584.676E-03     600.045E-03
             637            1486     571.811E-03     582.338E-03
             637            1487     613.092E-03     625.688E-03
             637            1501     584.676E-03     600.045E-03
             637            1502     629.847E-03     645.803E-03
             638            1487     613.092E-03     625.688E-03
             638            1488     650.970E-03     663.074E-03
             638            1502     629.847E-03     645.803E-03
             638            1503     671.273E-03     685.704E-03
             639            1488     650.970E-03     663.074E-03
             639            1489     684.848E-03     693.148E-03
             639            1503     671.273E-03     685.704E-03
             639            1504     710.858E-03     717.305E-03
             640              89     701.164E-03     706.831E-03
             640              90     730.325E-03     730.586E-03
             640            1489     684.848E-03     693.148E-03
             640            1504     710.858E-03     717.305E-03
             641             127     64.0824E-03     65.4530E-03
             641             128     84.4397E-03     87.0458E-03
             641            1490     94.8428E-03     99.9839E-03
             641            1505     77.0507E-03     82.7843E-03
             642            1490     94.8428E-03     99.9839E-03
             642            1491     123.077E-03     132.007E-03
             642            1505     77.0507E-03     82.7843E-03
             642            1506     110.186E-03     120.571E-03
             643            1491     123.077E-03     132.007E-03
             643            1492     161.867E-03     171.869E-03
             643            1506     110.186E-03     120.571E-03
             643            1507     152.782E-03     163.647E-03
             644            1492     161.867E-03     171.869E-03
             644            1493     205.408E-03     214.452E-03
             644            1507     152.782E-03     163.647E-03
             644            1508     198.566E-03     209.395E-03
             645            1493     205.408E-03     214.452E-03
             645            1494     251.140E-03     259.166E-03
             645            1508     198.566E-03     209.395E-03
             645            1509     245.860E-03     256.150E-03
             646            1494     251.140E-03     259.166E-03
             646            1495     297.843E-03     305.560E-03
             646            1509     245.860E-03     256.150E-03
             646            1510     293.898E-03     304.023E-03
             647            1495     297.843E-03     305.560E-03
             647            1496     345.137E-03     353.062E-03
             647            1510     293.898E-03     304.023E-03
             647            1511     342.407E-03     352.928E-03
             648            1496     345.137E-03     353.062E-03
             648            1497     392.989E-03     401.586E-03
             648            1511     342.407E-03     352.928E-03
             648            1512     391.281E-03     402.680E-03
             649            1497     392.989E-03     401.586E-03
             649            1498     441.030E-03     450.869E-03
             649            1512     391.281E-03     402.680E-03
             649            1513     440.770E-03     453.474E-03
             650            1498     441.030E-03     450.869E-03
             650            1499     489.471E-03     500.842E-03
             650            1513     440.770E-03     453.474E-03
             650            1514     490.491E-03     505.095E-03
             651            1499     489.471E-03     500.842E-03
             651            1500     537.398E-03     550.952E-03
             651            1514     490.491E-03     505.095E-03
             651            1515     541.219E-03     557.475E-03
             652            1500     537.398E-03     550.952E-03
             652            1501     584.676E-03     600.045E-03
             652            1515     541.219E-03     557.475E-03
             652            1516     591.751E-03     609.567E-03
             653            1501     584.676E-03     600.045E-03
             653            1502     629.847E-03     645.803E-03
             653            1516     591.751E-03     609.567E-03
             653            1517     641.310E-03     658.952E-03
             654            1502     629.847E-03     645.803E-03
             654            1503     671.273E-03     685.704E-03
             654            1517     641.310E-03     658.952E-03
             654            1518     689.019E-03     702.360E-03
             655            1503     671.273E-03     685.704E-03
             655            1504     710.858E-03     717.305E-03
             655            1518     689.019E-03     702.360E-03
             655            1519     731.443E-03     740.389E-03
             656              90     730.325E-03     730.586E-03
             656              91     751.218E-03     758.767E-03
             656            1504     710.858E-03     717.305E-03
             656            1519     731.443E-03     740.389E-03
             657             126     43.3301E-03     49.3238E-03
             657             127     64.0824E-03     65.4530E-03
             657            1505     77.0507E-03     82.7843E-03
             657            1520     60.4646E-03     68.5506E-03
             658            1505     77.0507E-03     82.7843E-03
             658            1506     110.186E-03     120.571E-03
             658            1520     60.4646E-03     68.5506E-03
             658            1521     99.4604E-03     110.943E-03
             659            1506     110.186E-03     120.571E-03
             659            1507     152.782E-03     163.647E-03
             659            1521     99.4604E-03     110.943E-03
             659            1522     144.758E-03     157.258E-03
             660            1507     152.782E-03     163.647E-03
             660            1508     198.566E-03     209.395E-03
             660            1522     144.758E-03     157.258E-03
             660            1523     192.137E-03     204.193E-03
             661            1508     198.566E-03     209.395E-03
             661            1509     245.860E-03     256.150E-03
             661            1523     192.137E-03     204.193E-03
             661            1524     240.164E-03     252.117E-03
             662            1509     245.860E-03     256.150E-03
             662            1510     293.898E-03     304.023E-03
             662            1524     240.164E-03     252.117E-03
             662            1525     288.570E-03     300.624E-03
             663            1510     293.898E-03     304.023E-03
             663            1511     342.407E-03     352.928E-03
             663            1525     288.570E-03     300.624E-03
             663            1526     337.322E-03     349.773E-03
             664            1511     342.407E-03     352.928E-03
             664            1512     391.281E-03     402.680E-03
             664            1526     337.322E-03     349.773E-03
             664            1527     386.487E-03     399.760E-03
             665            1512     391.281E-03     402.680E-03
             665            1513     440.770E-03     453.474E-03
             665            1527     386.487E-03     399.760E-03
             665            1528     436.107E-03     450.598E-03
             666            1513     440.770E-03     453.474E-03
             666            1514     490.491E-03     505.095E-03
             666            1528     436.107E-03     450.598E-03
             666            1529     486.772E-03     502.726E-03
             667            1514     490.491E-03     505.095E-03
             667            1515     541.219E-03     557.475E-03
             667            1529     486.772E-03     502.726E-03
             667            1530     538.317E-03     555.994E-03
             668            1515     541.219E-03     557.475E-03
             668            1516     591.751E-03     609.567E-03
             668            1530     538.317E-03     555.994E-03
             668            1531     592.524E-03     610.752E-03
             669            1516     591.751E-03     609.567E-03
             669            1517     641.310E-03     658.952E-03
             669            1531     592.524E-03     610.752E-03
             669            1532     647.856E-03     665.410E-03
             670            1517     641.310E-03     658.952E-03
             670            1518     689.019E-03     702.360E-03
             670            1532     647.856E-03     665.410E-03
             670            1533     701.387E-03     716.658E-03
             671            1518     689.019E-03     702.360E-03
             671            1519     731.443E-03     740.389E-03
             671            1533     701.387E-03     716.658E-03
             671            1534     752.733E-03     759.541E-03
             672              91     751.218E-03     758.767E-03
             672              92     777.441E-03     777.846E-03
             672            1519     731.443E-03     740.389E-03
             672            1534     752.733E-03     759.541E-03
             673             125     26.8196E-03     34.7454E-03
             673             126     43.3301E-03     49.3238E-03
             673            1520     60.4646E-03     68.5506E-03
             673            1535     47.1420E-03     58.4653E-03
             674            1520     60.4646E-03     68.5506E-03
             674            1521     99.4604E-03     110.943E-03
             674            1535     47.1420E-03     58.4653E-03
             674            1536     91.1103E-03     105.184E-03
             675            1521     99.4604E-03     110.943E-03
             675            1522     144.758E-03     157.258E-03
             675            1536     91.1103E-03     105.184E-03
             675            1537     138.586E-03     151.881E-03
             676            1522     144.758E-03     157.258E-03
             676            1523     192.137E-03     204.193E-03
             676            1537     138.586E-03     151.881E-03
             676            1538     186.268E-03     199.507E-03
             677            1523     192.137E-03     204.193E-03
             677            1524     240.164E-03     252.117E-03
             677            1538     186.268E-03     199.507E-03
             677            1539     234.076E-03     247.433E-03
             678            1524     240.164E-03     252.117E-03
             678            1525     288.570E-03     300.624E-03
             678            1539     234.076E-03     247.433E-03
             678            1540     282.077E-03     295.629E-03
             679            1525     288.570E-03     300.624E-03
             679            1526     337.322E-03     349.773E-03
             679            1540     282.077E-03     295.629E-03
             679            1541     330.279E-03     344.155E-03
             680            1526     337.322E-03     349.773E-03
             680            1527     386.487E-03     399.760E-03
             680            1541     330.279E-03     344.155E-03
             680            1542     378.833E-03     393.176E-03
             681            1527     386.487E-03     399.760E-03
             681            1528     436.107E-03     450.598E-03
             681            1542     378.833E-03     393.176E-03
             681            1543     427.945E-03     443.039E-03
             682            1528     436.107E-03     450.598E-03
             682            1529     486.772E-03     502.726E-03
             682            1543     427.945E-03     443.039E-03
             682            1544     478.043E-03     494.027E-03
             683            1529     486.772E-03     502.726E-03
             683            1530     538.317E-03     555.994E-03
             683            1544     478.043E-03     494.027E-03
             683            1545     530.050E-03     547.075E-03
             684            1530     538.317E-03     555.994E-03
             684            1531     592.524E-03     610.752E-03
             684            1545     530.050E-03     547.075E-03
             684            1546     584.671E-03     602.510E-03
             685            1531     592.524E-03     610.752E-03
             685            1532     647.856E-03     665.410E-03
             685            1546     584.671E-03     602.510E-03
             685            1547     646.178E-03     662.765E-03
             686            1532     647.856E-03     665.410E-03
             686            1533     701.387E-03     716.658E-03
             686            1547     646.178E-03     662.765E-03
             686            1548     710.887E-03     724.261E-03
             687            1533     701.387E-03     716.658E-03
             687            1534     752.733E-03     759.541E-03
             687            1548     710.887E-03     724.261E-03
             687            1549     768.783E-03     780.306E-03
             688              92     777.441E-03     777.846E-03
             688              93     795.481E-03     806.908E-03
             688            1534     752.733E-03     759.541E-03
             688            1549     768.783E-03     780.306E-03
             689             124     20.5831E-03     37.3309E-03
             689             125     26.8196E-03     34.7454E-03
             689            1535     47.1420E-03     58.4653E-03
             689            1550     42.6499E-03     58.6792E-03
             690            1535     47.1420E-03     58.4653E-03
             690            1536     91.1103E-03     105.184E-03
             690            1550     42.6499E-03     58.6792E-03
             690            1551     88.2298E-03     102.693E-03
             691            1536     91.1103E-03     105.184E-03
             691            1537     138.586E-03     151.881E-03
             691            1551     88.2298E-03     102.693E-03
             691            1552     135.002E-03     148.917E-03
             692            1537     138.586E-03     151.881E-03
             692            1538     186.268E-03     199.507E-03
             692            1552     135.002E-03     148.917E-03
             692            1553     181.532E-03     196.011E-03
             693            1538     186.268E-03     199.507E-03
             693            1539     234.076E-03     247.433E-03
             693            1553     181.532E-03     196.011E-03
             693            1554     228.190E-03     243.062E-03
             694            1539     234.076E-03     247.433E-03
             694            1540     282.077E-03     295.629E-03
             694            1554     228.190E-03     243.062E-03
             694            1555     274.995E-03     290.035E-03
             695            1540     282.077E-03     295.629E-03
             695            1541     330.279E-03     344.155E-03
             695            1555     274.995E-03     290.035E-03
             695            1556     321.999E-03     337.081E-03
             696            1541     330.279E-03     344.155E-03
             696            1542     378.833E-03     393.176E-03
             696            1556     321.999E-03     337.081E-03
             696            1557     369.249E-03     384.274E-03
             697            1542     378.833E-03     393.176E-03
             697            1543     427.945E-03     443.039E-03
             697            1557     369.249E-03     384.274E-03
             697            1558     417.140E-03     431.997E-03
             698            1543     427.945E-03     443.039E-03
             698            1544     478.043E-03     494.027E-03
             698            1558     417.140E-03     431.997E-03
             698            1559     465.885E-03     480.713E-03
             699            1544     478.043E-03     494.027E-03
             699            1545     530.050E-03     547.075E-03
             699            1559     465.885E-03     480.713E-03
             699            1560     516.751E-03     531.373E-03
             700            1545     530.050E-03     547.075E-03
             700            1546     584.671E-03     602.510E-03
             700            1560     516.751E-03     531.373E-03
             700            1561     570.861E-03     585.733E-03
             701            1546     584.671E-03     602.510E-03
             701            1547     646.178E-03     662.765E-03
             701            1561     570.861E-03     585.733E-03
             701            1562     631.285E-03     646.116E-03
             702            1547     646.178E-03     662.765E-03
             702            1548     710.887E-03     724.261E-03
             702            1562     631.285E-03     646.116E-03
             702            1563     707.904E-03     719.350E-03
             703            1548     710.887E-03     724.261E-03
             703            1549     768.783E-03     780.306E-03
             703            1563     707.904E-03     719.350E-03
             703            1564     786.782E-03     789.598E-03
             704              93     795.481E-03     806.908E-03
             704              94     821.701E-03     818.694E-03
             704            1549     768.783E-03     780.306E-03
             704            1564     786.782E-03     789.598E-03
             705             123     33.8013E-03     50.4638E-03
             705             124     20.5831E-03     37.3309E-03
             705            1550     42.6499E-03     58.6792E-03
             705            1565     52.8606E-03     66.9285E-03
             706            1550     42.6499E-03     58.6792E-03
             706            1551     88.2298E-03     102.693E-03
             706            1565     52.8606E-03     66.9285E-03
             706            1566     92.6377E-03     105.350E-03
             707            1551     88.2298E-03     102.693E-03
             707            1552     135.002E-03     148.917E-03
             707            1566     92.6377E-03     105.350E-03
             707            1567     135.086E-03     149.886E-03
             708            1552     135.002E-03     148.917E-03
             708            1553     181.532E-03     196.011E-03
             708            1567     135.086E-03     149.886E-03
             708            1568     178.962E-03     195.074E-03
             709            1553     181.532E-03     196.011E-03
             709            1554     228.190E-03     243.062E-03
             709            1568     178.962E-03     195.074E-03
             709            1569     223.471E-03     240.254E-03
             710            1554     228.190E-03     243.062E-03
             710            1555     274.995E-03     290.035E-03
             710            1569     223.471E-03     240.254E-03
             710            1570     268.353E-03     285.317E-03
             711            1555     274.995E-03     290.035E-03
             711            1556     321.999E-03     337.081E-03
             711            1570     268.353E-03     285.317E-03
             711            1571     313.489E-03     330.103E-03
             712            1556     321.999E-03     337.081E-03
             712            1557     369.249E-03     384.274E-03
             712            1571     313.489E-03     330.103E-03
             712            1572     359.025E-03     374.878E-03
             713            1557     369.249E-03     384.274E-03
             713            1558     417.140E-03     431.997E-03
             713            1572     359.025E-03     374.878E-03
             713            1573     404.986E-03     419.606E-03
             714            1558     417.140E-03     431.997E-03
             714            1559     465.885E-03     480.713E-03
             714            1573     404.986E-03     419.606E-03
             714            1574     452.155E-03     465.093E-03
             715            1559     465.885E-03     480.713E-03
             715            1560     516.751E-03     531.373E-03
             715            1574     452.155E-03     465.093E-03
             715            1575     500.728E-03     511.709E-03
             716            1560     516.751E-03     531.373E-03
             716            1561     570.861E-03     585.733E-03
             716            1575     500.728E-03     511.709E-03
             716            1576     553.249E-03     562.098E-03
             717            1561     570.861E-03     585.733E-03
             717            1562     631.285E-03     646.116E-03
             717            1576     553.249E-03     562.098E-03
             717            1577     610.472E-03     617.925E-03
             718            1562     631.285E-03     646.116E-03
             718            1563     707.904E-03     719.350E-03
             718            1577     610.472E-03     617.925E-03
             718            1578     682.387E-03     690.509E-03
             719            1563     707.904E-03     719.350E-03
             719            1564     786.782E-03     789.598E-03
             719            1578     682.387E-03     690.509E-03
             719            1579     783.704E-03     787.319E-03
             720              94     821.701E-03     818.694E-03
             720              95     842.256E-03     840.358E-03
             720            1564     786.782E-03     789.598E-03
             720            1579     783.704E-03     787.319E-03
             721             122     86.8958E-03     101.919E-03
             721             123     33.8013E-03     50.4638E-03
             721            1565     52.8606E-03     66.9285E-03
             721            1580     103.416E-03     113.498E-03
             722            1565     52.8606E-03     66.9285E-03
             722            1566     92.6377E-03     105.350E-03
             722            1580     103.416E-03     113.498E-03
             722            1581     137.999E-03     143.606E-03
             723            1566     92.6377E-03     105.350E-03
             723            1567     135.086E-03     149.886E-03
             723            1581     137.999E-03     143.606E-03
             723            1582     177.197E-03     183.745E-03
             724            1567     135.086E-03     149.886E-03
             724            1568     178.962E-03     195.074E-03
             724            1582     177.197E-03     183.745E-03
             724            1583     220.515E-03     228.130E-03
             725            1568     178.962E-03     195.074E-03
             725            1569     223.471E-03     240.254E-03
             725            1583     220.515E-03     228.130E-03
             725            1584     265.942E-03     273.865E-03
             726            1569     223.471E-03     240.254E-03
             726            1570     268.353E-03     285.317E-03
             726            1584     265.942E-03     273.865E-03
             726            1585     312.483E-03     320.477E-03
             727            1570     268.353E-03     285.317E-03
             727            1571     313.489E-03     330.103E-03
             727            1585     312.483E-03     320.477E-03
             727            1586     359.676E-03     367.242E-03
             728            1571     313.489E-03     330.103E-03
             728            1572     359.025E-03     374.878E-03
             728            1586     359.676E-03     367.242E-03
             728            1587     407.020E-03     414.097E-03
             729            1572     359.025E-03     374.878E-03
             729            1573     404.986E-03     419.606E-03
             729            1587     407.020E-03     414.097E-03
             729            1588     454.710E-03     460.541E-03
             730            1573     404.986E-03     419.606E-03
             730            1574     452.155E-03     465.093E-03
             730            1588     454.710E-03     460.541E-03
             730            1589     502.322E-03     506.697E-03
             731            1574     452.155E-03     465.093E-03
             731            1575     500.728E-03     511.709E-03
             731            1589     502.322E-03     506.697E-03
             731            1590     550.751E-03     552.364E-03
             732            1575     500.728E-03     511.709E-03
             732            1576     553.249E-03     562.098E-03
             732            1590     550.751E-03     552.364E-03
             732            1591     598.907E-03     597.425E-03
             733            1576     553.249E-03     562.098E-03
             733            1577     610.472E-03     617.925E-03
             733            1591     598.907E-03     597.425E-03
             733            1592     649.708E-03     643.648E-03
             734            1577     610.472E-03     617.925E-03
             734            1578     682.387E-03     690.509E-03
             734            1592     649.708E-03     643.648E-03
             734            1593     700.485E-03     691.984E-03
             735            1578     682.387E-03     690.509E-03
             735            1579     783.704E-03     787.319E-03
             735            1593     700.485E-03     691.984E-03
             735            1594     767.135E-03     771.646E-03
             736              95     842.256E-03     840.358E-03
             736              96     810.716E-03     826.344E-03
             736            1579     783.704E-03     787.319E-03
             736            1594     767.135E-03     771.646E-03
             737             121     118.233E-03     136.121E-03
             737             122     86.8958E-03     101.919E-03
             737            1580     103.416E-03     113.498E-03
             737            1595     131.802E-03     143.466E-03
             738            1580     103.416E-03     113.498E-03
             738            1581     137.999E-03     143.606E-03
             738            1595     131.802E-03     143.466E-03
             738            1596     164.986E-03     168.113E-03
             739            1581     137.999E-03     143.606E-03
             739            1582     177.197E-03     183.745E-03
             739            1596     164.986E-03     168.113E-03
             739            1597     207.322E-03     207.939E-03
             740            1582     177.197E-03     183.745E-03
             740            1583     220.515E-03     228.130E-03
             740            1597     207.322E-03     207.939E-03
             740            1598     254.231E-03     254.538E-03
             741            1583     220.515E-03     228.130E-03
             741            1584     265.942E-03     273.865E-03
             741            1598     254.231E-03     254.538E-03
             741            1599     303.727E-03     303.917E-03
             742            1584     265.942E-03     273.865E-03
             742            1585     312.483E-03     320.477E-03
             742            1599     303.727E-03     303.917E-03
             742            1600     354.720E-03     354.931E-03
             743            1585     312.483E-03     320.477E-03
             743            1586     359.676E-03     367.242E-03
             743            1600     354.720E-03     354.931E-03
             743            1601     406.484E-03     406.624E-03
             744            1586     359.676E-03     367.242E-03
             744            1587     407.020E-03     414.097E-03
             744            1601     406.484E-03     406.624E-03
             744            1602     458.512E-03     458.661E-03
             745            1587     407.020E-03     414.097E-03
             745            1588     454.710E-03     460.541E-03
             745            1602     458.512E-03     458.661E-03
             745            1603     510.681E-03     510.550E-03
             746            1588     454.710E-03     460.541E-03
             746            1589     502.322E-03     506.697E-03
             746            1603     510.681E-03     510.550E-03
             746            1604     562.526E-03     562.103E-03
             747            1589     502.322E-03     506.697E-03
             747            1590     550.751E-03     552.364E-03
             747            1604     562.526E-03     562.103E-03
             747            1605     614.018E-03     612.543E-03
             748            1590     550.751E-03     552.364E-03
             748            1591     598.907E-03     597.425E-03
             748            1605     614.018E-03     612.543E-03
             748            1606     664.472E-03     661.595E-03
             749            1591     598.907E-03     597.425E-03
             749            1592     649.708E-03     643.648E-03
             749            1606     664.472E-03     661.595E-03
             749            1607     711.190E-03     707.055E-03
             750            1592     649.708E-03     643.648E-03
             750            1593     700.485E-03     691.984E-03
             750            1607     711.190E-03     707.055E-03
             750            1608     754.380E-03     749.268E-03
             751            1593     700.485E-03     691.984E-03
             751            1594     767.135E-03     771.646E-03
             751            1608     754.380E-03     749.268E-03
             751            1609     791.246E-03     783.845E-03
             752              96     810.716E-03     826.344E-03
             752              97     807.052E-03     797.339E-03
             752            1594     767.135E-03     771.646E-03
             752            1609     791.246E-03     783.845E-03
             753             120     92.2352E-03     96.5685E-03
             753             121     118.233E-03     136.121E-03
             753            1595     131.802E-03     143.466E-03
             753            1610     104.494E-03     113.081E-03
             754            1595     131.802E-03     143.466E-03
             754            1596     164.986E-03     168.113E-03
             754            1610     104.494E-03     113.081E-03
             754            1611     139.530E-03     149.530E-03
             755            1596     164.986E-03     168.113E-03
             755            1597     207.322E-03     207.939E-03
             755            1611     139.530E-03     149.530E-03
             755            1612     187.620E-03     193.776E-03
             756            1597     207.322E-03     207.939E-03
             756            1598     254.231E-03     254.538E-03
             756            1612     187.620E-03     193.776E-03
             756            1613     239.006E-03     244.057E-03
             757            1598     254.231E-03     254.538E-03
             757            1599     303.727E-03     303.917E-03
             757            1613     239.006E-03     244.057E-03
             757            1614     291.796E-03     296.809E-03
             758            1599     303.727E-03     303.917E-03
             758            1600     354.720E-03     354.931E-03
             758            1614     291.796E-03     296.809E-03
             758            1615     345.594E-03     350.687E-03
             759            1600     354.720E-03     354.931E-03
             759            1601     406.484E-03     406.624E-03
             759            1615     345.594E-03     350.687E-03
             759            1616     399.965E-03     405.219E-03
             760            1601     406.484E-03     406.624E-03
             760            1602     458.512E-03     458.661E-03
             760            1616     399.965E-03     405.219E-03
             760            1617     454.891E-03     460.168E-03
             761            1602     458.512E-03     458.661E-03
             761            1603     510.681E-03     510.550E-03
             761            1617     454.891E-03     460.168E-03
             761            1618     510.133E-03     515.555E-03
             762            1603     510.681E-03     510.550E-03
             762            1604     562.526E-03     562.103E-03
             762            1618     510.133E-03     515.555E-03
             762            1619     565.896E-03     571.527E-03
             763            1604     562.526E-03     562.103E-03
             763            1605     614.018E-03     612.543E-03
             763            1619     565.896E-03     571.527E-03
             763            1620     621.655E-03     628.147E-03
             764            1605     614.018E-03     612.543E-03
             764            1606     664.472E-03     661.595E-03
             764            1620     621.655E-03     628.147E-03
             764            1621     678.260E-03     686.161E-03
             765            1606     664.472E-03     661.595E-03
             765            1607     711.190E-03     707.055E-03
             765            1621     678.260E-03     686.161E-03
             765            1622     733.288E-03     744.333E-03
             766            1607     711.190E-03     707.055E-03
             766            1608     754.380E-03     749.268E-03
             766            1622     733.288E-03     744.333E-03
             766            1623     785.204E-03     799.953E-03
             767            1608     754.380E-03     749.268E-03
             767            1609     791.246E-03     783.845E-03
             767            1623     785.204E-03     799.953E-03
             767            1624     829.632E-03     836.372E-03
             768              97     807.052E-03     797.339E-03
             768              98     848.168E-03     845.846E-03
             768            1609     791.246E-03     783.845E-03
             768            1624     829.632E-03     836.372E-03
             769             119     59.8611E-03     62.3203E-03
             769             120     92.2352E-03     96.5685E-03
             769            1610     104.494E-03     113.081E-03
             769            1625     77.6165E-03     85.7077E-03
             770            1610     104.494E-03     113.081E-03
             770            1611     139.530E-03     149.530E-03
             770            1625     77.6165E-03     85.7077E-03
             770            1626     120.363E-03     133.711E-03
             771            1611     139.530E-03     149.530E-03
             771            1612     187.620E-03     193.776E-03
             771            1626     120.363E-03     133.711E-03
             771            1627     172.469E-03     184.146E-03
             772            1612     187.620E-03     193.776E-03
             772            1613     239.006E-03     244.057E-03
             772            1627     172.469E-03     184.146E-03
             772            1628     227.068E-03     237.464E-03
             773            1613     239.006E-03     244.057E-03
             773            1614     291.796E-03     296.809E-03
             773            1628     227.068E-03     237.464E-03
             773            1629     282.195E-03     292.546E-03
             774            1614     291.796E-03     296.809E-03
             774            1615     345.594E-03     350.687E-03
             774            1629     282.195E-03     292.546E-03
             774            1630     337.726E-03     348.198E-03
             775            1615     345.594E-03     350.687E-03
             775            1616     399.965E-03     405.219E-03
             775            1630     337.726E-03     348.198E-03
             775            1631     393.735E-03     404.308E-03
             776            1616     399.965E-03     405.219E-03
             776            1617     454.891E-03     460.168E-03
             776            1631     393.735E-03     404.308E-03
             776            1632     450.094E-03     460.810E-03
             777            1617     454.891E-03     460.168E-03
             777            1618     510.133E-03     515.555E-03
             777            1632     450.094E-03     460.810E-03
             777            1633     506.921E-03     517.872E-03
             778            1618     510.133E-03     515.555E-03
             778            1619     565.896E-03     571.527E-03
             778            1633     506.921E-03     517.872E-03
             778            1634     564.094E-03     575.712E-03
             779            1619     565.896E-03     571.527E-03
             779            1620     621.655E-03     628.147E-03
             779            1634     564.094E-03     575.712E-03
             779            1635     622.119E-03     635.263E-03
             780            1620     621.655E-03     628.147E-03
             780            1621     678.260E-03     686.161E-03
             780            1635     622.119E-03     635.263E-03
             780            1636     680.228E-03     696.572E-03
             781            1621     678.260E-03     686.161E-03
             781            1622     733.288E-03     744.333E-03
             781            1636     680.228E-03     696.572E-03
             781            1637     743.213E-03     762.291E-03
             782            1622     733.288E-03     744.333E-03
             782            1623     785.204E-03     799.953E-03
             782            1637     743.213E-03     762.291E-03
             782            1638     805.199E-03     824.947E-03
             783            1623     785.204E-03     799.953E-03
             783            1624     829.632E-03     836.372E-03
             783            1638     805.199E-03     824.947E-03
             783            1639     854.589E-03     874.340E-03
             784              98     848.168E-03     845.846E-03
             784              99     876.310E-03     895.797E-03
             784            1624     829.632E-03     836.372E-03
             784            1639     854.589E-03     874.340E-03
             785             118     30.4383E-03     49.3899E-03
             785             119     59.8611E-03     62.3203E-03
             785            1625     77.6165E-03     85.7077E-03
             785            1640     55.6418E-03     72.5759E-03
             786            1625     77.6165E-03     85.7077E-03
             786            1626     120.363E-03     133.711E-03
             786            1640     55.6418E-03     72.5759E-03
             786            1641     108.011E-03     123.511E-03
             787            1626     120.363E-03     133.711E-03
             787            1627     172.469E-03     184.146E-03
             787            1641     108.011E-03     123.511E-03
             787            1642     162.909E-03     179.121E-03
             788            1627     172.469E-03     184.146E-03
             788            1628     227.068E-03     237.464E-03
             788            1642     162.909E-03     179.121E-03
             788            1643     218.634E-03     234.717E-03
             789            1628     227.068E-03     237.464E-03
             789            1629     282.195E-03     292.546E-03
             789            1643     218.634E-03     234.717E-03
             789            1644     274.627E-03     290.666E-03
             790            1629     282.195E-03     292.546E-03
             790            1630     337.726E-03     348.198E-03
             790            1644     274.627E-03     290.666E-03
             790            1645     330.758E-03     346.882E-03
             791            1630     337.726E-03     348.198E-03
             791            1631     393.735E-03     404.308E-03
             791            1645     330.758E-03     346.882E-03
             791            1646     387.010E-03     403.201E-03
             792            1631     393.735E-03     404.308E-03
             792            1632     450.094E-03     460.810E-03
             792            1646     387.010E-03     403.201E-03
             792            1647     443.422E-03     459.638E-03
             793            1632     450.094E-03     460.810E-03
             793            1633     506.921E-03     517.872E-03
             793            1647     443.422E-03     459.638E-03
             793            1648     500.012E-03     516.327E-03
             794            1633     506.921E-03     517.872E-03
             794            1634     564.094E-03     575.712E-03
             794            1648     500.012E-03     516.327E-03
             794            1649     556.800E-03     573.479E-03
             795            1634     564.094E-03     575.712E-03
             795            1635     622.119E-03     635.263E-03
             795            1649     556.800E-03     573.479E-03
             795            1650     613.988E-03     631.561E-03
             796            1635     622.119E-03     635.263E-03
             796            1636     680.228E-03     696.572E-03
             796            1650     613.988E-03     631.561E-03
             796            1651     672.421E-03     691.910E-03
             797            1636     680.228E-03     696.572E-03
             797            1637     743.213E-03     762.291E-03
             797            1651     672.421E-03     691.910E-03
             797            1652     733.298E-03     755.350E-03
             798            1637     743.213E-03     762.291E-03
             798            1638     805.199E-03     824.947E-03
             798            1652     733.298E-03     755.350E-03
             798            1653     806.462E-03     827.191E-03
             799            1638     805.199E-03     824.947E-03
             799            1639     854.589E-03     874.340E-03
             799            1653     806.462E-03     827.191E-03
             799            1654     879.655E-03     887.032E-03
             800              99     876.310E-03     895.797E-03
             800             100     910.823E-03     907.625E-03
             800            1639     854.589E-03     874.340E-03
             800            1654     879.655E-03     887.032E-03
             801             117     26.3213E-03     44.7971E-03
             801             118     30.4383E-03     49.3899E-03
             801            1640     55.6418E-03     72.5759E-03
             801            1655     52.3680E-03     70.4584E-03
             802            1640     55.6418E-03     72.5759E-03
             802            1641     108.011E-03     123.511E-03
             802            1655     52.3680E-03     70.4584E-03
             802            1656     105.126E-03     123.911E-03
             803            1641     108.011E-03     123.511E-03
             803            1642     162.909E-03     179.121E-03
             803            1656     105.126E-03     123.911E-03
             803            1657     159.230E-03     179.948E-03
             804            1642     162.909E-03     179.121E-03
             804            1643     218.634E-03     234.717E-03
             804            1657     159.230E-03     179.948E-03
             804            1658     214.160E-03     235.976E-03
             805            1643     218.634E-03     234.717E-03
             805            1644     274.627E-03     290.666E-03
             805            1658     214.160E-03     235.976E-03
             805            1659     269.529E-03     291.461E-03
             806            1644     274.627E-03     290.666E-03
             806            1645     330.758E-03     346.882E-03
             806            1659     269.529E-03     291.461E-03
             806            1660     324.961E-03     346.936E-03
             807            1645     330.758E-03     346.882E-03
             807            1646     387.010E-03     403.201E-03
             807            1660     324.961E-03     346.936E-03
             807            1661     380.246E-03     402.146E-03
             808            1646     387.010E-03     403.201E-03
             808            1647     443.422E-03     459.638E-03
             808            1661     380.246E-03     402.146E-03
             808            1662     435.341E-03     457.198E-03
             809            1647     443.422E-03     459.638E-03
             809            1648     500.012E-03     516.327E-03
             809            1662     435.341E-03     457.198E-03
             809            1663     490.154E-03     511.794E-03
             810            1648     500.012E-03     516.327E-03
             810            1649     556.800E-03     573.479E-03
             810            1663     490.154E-03     511.794E-03
             810            1664     544.862E-03     566.173E-03
             811            1649     556.800E-03     573.479E-03
             811            1650     613.988E-03     631.561E-03
             811            1664     544.862E-03     566.173E-03
             811            1665     599.416E-03     619.952E-03
             812            1650     613.988E-03     631.561E-03
             812            1651     672.421E-03     691.910E-03
             812            1665     599.416E-03     619.952E-03
             812            1666     655.479E-03     674.621E-03
             813            1651     672.421E-03     691.910E-03
             813            1652     733.298E-03     755.350E-03
             813            1666     655.479E-03     674.621E-03
             813            1667     712.823E-03     730.591E-03
             814            1652     733.298E-03     755.350E-03
             814            1653     806.462E-03     827.191E-03
             814            1667     712.823E-03     730.591E-03
             814            1668     781.794E-03     798.126E-03
             815            1653     806.462E-03     827.191E-03
             815            1654     879.655E-03     887.032E-03
             815            1668     781.794E-03     798.126E-03
             815            1669     877.347E-03     886.292E-03
             816             100     910.823E-03     907.625E-03
             816             101     932.457E-03     934.607E-03
             816            1654     879.655E-03     887.032E-03
             816            1669     877.347E-03     886.292E-03
             817               4     77.9853E-03     92.6833E-03
             817             116     99.0823E-03     110.722E-03
             817             117     26.3213E-03     44.7971E-03
             817            1655     52.3680E-03     70.4584E-03
             818             115     143.669E-03     153.019E-03
             818             116     99.0823E-03     110.722E-03
             818            1655     52.3680E-03     70.4584E-03
             818            1656     105.126E-03     123.911E-03
             819             114     193.377E-03     203.784E-03
             819             115     143.669E-03     153.019E-03
             819            1656     105.126E-03     123.911E-03
             819            1657     159.230E-03     179.948E-03
             820             113     246.782E-03     257.731E-03
             820             114     193.377E-03     203.784E-03
             820            1657     159.230E-03     179.948E-03
             820            1658     214.160E-03     235.976E-03
             821             112     302.039E-03     312.975E-03
             821             113     246.782E-03     257.731E-03
             821            1658     214.160E-03     235.976E-03
             821            1659     269.529E-03     291.461E-03
             822             111     357.928E-03     368.768E-03
             822             112     302.039E-03     312.975E-03
             822            1659     269.529E-03     291.461E-03
             822            1660     324.961E-03     346.936E-03
             823             110     414.208E-03     424.903E-03
             823             111     357.928E-03     368.768E-03
             823            1660     324.961E-03     346.936E-03
             823            1661     380.246E-03     402.146E-03
             824             109     470.098E-03     480.809E-03
             824             110     414.208E-03     424.903E-03
             824            1661     380.246E-03     402.146E-03
             824            1662     435.341E-03     457.198E-03
             825             108     525.933E-03     536.401E-03
             825             109     470.098E-03     480.809E-03
             825            1662     435.341E-03     457.198E-03
             825            1663     490.154E-03     511.794E-03
             826             107     580.721E-03     590.965E-03
             826             108     525.933E-03     536.401E-03
             826            1663     490.154E-03     511.794E-03
             826            1664     544.862E-03     566.173E-03
             827             106     635.830E-03     644.360E-03
             827             107     580.721E-03     590.965E-03
             827            1664     544.862E-03     566.173E-03
             827            1665     599.416E-03     619.952E-03
             828             105     689.398E-03     695.824E-03
             828             106     635.830E-03     644.360E-03
             828            1665     599.416E-03     619.952E-03
             828            1666     655.479E-03     674.621E-03
             829             104     744.108E-03     745.387E-03
             829             105     689.398E-03     695.824E-03
             829            1666     655.479E-03     674.621E-03
             829            1667     712.823E-03     730.591E-03
             830             103     796.893E-03     793.420E-03
             830             104     744.108E-03     745.387E-03
             830            1667     712.823E-03     730.591E-03
             830            1668     781.794E-03     798.126E-03
             831             102     862.821E-03     872.558E-03
             831             103     796.893E-03     793.420E-03
             831            1668     781.794E-03     798.126E-03
             831            1669     877.347E-03     886.292E-03
             832               3     905.831E-03     928.425E-03
             832             101     932.457E-03     934.607E-03
             832             102     862.821E-03     872.558E-03
             832            1669     877.347E-03     886.292E-03
            1777               4     77.9853E-03     92.6833E-03
            1777             116     99.0823E-03     110.722E-03
            1777             466     108.238E-03     124.657E-03
            1777            2431     125.420E-03     135.599E-03
            1778             115     143.669E-03     153.019E-03
            1778             116     99.0823E-03     110.722E-03
            1778            2431     125.420E-03     135.599E-03
            1778            2432     166.194E-03     168.722E-03
            1779             114     193.377E-03     203.784E-03
            1779             115     143.669E-03     153.019E-03
            1779            2432     166.194E-03     168.722E-03
            1779            2433     216.625E-03     217.440E-03
            1780             113     246.782E-03     257.731E-03
            1780             114     193.377E-03     203.784E-03
            1780            2433     216.625E-03     217.440E-03
            1780            2434     271.689E-03     272.108E-03
            1781             112     302.039E-03     312.975E-03
            1781             113     246.782E-03     257.731E-03
            1781            2434     271.689E-03     272.108E-03
            1781            2435     328.875E-03     329.265E-03
            1782             111     357.928E-03     368.768E-03
            1782             112     302.039E-03     312.975E-03
            1782            2435     328.875E-03     329.265E-03
            1782            2436     387.359E-03     387.770E-03
            1783             110     414.208E-03     424.903E-03
            1783             111     357.928E-03     368.768E-03
            1783            2436     387.359E-03     387.770E-03
            1783            2437     446.408E-03     446.819E-03
            1784             109     470.098E-03     480.809E-03
            1784             110     414.208E-03     424.903E-03
            1784            2437     446.408E-03     446.819E-03
            1784            2438     505.812E-03     506.218E-03
            1785             108     525.933E-03     536.401E-03
            1785             109     470.098E-03     480.809E-03
            1785            2438     505.812E-03     506.218E-03
            1785            2439     565.006E-03     565.507E-03
            1786             107     580.721E-03     590.965E-03
            1786             108     525.933E-03     536.401E-03
            1786            2439     565.006E-03     565.507E-03
            1786            2440     624.396E-03     624.613E-03
            1787             106     635.830E-03     644.360E-03
            1787             107     580.721E-03     590.965E-03
            1787            2440     624.396E-03     624.613E-03
            1787            2441     682.829E-03     683.106E-03
            1788             105     689.398E-03     695.824E-03
            1788             106     635.830E-03     644.360E-03
            1788            2441     682.829E-03     683.106E-03
            1788            2442     741.720E-03     740.741E-03
            1789             104     744.108E-03     745.387E-03
            1789             105     689.398E-03     695.824E-03
            1789            2442     741.720E-03     740.741E-03
            1789            2443     797.814E-03     795.752E-03
            1790             103     796.893E-03     793.420E-03
            1790             104     744.108E-03     745.387E-03
            1790            2443     797.814E-03     795.752E-03
            1790            2444     847.570E-03     847.745E-03
            1791             102     862.821E-03     872.558E-03
            1791             103     796.893E-03     793.420E-03
            1791            2444     847.570E-03     847.745E-03
            1791            2445     892.977E-03     886.346E-03
            1792               3     905.831E-03     928.425E-03
            1792             102     862.821E-03     872.558E-03
            1792             433     914.191E-03     899.175E-03
            1792            2445     892.977E-03     886.346E-03
            1793             465     78.7116E-03     83.7891E-03
            1793             466     108.238E-03     124.657E-03
            1793            2431     125.420E-03     135.599E-03
            1793            2446     95.3845E-03     105.317E-03
            1794            2431     125.420E-03     135.599E-03
            1794            2432     166.194E-03     168.722E-03
            1794            2446     95.3845E-03     105.317E-03
            1794            2447     139.888E-03     151.302E-03
            1795            2432     166.194E-03     168.722E-03
            1795            2433     216.625E-03     217.440E-03
            1795            2447     139.888E-03     151.302E-03
            1795            2448     196.949E-03     204.504E-03
            1796            2433     216.625E-03     217.440E-03
            1796            2434     271.689E-03     272.108E-03
            1796            2448     196.949E-03     204.504E-03
            1796            2449     255.757E-03     263.142E-03
            1797            2434     271.689E-03     272.108E-03
            1797            2435     328.875E-03     329.265E-03
            1797            2449     255.757E-03     263.142E-03
            1797            2450     315.592E-03     323.322E-03
            1798            2435     328.875E-03     329.265E-03
            1798            2436     387.359E-03     387.770E-03
            1798            2450     315.592E-03     323.322E-03
            1798            2451     376.253E-03     384.160E-03
            1799            2436     387.359E-03     387.770E-03
            1799            2437     446.408E-03     446.819E-03
            1799            2451     376.253E-03     384.160E-03
            1799            2452     437.361E-03     445.402E-03
            1800            2437     446.408E-03     446.819E-03
            1800            2438     505.812E-03     506.218E-03
            1800            2452     437.361E-03     445.402E-03
            1800            2453     498.835E-03     506.909E-03
            1801            2438     505.812E-03     506.218E-03
            1801            2439     565.006E-03     565.507E-03
            1801            2453     498.835E-03     506.909E-03
            1801            2454     560.710E-03     568.716E-03
            1802            2439     565.006E-03     565.507E-03
            1802            2440     624.396E-03     624.613E-03
            1802            2454     560.710E-03     568.716E-03
            1802            2455     622.825E-03     630.977E-03
            1803            2440     624.396E-03     624.613E-03
            1803            2441     682.829E-03     683.106E-03
            1803            2455     622.825E-03     630.977E-03
            1803            2456     685.645E-03     694.130E-03
            1804            2441     682.829E-03     683.106E-03
            1804            2442     741.720E-03     740.741E-03
            1804            2456     685.645E-03     694.130E-03
            1804            2457     748.302E-03     758.630E-03
            1805            2442     741.720E-03     740.741E-03
            1805            2443     797.814E-03     795.752E-03
            1805            2457     748.302E-03     758.630E-03
            1805            2458     813.418E-03     826.647E-03
            1806            2443     797.814E-03     795.752E-03
            1806            2444     847.570E-03     847.745E-03
            1806            2458     813.418E-03     826.647E-03
            1806            2459     879.278E-03     894.873E-03
            1807            2444     847.570E-03     847.745E-03
            1807            2445     892.977E-03     886.346E-03
            1807            2459     879.278E-03     894.873E-03
            1807            2460     929.379E-03     943.865E-03
            1808             433     914.191E-03     899.175E-03
            1808             434     947.890E-03     960.029E-03
            1808            2445     892.977E-03     886.346E-03
            1808            2460     929.379E-03     943.865E-03
            1809             464     42.5978E-03     52.8017E-03
            1809             465     78.7116E-03     83.7891E-03
            1809            2446     95.3845E-03     105.317E-03
            1809            2461     67.8434E-03     81.4637E-03
            1810            2446     95.3845E-03     105.317E-03
            1810            2447     139.888E-03     151.302E-03
            1810            2461     67.8434E-03     81.4637E-03
            1810            2462     122.732E-03     139.210E-03
            1811            2447     139.888E-03     151.302E-03
            1811            2448     196.949E-03     204.504E-03
            1811            2462     122.732E-03     139.210E-03
            1811            2463     182.836E-03     198.420E-03
            1812            2448     196.949E-03     204.504E-03
            1812            2449     255.757E-03     263.142E-03
            1812            2463     182.836E-03     198.420E-03
            1812            2464     244.018E-03     259.409E-03
            1813            2449     255.757E-03     263.142E-03
            1813            2450     315.592E-03     323.322E-03
            1813            2464     244.018E-03     259.409E-03
            1813            2465     305.579E-03     321.215E-03
            1814            2450     315.592E-03     323.322E-03
            1814            2451     376.253E-03     384.160E-03
            1814            2465     305.579E-03     321.215E-03
            1814            2466     367.348E-03     383.150E-03
            1815            2451     376.253E-03     384.160E-03
            1815            2452     437.361E-03     445.402E-03
            1815            2466     367.348E-03     383.150E-03
            1815            2467     429.401E-03     445.304E-03
            1816            2452     437.361E-03     445.402E-03
            1816            2453     498.835E-03     506.909E-03
            1816            2467     429.401E-03     445.304E-03
            1816            2468     491.637E-03     507.512E-03
            1817            2453     498.835E-03     506.909E-03
            1817            2454     560.710E-03     568.716E-03
            1817            2468     491.637E-03     507.512E-03
            1817            2469     554.208E-03     570.019E-03
            1818            2454     560.710E-03     568.716E-03
            1818            2455     622.825E-03     630.977E-03
            1818            2469     554.208E-03     570.019E-03
            1818            2470     616.896E-03     632.851E-03
            1819            2455     622.825E-03     630.977E-03
            1819            2456     685.645E-03     694.130E-03
            1819            2470     616.896E-03     632.851E-03
            1819            2471     680.242E-03     696.485E-03
            1820            2456     685.645E-03     694.130E-03
            1820            2457     748.302E-03     758.630E-03
            1820            2471     680.242E-03     696.485E-03
            1820            2472     743.605E-03     762.001E-03
            1821            2457     748.302E-03     758.630E-03
            1821            2458     813.418E-03     826.647E-03
            1821            2472     743.605E-03     762.001E-03
            1821            2473     809.283E-03     830.995E-03
            1822            2458     813.418E-03     826.647E-03
            1822            2459     879.278E-03     894.873E-03
            1822            2473     809.283E-03     830.995E-03
            1822            2474     885.643E-03     907.427E-03
            1823            2459     879.278E-03     894.873E-03
            1823            2460     929.379E-03     943.865E-03
            1823            2474     885.643E-03     907.427E-03
            1823            2475     956.498E-03     969.587E-03
            1824             434     947.890E-03     960.029E-03
            1824             435     985.425E-03     991.056E-03
            1824            2460     929.379E-03     943.865E-03
            1824            2475     956.498E-03     969.587E-03
            1825             463     27.9592E-03     48.6852E-03
            1825             464     42.5978E-03     52.8017E-03
            1825            2461     67.8434E-03     81.4637E-03
            1825            2476     57.1070E-03     76.6306E-03
            1826            2461     67.8434E-03     81.4637E-03
            1826            2462     122.732E-03     139.210E-03
            1826            2476     57.1070E-03     76.6306E-03
            1826            2477     115.657E-03     136.643E-03
            1827            2462     122.732E-03     139.210E-03
            1827            2463     182.836E-03     198.420E-03
            1827            2477     115.657E-03     136.643E-03
            1827            2478     175.642E-03     199.456E-03
            1828            2463     182.836E-03     198.420E-03
            1828            2464     244.018E-03     259.409E-03
            1828            2478     175.642E-03     199.456E-03
            1828            2479     237.220E-03     261.094E-03
            1829            2464     244.018E-03     259.409E-03
            1829            2465     305.579E-03     321.215E-03
            1829            2479     237.220E-03     261.094E-03
            1829            2480     298.988E-03     322.848E-03
            1830            2465     305.579E-03     321.215E-03
            1830            2466     367.348E-03     383.150E-03
            1830            2480     298.988E-03     322.848E-03
            1830            2481     360.754E-03     384.639E-03
            1831            2466     367.348E-03     383.150E-03
            1831            2467     429.401E-03     445.304E-03
            1831            2481     360.754E-03     384.639E-03
            1831            2482     422.439E-03     446.237E-03
            1832            2467     429.401E-03     445.304E-03
            1832            2468     491.637E-03     507.512E-03
            1832            2482     422.439E-03     446.237E-03
            1832            2483     484.038E-03     507.833E-03
            1833            2468     491.637E-03     507.512E-03
            1833            2469     554.208E-03     570.019E-03
            1833            2483     484.038E-03     507.833E-03
            1833            2484     545.224E-03     569.033E-03
            1834            2469     554.208E-03     570.019E-03
            1834            2470     616.896E-03     632.851E-03
            1834            2484     545.224E-03     569.033E-03
            1834            2485     606.477E-03     630.068E-03
            1835            2470     616.896E-03     632.851E-03
            1835            2471     680.242E-03     696.485E-03
            1835            2485     606.477E-03     630.068E-03
            1835            2486     666.830E-03     690.435E-03
            1836            2471     680.242E-03     696.485E-03
            1836            2472     743.605E-03     762.001E-03
            1836            2486     666.830E-03     690.435E-03
            1836            2487     728.445E-03     751.074E-03
            1837            2472     743.605E-03     762.001E-03
            1837            2473     809.283E-03     830.995E-03
            1837            2487     728.445E-03     751.074E-03
            1837            2488     789.985E-03     811.753E-03
            1838            2473     809.283E-03     830.995E-03
            1838            2474     885.643E-03     907.427E-03
            1838            2488     789.985E-03     811.753E-03
            1838            2489     859.659E-03     882.090E-03
            1839            2474     885.643E-03     907.427E-03
            1839            2475     956.498E-03     969.587E-03
            1839            2489     859.659E-03     882.090E-03
            1839            2490     956.777E-03     968.127E-03
            1840             435     985.425E-03     991.056E-03
            1840             436         1.01353         1.01347
            1840            2475     956.498E-03     969.587E-03
            1840            2490     956.777E-03     968.127E-03
            1841             462     28.6124E-03     42.8781E-03
            1841             463     27.9592E-03     48.6852E-03
            1841            2476     57.1070E-03     76.6306E-03
            1841            2491     57.1475E-03     73.1200E-03
            1842            2476     57.1070E-03     76.6306E-03
            1842            2477     115.657E-03     136.643E-03
            1842            2491     57.1475E-03     73.1200E-03
            1842            2492     115.837E-03     134.349E-03
            1843            2477     115.657E-03     136.643E-03
            1843            2478     175.642E-03     199.456E-03
            1843            2492     115.837E-03     134.349E-03
            1843            2493     176.660E-03     196.340E-03
            1844            2478     175.642E-03     199.456E-03
            1844            2479     237.220E-03     261.094E-03
            1844            2493     176.660E-03     196.340E-03
            1844            2494     237.988E-03     258.083E-03
            1845            2479     237.220E-03     261.094E-03
            1845            2480     298.988E-03     322.848E-03
            1845            2494     237.988E-03     258.083E-03
            1845            2495     299.583E-03     319.627E-03
            1846            2480     298.988E-03     322.848E-03
            1846            2481     360.754E-03     384.639E-03
            1846            2495     299.583E-03     319.627E-03
            1846            2496     361.168E-03     381.094E-03
            1847            2481     360.754E-03     384.639E-03
            1847            2482     422.439E-03     446.237E-03
            1847            2496     361.168E-03     381.094E-03
            1847            2497     422.670E-03     442.534E-03
            1848            2482     422.439E-03     446.237E-03
            1848            2483     484.038E-03     507.833E-03
            1848            2497     422.670E-03     442.534E-03
            1848            2498     483.862E-03     503.764E-03
            1849            2483     484.038E-03     507.833E-03
            1849            2484     545.224E-03     569.033E-03
            1849            2498     483.862E-03     503.764E-03
            1849            2499     544.954E-03     564.796E-03
            1850            2484     545.224E-03     569.033E-03
            1850            2485     606.477E-03     630.068E-03
            1850            2499     544.954E-03     564.796E-03
            1850            2500     605.426E-03     625.329E-03
            1851            2485     606.477E-03     630.068E-03
            1851            2486     666.830E-03     690.435E-03
            1851            2500     605.426E-03     625.329E-03
            1851            2501     666.023E-03     685.298E-03
            1852            2486     666.830E-03     690.435E-03
            1852            2487     728.445E-03     751.074E-03
            1852            2501     666.023E-03     685.298E-03
            1852            2502     725.896E-03     744.425E-03
            1853            2487     728.445E-03     751.074E-03
            1853            2488     789.985E-03     811.753E-03
            1853            2502     725.896E-03     744.425E-03
            1853            2503     787.374E-03     803.355E-03
            1854            2488     789.985E-03     811.753E-03
            1854            2489     859.659E-03     882.090E-03
            1854            2503     787.374E-03     803.355E-03
            1854            2504     849.760E-03     863.339E-03
            1855            2489     859.659E-03     882.090E-03
            1855            2490     956.777E-03     968.127E-03
            1855            2504     849.760E-03     863.339E-03
            1855            2505     928.886E-03     950.892E-03
            1856             436         1.01353         1.01347
            1856             437     978.107E-03         1.00828
            1856            2490     956.777E-03     968.127E-03
            1856            2505     928.886E-03     950.892E-03
            1857              18     23.2935E-03     38.4191E-03
            1857             461     52.4875E-03     70.0380E-03
            1857             462     28.6124E-03     42.8781E-03
            1857            2491     57.1475E-03     73.1200E-03
            1858             460     111.670E-03     132.920E-03
            1858             461     52.4875E-03     70.0380E-03
            1858            2491     57.1475E-03     73.1200E-03
            1858            2492     115.837E-03     134.349E-03
            1859             459     171.897E-03     194.736E-03
            1859             460     111.670E-03     132.920E-03
            1859            2492     115.837E-03     134.349E-03
            1859            2493     176.660E-03     196.340E-03
            1860             458     232.504E-03     255.958E-03
            1860             459     171.897E-03     194.736E-03
            1860            2493     176.660E-03     196.340E-03
            1860            2494     237.988E-03     258.083E-03
            1861             457     293.334E-03     316.914E-03
            1861             458     232.504E-03     255.958E-03
            1861            2494     237.988E-03     258.083E-03
            1861            2495     299.583E-03     319.627E-03
            1862             456     354.017E-03     377.618E-03
            1862             457     293.334E-03     316.914E-03
            1862            2495     299.583E-03     319.627E-03
            1862            2496     361.168E-03     381.094E-03
            1863             455     414.694E-03     438.110E-03
            1863             456     354.017E-03     377.618E-03
            1863            2496     361.168E-03     381.094E-03
            1863            2497     422.670E-03     442.534E-03
            1864             454     474.979E-03     498.423E-03
            1864             455     414.694E-03     438.110E-03
            1864            2497     422.670E-03     442.534E-03
            1864            2498     483.862E-03     503.764E-03
            1865             453     535.191E-03     558.332E-03
            1865             454     474.979E-03     498.423E-03
            1865            2498     483.862E-03     503.764E-03
            1865            2499     544.954E-03     564.796E-03
            1866             452     594.951E-03     617.877E-03
            1866             453     535.191E-03     558.332E-03
            1866            2499     544.954E-03     564.796E-03
            1866            2500     605.426E-03     625.329E-03
            1867             451     655.168E-03     676.907E-03
            1867             452     594.951E-03     617.877E-03
            1867            2500     605.426E-03     625.329E-03
            1867            2501     666.023E-03     685.298E-03
            1868             450     715.459E-03     735.739E-03
            1868             451     655.168E-03     676.907E-03
            1868            2501     666.023E-03     685.298E-03
            1868            2502     725.896E-03     744.425E-03
            1869             449     779.176E-03     796.433E-03
            1869             450     715.459E-03     735.739E-03
            1869            2502     725.896E-03     744.425E-03
            1869            2503     787.374E-03     803.355E-03
            1870             448     846.230E-03     861.931E-03
            1870             449     779.176E-03     796.433E-03
            1870            2503     787.374E-03     803.355E-03
            1870            2504     849.760E-03     863.339E-03
            1871             447     938.830E-03     964.706E-03
            1871             448     846.230E-03     861.931E-03
            1871            2504     849.760E-03     863.339E-03
            1871            2505     928.886E-03     950.892E-03
            1872              16     998.640E-03         1.03300
            1872             437     978.107E-03         1.00828
            1872             447     938.830E-03     964.706E-03
            1872            2505     928.886E-03     950.892E-03
            2905              18     23.2935E-03     38.4191E-03
            2905             461     52.4875E-03     70.0380E-03
            2905             552     32.8521E-03     44.5505E-03
            2905            3423     57.6695E-03     75.5779E-03
            2906             460     111.670E-03     132.920E-03
            2906             461     52.4875E-03     70.0380E-03
            2906            3423     57.6695E-03     75.5779E-03
            2906            3424     111.189E-03     136.934E-03
            2907             459     171.897E-03     194.736E-03
            2907             460     111.670E-03     132.920E-03
            2907            3424     111.189E-03     136.934E-03
            2907            3425     169.426E-03     197.933E-03
            2908             458     232.504E-03     255.958E-03
            2908             459     171.897E-03     194.736E-03
            2908            3425     169.426E-03     197.933E-03
            2908            3426     228.759E-03     258.784E-03
            2909             457     293.334E-03     316.914E-03
            2909             458     232.504E-03     255.958E-03
            2909            3426     228.759E-03     258.784E-03
            2909            3427     288.743E-03     318.948E-03
            2910             456     354.017E-03     377.618E-03
            2910             457     293.334E-03     316.914E-03
            2910            3427     288.743E-03     318.948E-03
            2910            3428     348.871E-03     379.097E-03
            2911             455     414.694E-03     438.110E-03
            2911             456     354.017E-03     377.618E-03
            2911            3428     348.871E-03     379.097E-03
            2911            3429     408.865E-03     438.996E-03
            2912             454     474.979E-03     498.423E-03
            2912             455     414.694E-03     438.110E-03
            2912            3429     408.865E-03     438.996E-03
            2912            3430     468.719E-03     498.776E-03
            2913             453     535.191E-03     558.332E-03
            2913             454     474.979E-03     498.423E-03
            2913            3430     468.719E-03     498.776E-03
            2913            3431     528.259E-03     558.093E-03
            2914             452     594.951E-03     617.877E-03
            2914             453     535.191E-03     558.332E-03
            2914            3431     528.259E-03     558.093E-03
            2914            3432     587.809E-03     617.279E-03
            2915             451     655.168E-03     676.907E-03
            2915             452     594.951E-03     617.877E-03
            2915            3432     587.809E-03     617.279E-03
            2915            3433     647.232E-03     675.940E-03
            2916             450     715.459E-03     735.739E-03
            2916             451     655.168E-03     676.907E-03
            2916            3433     647.232E-03     675.940E-03
            2916            3434     708.905E-03     736.124E-03
            2917             449     779.176E-03     796.433E-03
            2917             450     715.459E-03     735.739E-03
            2917            3434     708.905E-03     736.124E-03
            2917            3435     773.168E-03     798.835E-03
            2918             448     846.230E-03     861.931E-03
            2918             449     779.176E-03     796.433E-03
            2918            3435     773.168E-03     798.835E-03
            2918            3436     854.167E-03     878.126E-03
            2919             447     938.830E-03     964.706E-03
            2919             448     846.230E-03     861.931E-03
            2919            3436     854.167E-03     878.126E-03
            2919            3437     973.705E-03     988.260E-03
            2920              16     998.640E-03         1.03300
            2920             447     938.830E-03     964.706E-03
            2920             528         1.04444         1.05038
            2920            3437     973.705E-03     988.260E-03
            2921             551     61.0085E-03     66.9665E-03
            2921             552     32.8521E-03     44.5505E-03
            2921            3423     57.6695E-03     75.5779E-03
            2921            3438     80.4553E-03     90.2683E-03
            2922            3423     57.6695E-03     75.5779E-03
            2922            3424     111.189E-03     136.934E-03
            2922            3438     80.4553E-03     90.2683E-03
            2922            3439     126.352E-03     142.713E-03
            2923            3424     111.189E-03     136.934E-03
            2923            3425     169.426E-03     197.933E-03
            2923            3439     126.352E-03     142.713E-03
            2923            3440     181.548E-03     201.275E-03
            2924            3425     169.426E-03     197.933E-03
            2924            3426     228.759E-03     258.784E-03
            2924            3440     181.548E-03     201.275E-03
            2924            3441     239.931E-03     260.168E-03
            2925            3426     228.759E-03     258.784E-03
            2925            3427     288.743E-03     318.948E-03
            2925            3441     239.931E-03     260.168E-03
            2925            3442     299.495E-03     319.865E-03
            2926            3427     288.743E-03     318.948E-03
            2926            3428     348.871E-03     379.097E-03
            2926            3442     299.495E-03     319.865E-03
            2926            3443     359.607E-03     380.130E-03
            2927            3428     348.871E-03     379.097E-03
            2927            3429     408.865E-03     438.996E-03
            2927            3443     359.607E-03     380.130E-03
            2927            3444     420.073E-03     440.693E-03
            2928            3429     408.865E-03     438.996E-03
            2928            3430     468.719E-03     498.776E-03
            2928            3444     420.073E-03     440.693E-03
            2928            3445     480.831E-03     501.500E-03
            2929            3430     468.719E-03     498.776E-03
            2929            3431     528.259E-03     558.093E-03
            2929            3445     480.831E-03     501.500E-03
            2929            3446     541.907E-03     562.673E-03
            2930            3431     528.259E-03     558.093E-03
            2930            3432     587.809E-03     617.279E-03
            2930            3446     541.907E-03     562.673E-03
            2930            3447     603.203E-03     624.401E-03
            2931            3432     587.809E-03     617.279E-03
            2931            3433     647.232E-03     675.940E-03
            2931            3447     603.203E-03     624.401E-03
            2931            3448     665.112E-03     687.245E-03
            2932            3433     647.232E-03     675.940E-03
            2932            3434     708.905E-03     736.124E-03
            2932            3448     665.112E-03     687.245E-03
            2932            3449     728.406E-03     752.739E-03
            2933            3434     708.905E-03     736.124E-03
            2933            3435     773.168E-03     798.835E-03
            2933            3449     728.406E-03     752.739E-03
            2933            3450     795.181E-03     822.167E-03
            2934            3435     773.168E-03     798.835E-03
            2934            3436     854.167E-03     878.126E-03
            2934            3450     795.181E-03     822.167E-03
            2934            3451     879.249E-03     903.478E-03
            2935            3436     854.167E-03     878.126E-03
            2935            3437     973.705E-03     988.260E-03
            2935            3451     879.249E-03     903.478E-03
            2935            3452     965.883E-03     974.039E-03
            2936             528         1.04444         1.05038
            2936             529         1.00314     999.226E-03
            2936            3437     973.705E-03     988.260E-03
            2936            3452     965.883E-03     974.039E-03
            2937             550     95.9408E-03     92.6269E-03
            2937             551     61.0085E-03     66.9665E-03
            2937            3438     80.4553E-03     90.2683E-03
            2937            3453     110.341E-03     113.558E-03
            2938            3438     80.4553E-03     90.2683E-03
            2938            3439     126.352E-03     142.713E-03
            2938            3453     110.341E-03     113.558E-03
            2938            3454     147.970E-03     159.291E-03
            2939            3439     126.352E-03     142.713E-03
            2939            3440     181.548E-03     201.275E-03
            2939            3454     147.970E-03     159.291E-03
            2939            3455     198.602E-03     210.513E-03
            2940            3440     181.548E-03     201.275E-03
            2940            3441     239.931E-03     260.168E-03
            2940            3455     198.602E-03     210.513E-03
            2940            3456     254.698E-03     265.639E-03
            2941            3441     239.931E-03     260.168E-03
            2941            3442     299.495E-03     319.865E-03
            2941            3456     254.698E-03     265.639E-03
            2941            3457     312.536E-03     323.509E-03
            2942            3442     299.495E-03     319.865E-03
            2942            3443     359.607E-03     380.130E-03
            2942            3457     312.536E-03     323.509E-03
            2942            3458     371.350E-03     382.542E-03
            2943            3443     359.607E-03     380.130E-03
            2943            3444     420.073E-03     440.693E-03
            2943            3458     371.350E-03     382.542E-03
            2943            3459     431.038E-03     442.362E-03
            2944            3444     420.073E-03     440.693E-03
            2944            3445     480.831E-03     501.500E-03
            2944            3459     431.038E-03     442.362E-03
            2944            3460     491.325E-03     502.823E-03
            2945            3445     480.831E-03     501.500E-03
            2945            3446     541.907E-03     562.673E-03
            2945            3460     491.325E-03     502.823E-03
            2945            3461     552.277E-03     564.028E-03
            2946            3446     541.907E-03     562.673E-03
            2946            3447     603.203E-03     624.401E-03
            2946            3461     552.277E-03     564.028E-03
            2946            3462     613.741E-03     626.176E-03
            2947            3447     603.203E-03     624.401E-03
            2947            3448     665.112E-03     687.245E-03
            2947            3462     613.741E-03     626.176E-03
            2947            3463     676.185E-03     690.241E-03
            2948            3448     665.112E-03     687.245E-03
            2948            3449     728.406E-03     752.739E-03
            2948            3463     676.185E-03     690.241E-03
            2948            3464     738.716E-03     756.162E-03
            2949            3449     728.406E-03     752.739E-03
            2949            3450     795.181E-03     822.167E-03
            2949            3464     738.716E-03     756.162E-03
            2949            3465     806.234E-03     826.712E-03
            2950            3450     795.181E-03     822.167E-03
            2950            3451     879.249E-03     903.478E-03
            2950            3465     806.234E-03     826.712E-03
            2950            3466     871.934E-03     893.372E-03
            2951            3451     879.249E-03     903.478E-03
            2951            3452     965.883E-03     974.039E-03
            2951            3466     871.934E-03     893.372E-03
            2951            3467     924.319E-03     945.781E-03
            2952             529         1.00314     999.226E-03
            2952             530     947.650E-03     968.771E-03
            2952            3452     965.883E-03     974.039E-03
            2952            3467     924.319E-03     945.781E-03
            2953             549     131.872E-03     132.031E-03
            2953             550     95.9408E-03     92.6269E-03
            2953            3453     110.341E-03     113.558E-03
            2953            3468     141.504E-03     147.459E-03
            2954            3453     110.341E-03     113.558E-03
            2954            3454     147.970E-03     159.291E-03
            2954            3468     141.504E-03     147.459E-03
            2954            3469     172.893E-03     181.348E-03
            2955            3454     147.970E-03     159.291E-03
            2955            3455     198.602E-03     210.513E-03
            2955            3469     172.893E-03     181.348E-03
            2955            3470     220.203E-03     224.009E-03
            2956            3455     198.602E-03     210.513E-03
            2956            3456     254.698E-03     265.639E-03
            2956            3470     220.203E-03     224.009E-03
            2956            3471     272.582E-03     274.973E-03
            2957            3456     254.698E-03     265.639E-03
            2957            3457     312.536E-03     323.509E-03
            2957            3471     272.582E-03     274.973E-03
            2957            3472     327.380E-03     329.681E-03
            2958            3457     312.536E-03     323.509E-03
            2958            3458     371.350E-03     382.542E-03
            2958            3472     327.380E-03     329.681E-03
            2958            3473     383.893E-03     386.220E-03
            2959            3458     371.350E-03     382.542E-03
            2959            3459     431.038E-03     442.362E-03
            2959            3473     383.893E-03     386.220E-03
            2959            3474     441.393E-03     443.893E-03
            2960            3459     431.038E-03     442.362E-03
            2960            3460     491.325E-03     502.823E-03
            2960            3474     441.393E-03     443.893E-03
            2960            3475     499.778E-03     502.273E-03
            2961            3460     491.325E-03     502.823E-03
            2961            3461     552.277E-03     564.028E-03
            2961            3475     499.778E-03     502.273E-03
            2961            3476     558.673E-03     561.311E-03
            2962            3461     552.277E-03     564.028E-03
            2962            3462     613.741E-03     626.176E-03
            2962            3476     558.673E-03     561.311E-03
            2962            3477     618.316E-03     621.106E-03
            2963            3462     613.741E-03     626.176E-03
            2963            3463     676.185E-03     690.241E-03
            2963            3477     618.316E-03     621.106E-03
            2963            3478     677.915E-03     681.573E-03
            2964            3463     676.185E-03     690.241E-03
            2964            3464     738.716E-03     756.162E-03
            2964            3478     677.915E-03     681.573E-03
            2964            3479     738.290E-03     743.283E-03
            2965            3464     738.716E-03     756.162E-03
            2965            3465     806.234E-03     826.712E-03
            2965            3479     738.290E-03     743.283E-03
            2965            3480     795.652E-03     804.162E-03
            2966            3465     806.234E-03     826.712E-03
            2966            3466     871.934E-03     893.372E-03
            2966            3480     795.652E-03     804.162E-03
            2966            3481     844.614E-03     858.678E-03
            2967            3466     871.934E-03     893.372E-03
            2967            3467     924.319E-03     945.781E-03
            2967            3481     844.614E-03     858.678E-03
            2967            3482     883.183E-03     890.193E-03
            2968             530     947.650E-03     968.771E-03
            2968             531     899.202E-03     896.766E-03
            2968            3467     924.319E-03     945.781E-03
            2968            3482     883.183E-03     890.193E-03
            2969             548     157.796E-03     177.712E-03
            2969             549     131.872E-03     132.031E-03
            2969            3468     141.504E-03     147.459E-03
            2969            3483     170.810E-03     183.060E-03
            2970            3468     141.504E-03     147.459E-03
            2970            3469     172.893E-03     181.348E-03
            2970            3483     170.810E-03     183.060E-03
            2970            3484     203.233E-03     203.996E-03
            2971            3469     172.893E-03     181.348E-03
            2971            3470     220.203E-03     224.009E-03
            2971            3484     203.233E-03     203.996E-03
            2971            3485     245.573E-03     241.712E-03
            2972            3470     220.203E-03     224.009E-03
            2972            3471     272.582E-03     274.973E-03
            2972            3485     245.573E-03     241.712E-03
            2972            3486     293.296E-03     288.265E-03
            2973            3471     272.582E-03     274.973E-03
            2973            3472     327.380E-03     329.681E-03
            2973            3486     293.296E-03     288.265E-03
            2973            3487     344.387E-03     338.870E-03
            2974            3472     327.380E-03     329.681E-03
            2974            3473     383.893E-03     386.220E-03
            2974            3487     344.387E-03     338.870E-03
            2974            3488     397.623E-03     391.894E-03
            2975            3473     383.893E-03     386.220E-03
            2975            3474     441.393E-03     443.893E-03
            2975            3488     397.623E-03     391.894E-03
            2975            3489     452.056E-03     446.111E-03
            2976            3474     441.393E-03     443.893E-03
            2976            3475     499.778E-03     502.273E-03
            2976            3489     452.056E-03     446.111E-03
            2976            3490     507.005E-03     500.982E-03
            2977            3475     499.778E-03     502.273E-03
            2977            3476     558.673E-03     561.311E-03
            2977            3490     507.005E-03     500.982E-03
            2977            3491     562.291E-03     555.876E-03
            2978            3476     558.673E-03     561.311E-03
            2978            3477     618.316E-03     621.106E-03
            2978            3491     562.291E-03     555.876E-03
            2978            3492     617.207E-03     610.445E-03
            2979            3477     618.316E-03     621.106E-03
            2979            3478     677.915E-03     681.573E-03
            2979            3492     617.207E-03     610.445E-03
            2979            3493     671.692E-03     663.671E-03
            2980            3478     677.915E-03     681.573E-03
            2980            3479     738.290E-03     743.283E-03
            2980            3493     671.692E-03     663.671E-03
            2980            3494     724.275E-03     714.702E-03
            2981            3479     738.290E-03     743.283E-03
            2981            3480     795.652E-03     804.162E-03
            2981            3494     724.275E-03     714.702E-03
            2981            3495     771.204E-03     760.223E-03
            2982            3480     795.652E-03     804.162E-03
            2982            3481     844.614E-03     858.678E-03
            2982            3495     771.204E-03     760.223E-03
            2982            3496     809.711E-03     797.696E-03
            2983            3481     844.614E-03     858.678E-03
            2983            3482     883.183E-03     890.193E-03
            2983            3496     809.711E-03     797.696E-03
            2983            3497     831.546E-03     818.608E-03
            2984             531     899.202E-03     896.766E-03
            2984             532     836.623E-03     822.591E-03
            2984            3482     883.183E-03     890.193E-03
            2984            3497     831.546E-03     818.608E-03
            2985              22     102.974E-03     125.422E-03
            2985             547     119.514E-03     138.163E-03
            2985             548     157.796E-03     177.712E-03
            2985            3483     170.810E-03     183.060E-03
            2986             546     155.923E-03     171.143E-03
            2986             547     119.514E-03     138.163E-03
            2986            3483     170.810E-03     183.060E-03
            2986            3484     203.233E-03     203.996E-03
            2987             545     198.310E-03     214.185E-03
            2987             546     155.923E-03     171.143E-03
            2987            3484     203.233E-03     203.996E-03
            2987            3485     245.573E-03     241.712E-03
            2988             544     245.188E-03     261.258E-03
            2988             545     198.310E-03     214.185E-03
            2988            3485     245.573E-03     241.712E-03
            2988            3486     293.296E-03     288.265E-03
            2989             543     294.847E-03     310.249E-03
            2989             544     245.188E-03     261.258E-03
            2989            3486     293.296E-03     288.265E-03
            2989            3487     344.387E-03     338.870E-03
            2990             542     345.570E-03     360.890E-03
            2990             543     294.847E-03     310.249E-03
            2990            3487     344.387E-03     338.870E-03
            2990            3488     397.623E-03     391.894E-03
            2991             541     397.060E-03     412.031E-03
            2991             542     345.570E-03     360.890E-03
            2991            3488     397.623E-03     391.894E-03
            2991            3489     452.056E-03     446.111E-03
            2992             540     448.596E-03     463.647E-03
            2992             541     397.060E-03     412.031E-03
            2992            3489     452.056E-03     446.111E-03
            2992            3490     507.005E-03     500.982E-03
            2993             539     500.215E-03     514.792E-03
            2993             540     448.596E-03     463.647E-03
            2993            3490     507.005E-03     500.982E-03
            2993            3491     562.291E-03     555.876E-03
            2994             538     551.070E-03     565.472E-03
            2994             539     500.215E-03     514.792E-03
            2994            3491     562.291E-03     555.876E-03
            2994            3492     617.207E-03     610.445E-03
            2995             537     601.440E-03     614.503E-03
            2995             538     551.070E-03     565.472E-03
            2995            3492     617.207E-03     610.445E-03
            2995            3493     671.692E-03     663.671E-03
            2996             536     649.172E-03     660.588E-03
            2996             537     601.440E-03     614.503E-03
            2996            3493     671.692E-03     663.671E-03
            2996            3494     724.275E-03     714.702E-03
            2997             535     696.219E-03     703.132E-03
            2997             536     649.172E-03     660.588E-03
            2997            3494     724.275E-03     714.702E-03
            2997            3495     771.204E-03     760.223E-03
            2998             534     737.988E-03     740.834E-03
            2998             535     696.219E-03     703.132E-03
            2998            3495     771.204E-03     760.223E-03
            2998            3496     809.711E-03     797.696E-03
            2999             533     792.455E-03     804.281E-03
            2999             534     737.988E-03     740.834E-03
            2999            3496     809.711E-03     797.696E-03
            2999            3497     831.546E-03     818.608E-03
            3000              21     830.135E-03     849.581E-03
            3000             532     836.623E-03     822.591E-03
            3000             533     792.455E-03     804.281E-03
            3000            3497     831.546E-03     818.608E-03
            4210               2     7.44882E-03     18.2453E-03
            4210              50     16.5950E-03     19.1211E-03
            4210             217     15.4287E-15     15.0160E-15
            4210            4477     17.0440E-15     16.8889E-15
            4211              49     26.9304E-03     22.1612E-03
            4211              50     16.5950E-03     19.1211E-03
            4211            4477     17.0440E-15     16.8889E-15
            4211            4478     22.4280E-15     23.0379E-15
            4212              48     30.4510E-03     26.2349E-03
            4212              49     26.9304E-03     22.1612E-03
            4212            4478     22.4280E-15     23.0379E-15
            4212            4479     24.2150E-15     25.6671E-15
            4213              47     31.7841E-03     27.5254E-03
            4213              48     30.4510E-03     26.2349E-03
            4213            4479     24.2150E-15     25.6671E-15
            4213            4480     21.0778E-15     22.8497E-15
            4214              46     31.0568E-03     27.3422E-03
            4214              47     31.7841E-03     27.5254E-03
            4214            4480     21.0778E-15     22.8497E-15
            4214            4481     18.0995E-15     20.8971E-15
            4215              45     30.8045E-03     27.3767E-03
            4215              46     31.0568E-03     27.3422E-03
            4215            4481     18.0995E-15     20.8971E-15
            4215            4482     21.1978E-15     20.8443E-15
            4216              44     30.2154E-03     27.0797E-03
            4216              45     30.8045E-03     27.3767E-03
            4216            4482     21.1978E-15     20.8443E-15
            4216            4483     23.7939E-15     17.2715E-15
            4217              43     29.8140E-03     26.9952E-03
            4217              44     30.2154E-03     27.0797E-03
            4217            4483     23.7939E-15     17.2715E-15
            4217            4484     15.9686E-15     11.2476E-15
            4218              42     29.3164E-03     26.8187E-03
            4218              43     29.8140E-03     26.9952E-03
            4218            4484     15.9686E-15     11.2476E-15
            4218            4485     13.7925E-15     13.2083E-15
            4219              41     28.9080E-03     26.7415E-03
            4219              42     29.3164E-03     26.8187E-03
            4219            4485     13.7925E-15     13.2083E-15
            4219            4486     26.0773E-15     26.4665E-15
            4220              40     28.4965E-03     26.6550E-03
            4220              41     28.9080E-03     26.7415E-03
            4220            4486     26.0773E-15     26.4665E-15
            4220            4487     37.0732E-15     35.8913E-15
            4221              39     28.0917E-03     26.6970E-03
            4221              40     28.4965E-03     26.6550E-03
            4221            4487     37.0732E-15     35.8913E-15
            4221            4488     29.8977E-15     25.5355E-15
            4222              38     27.8402E-03     26.6051E-03
            4222              39     28.0917E-03     26.6970E-03
            4222            4488     29.8977E-15     25.5355E-15
            4222            4489     18.7861E-15     15.1618E-15
            4223              37     27.4681E-03     26.6251E-03
            4223              38     27.8402E-03     26.6051E-03
            4223            4489     18.7861E-15     15.1618E-15
            4223            4490     14.6461E-15     15.2188E-15
            4224              36     25.9846E-03     27.5967E-03
            4224              37     27.4681E-03     26.6251E-03
            4224            4490     14.6461E-15     15.2188E-15
            4224            4491     15.9155E-15     17.8532E-15
            4225               1     24.8615E-03     28.4172E-03
            4225              36     25.9846E-03     27.5967E-03
            4225             209     19.4240E-15     20.2617E-15
            4225            4491     15.9155E-15     17.8532E-15
            4226             217     15.4287E-15     15.0160E-15
            4226             218     15.2190E-15     16.1373E-15
            4226            4477     17.0440E-15     16.8889E-15
            4226            4492     16.3792E-15     16.2979E-15
            4227            4477     17.0440E-15     16.8889E-15
            4227            4478     22.4280E-15     23.0379E-15
            4227            4492     16.3792E-15     16.2979E-15
            4227            4493     20.1300E-15     19.5779E-15
            4228            4478     22.4280E-15     23.0379E-15
            4228            4479     24.2150E-15     25.6671E-15
            4228            4493     20.1300E-15     19.5779E-15
            4228            4494     16.6424E-15     17.5496E-15
            4229            4479     24.2150E-15     25.6671E-15
            4229            4480     21.0778E-15     22.8497E-15
            4229            4494     16.6424E-15     17.5496E-15
            4229            4495     10.9097E-15     12.0486E-15
            4230            4480     21.0778E-15     22.8497E-15
            4230            4481     18.0995E-15     20.8971E-15
            4230            4495     10.9097E-15     12.0486E-15
            4230            4496     11.2581E-15     12.8637E-15
            4231            4481     18.0995E-15     20.8971E-15
            4231            4482     21.1978E-15     20.8443E-15
            4231            4496     11.2581E-15     12.8637E-15
            4231            4497     15.9380E-15     15.0076E-15
            4232            4482     21.1978E-15     20.8443E-15
            4232            4483     23.7939E-15     17.2715E-15
            4232            4497     15.9380E-15     15.0076E-15
            4232            4498     17.3656E-15     11.8899E-15
            4233            4483     23.7939E-15     17.2715E-15
            4233            4484     15.9686E-15     11.2476E-15
            4233            4498     17.3656E-15     11.8899E-15
            4233            4499     14.1010E-15     14.2370E-15
            4234            4484     15.9686E-15     11.2476E-15
            4234            4485     13.7925E-15     13.2083E-15
            4234            4499     14.1010E-15     14.2370E-15
            4234            4500     17.8069E-15     21.0912E-15
            4235            4485     13.7925E-15     13.2083E-15
            4235            4486     26.0773E-15     26.4665E-15
            4235            4500     17.8069E-15     21.0912E-15
            4235            4501     23.3440E-15     24.0525E-15
            4236            4486     26.0773E-15     26.4665E-15
            4236            4487     37.0732E-15     35.8913E-15
            4236            4501     23.3440E-15     24.0525E-15
            4236            4502     29.4764E-15     31.1249E-15
            4237            4487     37.0732E-15     35.8913E-15
            4237            4488     29.8977E-15     25.5355E-15
            4237            4502     29.4764E-15     31.1249E-15
            4237            4503     22.1912E-15     23.8094E-15
            4238            4488     29.8977E-15     25.5355E-15
            4238            4489     18.7861E-15     15.1618E-15
            4238            4503     22.1912E-15     23.8094E-15
            4238            4504     11.1550E-15     11.6224E-15
            4239            4489     18.7861E-15     15.1618E-15
            4239            4490     14.6461E-15     15.2188E-15
            4239            4504     11.1550E-15     11.6224E-15
            4239            4505     11.8144E-15     14.7966E-15
            4240            4490     14.6461E-15     15.2188E-15
            4240            4491     15.9155E-15     17.8532E-15
            4240            4505     11.8144E-15     14.7966E-15
            4240            4506     11.2981E-15     14.7914E-15
            4241             208     10.6879E-15     11.2657E-15
            4241             209     19.4240E-15     20.2617E-15
            4241            4491     15.9155E-15     17.8532E-15
            4241            4506     11.2981E-15     14.7914E-15
            4242             218     15.2190E-15     16.1373E-15
            4242             219     15.0963E-15     15.8278E-15
            4242            4492     16.3792E-15     16.2979E-15
            4242            4507     14.9954E-15     15.2123E-15
            4243            4492     16.3792E-15     16.2979E-15
            4243            4493     20.1300E-15     19.5779E-15
            4243            4507     14.9954E-15     15.2123E-15
            4243            4508     19.7774E-15     18.0310E-15
            4244            4493     20.1300E-15     19.5779E-15
            4244            4494     16.6424E-15     17.5496E-15
            4244            4508     19.7774E-15     18.0310E-15
            4244            4509     18.1808E-15     17.4085E-15
            4245            4494     16.6424E-15     17.5496E-15
            4245            4495     10.9097E-15     12.0486E-15
            4245            4509     18.1808E-15     17.4085E-15
            4245            4510     12.3346E-15     11.8043E-15
            4246            4495     10.9097E-15     12.0486E-15
            4246            4496     11.2581E-15     12.8637E-15
            4246            4510     12.3346E-15     11.8043E-15
            4246            4511     16.9360E-15     16.2806E-15
            4247            4496     11.2581E-15     12.8637E-15
            4247            4497     15.9380E-15     15.0076E-15
            4247            4511     16.9360E-15     16.2806E-15
            4247            4512     21.8364E-15     19.9703E-15
            4248            4497     15.9380E-15     15.0076E-15
            4248            4498     17.3656E-15     11.8899E-15
            4248            4512     21.8364E-15     19.9703E-15
            4248            4513     23.1264E-15     18.6145E-15
            4249            4498     17.3656E-15     11.8899E-15
            4249            4499     14.1010E-15     14.2370E-15
            4249            4513     23.1264E-15     18.6145E-15
            4249            4514     31.5128E-15     31.7642E-15
            4250            4499     14.1010E-15     14.2370E-15
            4250            4500     17.8069E-15     21.0912E-15
            4250            4514     31.5128E-15     31.7642E-15
            4250            4515     32.2266E-15     34.6096E-15
            4251            4500     17.8069E-15     21.0912E-15
            4251            4501     23.3440E-15     24.0525E-15
            4251            4515     32.2266E-15     34.6096E-15
            4251            4516     18.5080E-15     19.0982E-15
            4252            4501     23.3440E-15     24.0525E-15
            4252            4502     29.4764E-15     31.1249E-15
            4252            4516     18.5080E-15     19.0982E-15
            4252            4517     16.1600E-15     17.7322E-15
            4253            4502     29.4764E-15     31.1249E-15
            4253            4503     22.1912E-15     23.8094E-15
            4253            4517     16.1600E-15     17.7322E-15
            4253            4518     15.2503E-15     18.0640E-15
            4254            4503     22.1912E-15     23.8094E-15
            4254            4504     11.1550E-15     11.6224E-15
            4254            4518     15.2503E-15     18.0640E-15
            4254            4519     10.9198E-15     11.6630E-15
            4255            4504     11.1550E-15     11.6224E-15
            4255            4505     11.8144E-15     14.7966E-15
            4255            4519     10.9198E-15     11.6630E-15
            4255            4520     15.9926E-15     14.6913E-15
            4256            4505     11.8144E-15     14.7966E-15
            4256            4506     11.2981E-15     14.7914E-15
            4256            4520     15.9926E-15     14.6913E-15
            4256            4521     23.9710E-15     24.1958E-15
            4257             207     27.5118E-15     28.7584E-15
            4257             208     10.6879E-15     11.2657E-15
            4257            4506     11.2981E-15     14.7914E-15
            4257            4521     23.9710E-15     24.1958E-15
            4258             219     15.0963E-15     15.8278E-15
            4258             220     19.5371E-15     18.8246E-15
            4258            4507     14.9954E-15     15.2123E-15
            4258            4522     18.3781E-15     18.7736E-15
            4259            4507     14.9954E-15     15.2123E-15
            4259            4508     19.7774E-15     18.0310E-15
            4259            4522     18.3781E-15     18.7736E-15
            4259            4523     18.2582E-15     18.9158E-15
            4260            4508     19.7774E-15     18.0310E-15
            4260            4509     18.1808E-15     17.4085E-15
            4260            4523     18.2582E-15     18.9158E-15
            4260            4524     23.0296E-15     22.7164E-15
            4261            4509     18.1808E-15     17.4085E-15
            4261            4510     12.3346E-15     11.8043E-15
            4261            4524     23.0296E-15     22.7164E-15
            4261            4525     19.6484E-15     19.0020E-15
            4262            4510     12.3346E-15     11.8043E-15
            4262            4511     16.9360E-15     16.2806E-15
            4262            4525     19.6484E-15     19.0020E-15
            4262            4526     20.6222E-15     20.8217E-15
            4263            4511     16.9360E-15     16.2806E-15
            4263            4512     21.8364E-15     19.9703E-15
            4263            4526     20.6222E-15     20.8217E-15
            4263            4527     31.7965E-15     31.5693E-15
            4264            4512     21.8364E-15     19.9703E-15
            4264            4513     23.1264E-15     18.6145E-15
            4264            4527     31.7965E-15     31.5693E-15
            4264            4528     37.2768E-15     34.4389E-15
            4265            4513     23.1264E-15     18.6145E-15
            4265            4514     31.5128E-15     31.7642E-15
            4265            4528     37.2768E-15     34.4389E-15
            4265            4529     42.7597E-15     41.4103E-15
            4266            4514     31.5128E-15     31.7642E-15
            4266            4515     32.2266E-15     34.6096E-15
            4266            4529     42.7597E-15     41.4103E-15
            4266            4530     33.3942E-15     31.8430E-15
            4267            4515     32.2266E-15     34.6096E-15
            4267            4516     18.5080E-15     19.0982E-15
            4267            4530     33.3942E-15     31.8430E-15
            4267            4531     16.2738E-15     14.6581E-15
            4268            4516     18.5080E-15     19.0982E-15
            4268            4517     16.1600E-15     17.7322E-15
            4268            4531     16.2738E-15     14.6581E-15
            4268            4532     13.0705E-15     14.1814E-15
            4269            4517     16.1600E-15     17.7322E-15
            4269            4518     15.2503E-15     18.0640E-15
            4269            4532     13.0705E-15     14.1814E-15
            4269            4533     14.4776E-15     15.6590E-15
            4270            4518     15.2503E-15     18.0640E-15
            4270            4519     10.9198E-15     11.6630E-15
            4270            4533     14.4776E-15     15.6590E-15
            4270            4534     12.7749E-15     11.4539E-15
            4271            4519     10.9198E-15     11.6630E-15
            4271            4520     15.9926E-15     14.6913E-15
            4271            4534     12.7749E-15     11.4539E-15
            4271            4535     19.3796E-15     16.4969E-15
            4272            4520     15.9926E-15     14.6913E-15
            4272            4521     23.9710E-15     24.1958E-15
            4272            4535     19.3796E-15     16.4969E-15
            4272            4536     33.4368E-15     32.9254E-15
            4273             206     39.2418E-15     40.0612E-15
            4273             207     27.5118E-15     28.7584E-15
            4273            4521     23.9710E-15     24.1958E-15
            4273            4536     33.4368E-15     32.9254E-15
            4274             220     19.5371E-15     18.8246E-15
            4274             221     18.6645E-15     16.5938E-15
            4274            4522     18.3781E-15     18.7736E-15
            4274            4537     22.9589E-15     22.9151E-15
            4275            4522     18.3781E-15     18.7736E-15
            4275            4523     18.2582E-15     18.9158E-15
            4275            4537     22.9589E-15     22.9151E-15
            4275            4538     21.7474E-15     23.6278E-15
            4276            4523     18.2582E-15     18.9158E-15
            4276            4524     23.0296E-15     22.7164E-15
            4276            4538     21.7474E-15     23.6278E-15
            4276            4539     19.6220E-15     21.1222E-15
            4277            4524     23.0296E-15     22.7164E-15
            4277            4525     19.6484E-15     19.0020E-15
            4277            4539     19.6220E-15     21.1222E-15
            4277            4540     18.1565E-15     19.6961E-15
            4278            4525     19.6484E-15     19.0020E-15
            4278            4526     20.6222E-15     20.8217E-15
            4278            4540     18.1565E-15     19.6961E-15
            4278            4541     18.2466E-15     18.9576E-15
            4279            4526     20.6222E-15     20.8217E-15
            4279            4527     31.7965E-15     31.5693E-15
            4279            4541     18.2466E-15     18.9576E-15
            4279            4542     31.5926E-15     31.3317E-15
            4280            4527     31.7965E-15     31.5693E-15
            4280            4528     37.2768E-15     34.4389E-15
            4280            4542     31.5926E-15     31.3317E-15
            4280            4543     40.7806E-15     40.2322E-15
            4281            4528     37.2768E-15     34.4389E-15
            4281            4529     42.7597E-15     41.4103E-15
            4281            4543     40.7806E-15     40.2322E-15
            4281            4544     34.7295E-15     35.2046E-15
            4282            4529     42.7597E-15     41.4103E-15
            4282            4530     33.3942E-15     31.8430E-15
            4282            4544     34.7295E-15     35.2046E-15
            4282            4545     20.1858E-15     19.1313E-15
            4283            4530     33.3942E-15     31.8430E-15
            4283            4531     16.2738E-15     14.6581E-15
            4283            4545     20.1858E-15     19.1313E-15
            4283            4546     17.3404E-15     13.9955E-15
            4284            4531     16.2738E-15     14.6581E-15
            4284            4532     13.0705E-15     14.1814E-15
            4284            4546     17.3404E-15     13.9955E-15
            4284            4547     18.9383E-15     17.0535E-15
            4285            4532     13.0705E-15     14.1814E-15
            4285            4533     14.4776E-15     15.6590E-15
            4285            4547     18.9383E-15     17.0535E-15
            4285            4548     14.6754E-15     10.9857E-15
            4286            4533     14.4776E-15     15.6590E-15
            4286            4534     12.7749E-15     11.4539E-15
            4286            4548     14.6754E-15     10.9857E-15
            4286            4549     12.0070E-15     7.75343E-15
            4287            4534     12.7749E-15     11.4539E-15
            4287            4535     19.3796E-15     16.4969E-15
            4287            4549     12.0070E-15     7.75343E-15
            4287            4550     12.1420E-15     11.2574E-15
            4288            4535     19.3796E-15     16.4969E-15
            4288            4536     33.4368E-15     32.9254E-15
            4288            4550     12.1420E-15     11.2574E-15
            4288            4551     18.6360E-15     17.5499E-15
            4289             205     23.3181E-15     20.6392E-15
            4289             206     39.2418E-15     40.0612E-15
            4289            4536     33.4368E-15     32.9254E-15
            4289            4551     18.6360E-15     17.5499E-15
            4290             221     18.6645E-15     16.5938E-15
            4290             222     24.3599E-15     23.9366E-15
            4290            4537     22.9589E-15     22.9151E-15
            4290            4552     24.2083E-15     24.9307E-15
            4291            4537     22.9589E-15     22.9151E-15
            4291            4538     21.7474E-15     23.6278E-15
            4291            4552     24.2083E-15     24.9307E-15
            4291            4553     22.5750E-15     24.5449E-15
            4292            4538     21.7474E-15     23.6278E-15
            4292            4539     19.6220E-15     21.1222E-15
            4292            4553     22.5750E-15     24.5449E-15
            4292            4554     16.5697E-15     17.9606E-15
            4293            4539     19.6220E-15     21.1222E-15
            4293            4540     18.1565E-15     19.6961E-15
            4293            4554     16.5697E-15     17.9606E-15
            4293            4555     11.0930E-15     12.2291E-15
            4294            4540     18.1565E-15     19.6961E-15
            4294            4541     18.2466E-15     18.9576E-15
            4294            4555     11.0930E-15     12.2291E-15
            4294            4556     12.4318E-15     13.4466E-15
            4295            4541     18.2466E-15     18.9576E-15
            4295            4542     31.5926E-15     31.3317E-15
            4295            4556     12.4318E-15     13.4466E-15
            4295            4557     21.3295E-15     22.0695E-15
            4296            4542     31.5926E-15     31.3317E-15
            4296            4543     40.7806E-15     40.2322E-15
            4296            4557     21.3295E-15     22.0695E-15
            4296            4558     24.4799E-15     25.8592E-15
            4297            4543     40.7806E-15     40.2322E-15
            4297            4544     34.7295E-15     35.2046E-15
            4297            4558     24.4799E-15     25.8592E-15
            4297            4559     18.9338E-15     19.7325E-15
            4298            4544     34.7295E-15     35.2046E-15
            4298            4545     20.1858E-15     19.1313E-15
            4298            4559     18.9338E-15     19.7325E-15
            4298            4560     12.7445E-15     14.5933E-15
            4299            4545     20.1858E-15     19.1313E-15
            4299            4546     17.3404E-15     13.9955E-15
            4299            4560     12.7445E-15     14.5933E-15
            4299            4561     17.1061E-15     20.1779E-15
            4300            4546     17.3404E-15     13.9955E-15
            4300            4547     18.9383E-15     17.0535E-15
            4300            4561     17.1061E-15     20.1779E-15
            4300            4562     22.9346E-15     23.2924E-15
            4301            4547     18.9383E-15     17.0535E-15
            4301            4548     14.6754E-15     10.9857E-15
            4301            4562     22.9346E-15     23.2924E-15
            4301            4563     16.6590E-15     13.6228E-15
            4302            4548     14.6754E-15     10.9857E-15
            4302            4549     12.0070E-15     7.75343E-15
            4302            4563     16.6590E-15     13.6228E-15
            4302            4564     14.2321E-15     11.6634E-15
            4303            4549     12.0070E-15     7.75343E-15
            4303            4550     12.1420E-15     11.2574E-15
            4303            4564     14.2321E-15     11.6634E-15
            4303            4565     17.3429E-15     16.0898E-15
            4304            4550     12.1420E-15     11.2574E-15
            4304            4551     18.6360E-15     17.5499E-15
            4304            4565     17.3429E-15     16.0898E-15
            4304            4566     17.9915E-15     15.9790E-15
            4305             204     16.7459E-15     14.5805E-15
            4305             205     23.3181E-15     20.6392E-15
            4305            4551     18.6360E-15     17.5499E-15
            4305            4566     17.9915E-15     15.9790E-15
            4306               9     31.6112E-15     32.7007E-15
            4306             222     24.3599E-15     23.9366E-15
            4306             738     23.2090E-15     25.0529E-15
            4306            4552     24.2083E-15     24.9307E-15
            4307             737     19.1941E-15     21.9692E-15
            4307             738     23.2090E-15     25.0529E-15
            4307            4552     24.2083E-15     24.9307E-15
            4307            4553     22.5750E-15     24.5449E-15
            4308             736     18.0208E-15     18.5467E-15
            4308             737     19.1941E-15     21.9692E-15
            4308            4553     22.5750E-15     24.5449E-15
            4308            4554     16.5697E-15     17.9606E-15
            4309             735     11.8293E-15     11.4744E-15
            4309             736     18.0208E-15     18.5467E-15
            4309            4554     16.5697E-15     17.9606E-15
            4309            4555     11.0930E-15     12.2291E-15
            4310             734     13.6279E-15     14.6005E-15
            4310             735     11.8293E-15     11.4744E-15
            4310            4555     11.0930E-15     12.2291E-15
            4310            4556     12.4318E-15     13.4466E-15
            4311             733     16.5888E-15     18.0846E-15
            4311             734     13.6279E-15     14.6005E-15
            4311            4556     12.4318E-15     13.4466E-15
            4311            4557     21.3295E-15     22.0695E-15
            4312             732     11.7636E-15     14.6248E-15
            4312             733     16.5888E-15     18.0846E-15
            4312            4557     21.3295E-15     22.0695E-15
            4312            4558     24.4799E-15     25.8592E-15
            4313             731     11.6643E-15     12.7578E-15
            4313             732     11.7636E-15     14.6248E-15
            4313            4558     24.4799E-15     25.8592E-15
            4313            4559     18.9338E-15     19.7325E-15
            4314             730     11.7712E-15     17.0537E-15
            4314             731     11.6643E-15     12.7578E-15
            4314            4559     18.9338E-15     19.7325E-15
            4314            4560     12.7445E-15     14.5933E-15
            4315             729     12.9749E-15     23.8686E-15
            4315             730     11.7712E-15     17.0537E-15
            4315            4560     12.7445E-15     14.5933E-15
            4315            4561     17.1061E-15     20.1779E-15
            4316             728     22.4259E-15     26.8737E-15
            4316             729     12.9749E-15     23.8686E-15
            4316            4561     17.1061E-15     20.1779E-15
            4316            4562     22.9346E-15     23.2924E-15
            4317             727     19.1020E-15     18.4044E-15
            4317             728     22.4259E-15     26.8737E-15
            4317            4562     22.9346E-15     23.2924E-15
            4317            4563     16.6590E-15     13.6228E-15
            4318             726     16.2183E-15     16.0286E-15
            4318             727     19.1020E-15     18.4044E-15
            4318            4563     16.6590E-15     13.6228E-15
            4318            4564     14.2321E-15     11.6634E-15
            4319             725     25.0842E-15     24.1988E-15
            4319             726     16.2183E-15     16.0286E-15
            4319            4564     14.2321E-15     11.6634E-15
            4319            4565     17.3429E-15     16.0898E-15
            4320             724     26.7241E-15     26.0086E-15
            4320             725     25.0842E-15     24.1988E-15
            4320            4565     17.3429E-15     16.0898E-15
            4320            4566     17.9915E-15     15.9790E-15
            4321               7     23.0351E-15     23.3630E-15
            4321             204     16.7459E-15     14.5805E-15
            4321             724     26.7241E-15     26.0086E-15
            4321            4566     17.9915E-15     15.9790E-15
            4786              30     41.3816E-03     47.3058E-03
            4786             797     43.2585E-03     45.9339E-03
            4786             838     10.6091E-15     12.6185E-15
            4786            4987     17.3775E-15     22.3051E-15
            4787             797     43.2585E-03     45.9339E-03
            4787             798     45.7314E-03     44.3160E-03
            4787            4987     17.3775E-15     22.3051E-15
            4787            4988     14.7731E-15     21.8495E-15
            4788             798     45.7314E-03     44.3160E-03
            4788             799     46.3433E-03     44.2875E-03
            4788            4988     14.7731E-15     21.8495E-15
            4788            4989     12.3664E-15     13.0672E-15
            4789             799     46.3433E-03     44.2875E-03
            4789             800     46.7599E-03     44.4362E-03
            4789            4989     12.3664E-15     13.0672E-15
            4789            4990     15.8025E-15     10.1890E-15
            4790             800     46.7599E-03     44.4362E-03
            4790             801     47.4318E-03     44.3609E-03
            4790            4990     15.8025E-15     10.1890E-15
            4790            4991     13.5915E-15     9.00312E-15
            4791             801     47.4318E-03     44.3609E-03
            4791             802     48.1135E-03     44.5021E-03
            4791            4991     13.5915E-15     9.00312E-15
            4791            4992     12.6333E-15     11.7461E-15
            4792             802     48.1135E-03     44.5021E-03
            4792             803     48.7897E-03     44.6254E-03
            4792            4992     12.6333E-15     11.7461E-15
            4792            4993     16.1657E-15     18.4782E-15
            4793             803     48.7897E-03     44.6254E-03
            4793             804     49.6156E-03     44.9154E-03
            4793            4993     16.1657E-15     18.4782E-15
            4793            4994     18.4078E-15     22.2749E-15
            4794             804     49.6156E-03     44.9154E-03
            4794             805     50.2789E-03     45.0501E-03
            4794            4994     18.4078E-15     22.2749E-15
            4794            4995     13.1995E-15     16.0291E-15
            4795             805     50.2789E-03     45.0501E-03
            4795             806     51.2580E-03     45.5411E-03
            4795            4995     13.1995E-15     16.0291E-15
            4795            4996     12.0932E-15     12.9789E-15
            4796             806     51.2580E-03     45.5411E-03
            4796             807     51.6742E-03     45.4834E-03
            4796            4996     12.0932E-15     12.9789E-15
            4796            4997     18.0107E-15     19.1355E-15
            4797             807     51.6742E-03     45.4834E-03
            4797             808     52.9011E-03     45.7970E-03
            4797            4997     18.0107E-15     19.1355E-15
            4797            4998     17.8532E-15     18.9576E-15
            4798             808     52.9011E-03     45.7970E-03
            4798             809     50.7252E-03     43.6932E-03
            4798            4998     17.8532E-15     18.9576E-15
            4798            4999     12.9091E-15     13.3669E-15
            4799             809     50.7252E-03     43.6932E-03
            4799             810     44.9256E-03     36.9788E-03
            4799            4999     12.9091E-15     13.3669E-15
            4799            5000     13.7065E-15     13.8595E-15
            4800             810     44.9256E-03     36.9788E-03
            4800             811     27.6981E-03     31.9210E-03
            4800            5000     13.7065E-15     13.8595E-15
            4800            5001     12.5677E-15     12.9718E-15
            4801              28     12.4077E-03     30.4317E-03
            4801             811     27.6981E-03     31.9210E-03
            4801             812     11.2274E-15     12.3841E-15
            4801            5001     12.5677E-15     12.9718E-15
            4802             837     25.5930E-15     25.3858E-15
            4802             838     10.6091E-15     12.6185E-15
            4802            4987     17.3775E-15     22.3051E-15
            4802            5002     21.0936E-15     20.4042E-15
            4803            4987     17.3775E-15     22.3051E-15
            4803            4988     14.7731E-15     21.8495E-15
            4803            5002     21.0936E-15     20.4042E-15
            4803            5003     14.3636E-15     15.1418E-15
            4804            4988     14.7731E-15     21.8495E-15
            4804            4989     12.3664E-15     13.0672E-15
            4804            5003     14.3636E-15     15.1418E-15
            4804            5004     13.3135E-15     14.5465E-15
            4805            4989     12.3664E-15     13.0672E-15
            4805            4990     15.8025E-15     10.1890E-15
            4805            5004     13.3135E-15     14.5465E-15
            4805            5005     14.7514E-15     14.6219E-15
            4806            4990     15.8025E-15     10.1890E-15
            4806            4991     13.5915E-15     9.00312E-15
            4806            5005     14.7514E-15     14.6219E-15
            4806            5006     12.1508E-15     12.9264E-15
            4807            4991     13.5915E-15     9.00312E-15
            4807            4992     12.6333E-15     11.7461E-15
            4807            5006     12.1508E-15     12.9264E-15
            4807            5007     10.2214E-15     8.64988E-15
            4808            4992     12.6333E-15     11.7461E-15
            4808            4993     16.1657E-15     18.4782E-15
            4808            5007     10.2214E-15     8.64988E-15
            4808            5008     15.6963E-15     12.5399E-15
            4809            4993     16.1657E-15     18.4782E-15
            4809            4994     18.4078E-15     22.2749E-15
            4809            5008     15.6963E-15     12.5399E-15
            4809            5009     17.0545E-15     17.5300E-15
            4810            4994     18.4078E-15     22.2749E-15
            4810            4995     13.1995E-15     16.0291E-15
            4810            5009     17.0545E-15     17.5300E-15
            4810            5010     9.42550E-15     11.3183E-15
            4811            4995     13.1995E-15     16.0291E-15
            4811            4996     12.0932E-15     12.9789E-15
            4811            5010     9.42550E-15     11.3183E-15
            4811            5011     7.64126E-15     8.21789E-15
            4812            4996     12.0932E-15     12.9789E-15
            4812            4997     18.0107E-15     19.1355E-15
            4812            5011     7.64126E-15     8.21789E-15
            4812            5012     15.4788E-15     15.2113E-15
            4813            4997     18.0107E-15     19.1355E-15
            4813            4998     17.8532E-15     18.9576E-15
            4813            5012     15.4788E-15     15.2113E-15
            4813            5013     18.4857E-15     18.0064E-15
            4814            4998     17.8532E-15     18.9576E-15
            4814            4999     12.9091E-15     13.3669E-15
            4814            5013     18.4857E-15     18.0064E-15
            4814            5014     15.5188E-15     15.1514E-15
            4815            4999     12.9091E-15     13.3669E-15
            4815            5000     13.7065E-15     13.8595E-15
            4815            5014     15.5188E-15     15.1514E-15
            4815            5015     12.5101E-15     12.8035E-15
            4816            5000     13.7065E-15     13.8595E-15
            4816            5001     12.5677E-15     12.9718E-15
            4816            5015     12.5101E-15     12.8035E-15
            4816            5016     11.9097E-15     11.9939E-15
            4817             812     11.2274E-15     12.3841E-15
            4817             813     13.5248E-15     12.8552E-15
            4817            5001     12.5677E-15     12.9718E-15
            4817            5016     11.9097E-15     11.9939E-15
            4818             836     37.9184E-15     34.7946E-15
            4818             837     25.5930E-15     25.3858E-15
            4818            5002     21.0936E-15     20.4042E-15
            4818            5017     22.7298E-15     23.1583E-15
            4819            5002     21.0936E-15     20.4042E-15
            4819            5003     14.3636E-15     15.1418E-15
            4819            5017     22.7298E-15     23.1583E-15
            4819            5018     13.7096E-15     14.8703E-15
            4820            5003     14.3636E-15     15.1418E-15
            4820            5004     13.3135E-15     14.5465E-15
            4820            5018     13.7096E-15     14.8703E-15
            4820            5019     21.2694E-15     18.2746E-15
            4821            5004     13.3135E-15     14.5465E-15
            4821            5005     14.7514E-15     14.6219E-15
            4821            5019     21.2694E-15     18.2746E-15
            4821            5020     22.6430E-15     21.7056E-15
            4822            5005     14.7514E-15     14.6219E-15
            4822            5006     12.1508E-15     12.9264E-15
            4822            5020     22.6430E-15     21.7056E-15
            4822            5021     17.6942E-15     19.2814E-15
            4823            5006     12.1508E-15     12.9264E-15
            4823            5007     10.2214E-15     8.64988E-15
            4823            5021     17.6942E-15     19.2814E-15
            4823            5022     13.7226E-15     12.2632E-15
            4824            5007     10.2214E-15     8.64988E-15
            4824            5008     15.6963E-15     12.5399E-15
            4824            5022     13.7226E-15     12.2632E-15
            4824            5023     14.3068E-15     11.1171E-15
            4825            5008     15.6963E-15     12.5399E-15
            4825            5009     17.0545E-15     17.5300E-15
            4825            5023     14.3068E-15     11.1171E-15
            4825            5024     13.9577E-15     12.4205E-15
            4826            5009     17.0545E-15     17.5300E-15
            4826            5010     9.42550E-15     11.3183E-15
            4826            5024     13.9577E-15     12.4205E-15
            4826            5025     12.8953E-15     12.1972E-15
            4827            5010     9.42550E-15     11.3183E-15
            4827            5011     7.64126E-15     8.21789E-15
            4827            5025     12.8953E-15     12.1972E-15
            4827            5026     9.87242E-15     9.17228E-15
            4828            5011     7.64126E-15     8.21789E-15
            4828            5012     15.4788E-15     15.2113E-15
            4828            5026     9.87242E-15     9.17228E-15
            4828            5027     8.63363E-15     8.10142E-15
            4829            5012     15.4788E-15     15.2113E-15
            4829            5013     18.4857E-15     18.0064E-15
            4829            5027     8.63363E-15     8.10142E-15
            4829            5028     10.7321E-15     10.3678E-15
            4830            5013     18.4857E-15     18.0064E-15
            4830            5014     15.5188E-15     15.1514E-15
            4830            5028     10.7321E-15     10.3678E-15
            4830            5029     14.6661E-15     14.4731E-15
            4831            5014     15.5188E-15     15.1514E-15
            4831            5015     12.5101E-15     12.8035E-15
            4831            5029     14.6661E-15     14.4731E-15
            4831            5030     14.9213E-15     14.7548E-15
            4832            5015     12.5101E-15     12.8035E-15
            4832            5016     11.9097E-15     11.9939E-15
            4832            5030     14.9213E-15     14.7548E-15
            4832            5031     13.6829E-15     13.3270E-15
            4833             813     13.5248E-15     12.8552E-15
            4833             814     14.7205E-15     13.9569E-15
            4833            5016     11.9097E-15     11.9939E-15
            4833            5031     13.6829E-15     13.3270E-15
            4834             835     38.2749E-15     32.5704E-15
            4834             836     37.9184E-15     34.7946E-15
            4834            5017     22.7298E-15     23.1583E-15
            4834            5032     25.0494E-15     24.0273E-15
            4835            5017     22.7298E-15     23.1583E-15
            4835            5018     13.7096E-15     14.8703E-15
            4835            5032     25.0494E-15     24.0273E-15
            4835            5033     16.2991E-15     18.4366E-15
            4836            5018     13.7096E-15     14.8703E-15
            4836            5019     21.2694E-15     18.2746E-15
            4836            5033     16.2991E-15     18.4366E-15
            4836            5034     22.2234E-15     23.6350E-15
            4837            5019     21.2694E-15     18.2746E-15
            4837            5020     22.6430E-15     21.7056E-15
            4837            5034     22.2234E-15     23.6350E-15
            4837            5035     22.6275E-15     25.7073E-15
            4838            5020     22.6430E-15     21.7056E-15
            4838            5021     17.6942E-15     19.2814E-15
            4838            5035     22.6275E-15     25.7073E-15
            4838            5036     18.6796E-15     19.2837E-15
            4839            5021     17.6942E-15     19.2814E-15
            4839            5022     13.7226E-15     12.2632E-15
            4839            5036     18.6796E-15     19.2837E-15
            4839            5037     14.5385E-15     13.3685E-15
            4840            5022     13.7226E-15     12.2632E-15
            4840            5023     14.3068E-15     11.1171E-15
            4840            5037     14.5385E-15     13.3685E-15
            4840            5038     15.4718E-15     15.5849E-15
            4841            5023     14.3068E-15     11.1171E-15
            4841            5024     13.9577E-15     12.4205E-15
            4841            5038     15.4718E-15     15.5849E-15
            4841            5039     15.1052E-15     14.0216E-15
            4842            5024     13.9577E-15     12.4205E-15
            4842            5025     12.8953E-15     12.1972E-15
            4842            5039     15.1052E-15     14.0216E-15
            4842            5040     11.5459E-15     10.0609E-15
            4843            5025     12.8953E-15     12.1972E-15
            4843            5026     9.87242E-15     9.17228E-15
            4843            5040     11.5459E-15     10.0609E-15
            4843            5041     9.09984E-15     6.84825E-15
            4844            5026     9.87242E-15     9.17228E-15
            4844            5027     8.63363E-15     8.10142E-15
            4844            5041     9.09984E-15     6.84825E-15
            4844            5042     7.75440E-15     5.87097E-15
            4845            5027     8.63363E-15     8.10142E-15
            4845            5028     10.7321E-15     10.3678E-15
            4845            5042     7.75440E-15     5.87097E-15
            4845            5043     8.27830E-15     8.64479E-15
            4846            5028     10.7321E-15     10.3678E-15
            4846            5029     14.6661E-15     14.4731E-15
            4846            5043     8.27830E-15     8.64479E-15
            4846            5044     11.4827E-15     11.8311E-15
            4847            5029     14.6661E-15     14.4731E-15
            4847            5030     14.9213E-15     14.7548E-15
            4847            5044     11.4827E-15     11.8311E-15
            4847            5045     18.1815E-15     18.7943E-15
            4848            5030     14.9213E-15     14.7548E-15
            4848            5031     13.6829E-15     13.3270E-15
            4848            5045     18.1815E-15     18.7943E-15
            4848            5046     18.7741E-15     20.4398E-15
            4849             814     14.7205E-15     13.9569E-15
            4849             815     15.4277E-15     17.2543E-15
            4849            5031     13.6829E-15     13.3270E-15
            4849            5046     18.7741E-15     20.4398E-15
            4850             834     46.6017E-15     43.2537E-15
            4850             835     38.2749E-15     32.5704E-15
            4850            5032     25.0494E-15     24.0273E-15
            4850            5047     32.4531E-15     31.1260E-15
            4851            5032     25.0494E-15     24.0273E-15
            4851            5033     16.2991E-15     18.4366E-15
            4851            5047     32.4531E-15     31.1260E-15
            4851            5048     20.3358E-15     21.8820E-15
            4852            5033     16.2991E-15     18.4366E-15
            4852            5034     22.2234E-15     23.6350E-15
            4852            5048     20.3358E-15     21.8820E-15
            4852            5049     17.5758E-15     22.4914E-15
            4853            5034     22.2234E-15     23.6350E-15
            4853            5035     22.6275E-15     25.7073E-15
            4853            5049     17.5758E-15     22.4914E-15
            4853            5050     13.2230E-15     18.7232E-15
            4854            5035     22.6275E-15     25.7073E-15
            4854            5036     18.6796E-15     19.2837E-15
            4854            5050     13.2230E-15     18.7232E-15
            4854            5051     10.3855E-15     11.2055E-15
            4855            5036     18.6796E-15     19.2837E-15
            4855            5037     14.5385E-15     13.3685E-15
            4855            5051     10.3855E-15     11.2055E-15
            4855            5052     11.5273E-15     10.7937E-15
            4856            5037     14.5385E-15     13.3685E-15
            4856            5038     15.4718E-15     15.5849E-15
            4856            5052     11.5273E-15     10.7937E-15
            4856            5053     14.6234E-15     16.6263E-15
            4857            5038     15.4718E-15     15.5849E-15
            4857            5039     15.1052E-15     14.0216E-15
            4857            5053     14.6234E-15     16.6263E-15
            4857            5054     16.0024E-15     17.0791E-15
            4858            5039     15.1052E-15     14.0216E-15
            4858            5040     11.5459E-15     10.0609E-15
            4858            5054     16.0024E-15     17.0791E-15
            4858            5055     17.9768E-15     17.1447E-15
            4859            5040     11.5459E-15     10.0609E-15
            4859            5041     9.09984E-15     6.84825E-15
            4859            5055     17.9768E-15     17.1447E-15
            4859            5056     14.3835E-15     11.3459E-15
            4860            5041     9.09984E-15     6.84825E-15
            4860            5042     7.75440E-15     5.87097E-15
            4860            5056     14.3835E-15     11.3459E-15
            4860            5057     11.2769E-15     8.19945E-15
            4861            5042     7.75440E-15     5.87097E-15
            4861            5043     8.27830E-15     8.64479E-15
            4861            5057     11.2769E-15     8.19945E-15
            4861            5058     13.5149E-15     13.1378E-15
            4862            5043     8.27830E-15     8.64479E-15
            4862            5044     11.4827E-15     11.8311E-15
            4862            5058     13.5149E-15     13.1378E-15
            4862            5059     16.9403E-15     16.9995E-15
            4863            5044     11.4827E-15     11.8311E-15
            4863            5045     18.1815E-15     18.7943E-15
            4863            5059     16.9403E-15     16.9995E-15
            4863            5060     17.9155E-15     19.3379E-15
            4864            5045     18.1815E-15     18.7943E-15
            4864            5046     18.7741E-15     20.4398E-15
            4864            5060     17.9155E-15     19.3379E-15
            4864            5061     14.4227E-15     15.7739E-15
            4865             815     15.4277E-15     17.2543E-15
            4865             816     10.9024E-15     11.2806E-15
            4865            5046     18.7741E-15     20.4398E-15
            4865            5061     14.4227E-15     15.7739E-15
            4866             833     37.8603E-15     37.1847E-15
            4866             834     46.6017E-15     43.2537E-15
            4866            5047     32.4531E-15     31.1260E-15
            4866            5062     28.5323E-15     28.7226E-15
            4867            5047     32.4531E-15     31.1260E-15
            4867            5048     20.3358E-15     21.8820E-15
            4867            5062     28.5323E-15     28.7226E-15
            4867            5063     18.9004E-15     21.2568E-15
            4868            5048     20.3358E-15     21.8820E-15
            4868            5049     17.5758E-15     22.4914E-15
            4868            5063     18.9004E-15     21.2568E-15
            4868            5064     14.5783E-15     17.4594E-15
            4869            5049     17.5758E-15     22.4914E-15
            4869            5050     13.2230E-15     18.7232E-15
            4869            5064     14.5783E-15     17.4594E-15
            4869            5065     10.8966E-15     12.0316E-15
            4870            5050     13.2230E-15     18.7232E-15
            4870            5051     10.3855E-15     11.2055E-15
            4870            5065     10.8966E-15     12.0316E-15
            4870            5066     8.68071E-15     9.13809E-15
            4871            5051     10.3855E-15     11.2055E-15
            4871            5052     11.5273E-15     10.7937E-15
            4871            5066     8.68071E-15     9.13809E-15
            4871            5067     16.6221E-15     16.6652E-15
            4872            5052     11.5273E-15     10.7937E-15
            4872            5053     14.6234E-15     16.6263E-15
            4872            5067     16.6221E-15     16.6652E-15
            4872            5068     19.9386E-15     20.2258E-15
            4873            5053     14.6234E-15     16.6263E-15
            4873            5054     16.0024E-15     17.0791E-15
            4873            5068     19.9386E-15     20.2258E-15
            4873            5069     18.0221E-15     17.3178E-15
            4874            5054     16.0024E-15     17.0791E-15
            4874            5055     17.9768E-15     17.1447E-15
            4874            5069     18.0221E-15     17.3178E-15
            4874            5070     27.8477E-15     25.8418E-15
            4875            5055     17.9768E-15     17.1447E-15
            4875            5056     14.3835E-15     11.3459E-15
            4875            5070     27.8477E-15     25.8418E-15
            4875            5071     25.3594E-15     23.1803E-15
            4876            5056     14.3835E-15     11.3459E-15
            4876            5057     11.2769E-15     8.19945E-15
            4876            5071     25.3594E-15     23.1803E-15
            4876            5072     17.6619E-15     16.7072E-15
            4877            5057     11.2769E-15     8.19945E-15
            4877            5058     13.5149E-15     13.1378E-15
            4877            5072     17.6619E-15     16.7072E-15
            4877            5073     17.0796E-15     16.8104E-15
            4878            5058     13.5149E-15     13.1378E-15
            4878            5059     16.9403E-15     16.9995E-15
            4878            5073     17.0796E-15     16.8104E-15
            4878            5074     19.0015E-15     18.4260E-15
            4879            5059     16.9403E-15     16.9995E-15
            4879            5060     17.9155E-15     19.3379E-15
            4879            5074     19.0015E-15     18.4260E-15
            4879            5075     16.1992E-15     16.4154E-15
            4880            5060     17.9155E-15     19.3379E-15
            4880            5061     14.4227E-15     15.7739E-15
            4880            5075     16.1992E-15     16.4154E-15
            4880            5076     8.94657E-15     8.44448E-15
            4881             816     10.9024E-15     11.2806E-15
            4881             817     6.35584E-15     5.39114E-15
            4881            5061     14.4227E-15     15.7739E-15
            4881            5076     8.94657E-15     8.44448E-15
            4882              32     25.5332E-15     23.1303E-15
            4882             832     21.7554E-15     20.6424E-15
            4882             833     37.8603E-15     37.1847E-15
            4882            5062     28.5323E-15     28.7226E-15
            4883             831     17.1169E-15     19.4367E-15
            4883             832     21.7554E-15     20.6424E-15
            4883            5062     28.5323E-15     28.7226E-15
            4883            5063     18.9004E-15     21.2568E-15
            4884             830     15.8451E-15     16.6106E-15
            4884             831     17.1169E-15     19.4367E-15
            4884            5063     18.9004E-15     21.2568E-15
            4884            5064     14.5783E-15     17.4594E-15
            4885             829     14.5783E-15     11.4032E-15
            4885             830     15.8451E-15     16.6106E-15
            4885            5064     14.5783E-15     17.4594E-15
            4885            5065     10.8966E-15     12.0316E-15
            4886             828     10.7896E-15     10.7705E-15
            4886             829     14.5783E-15     11.4032E-15
            4886            5065     10.8966E-15     12.0316E-15
            4886            5066     8.68071E-15     9.13809E-15
            4887             827     20.1594E-15     21.2637E-15
            4887             828     10.7896E-15     10.7705E-15
            4887            5066     8.68071E-15     9.13809E-15
            4887            5067     16.6221E-15     16.6652E-15
            4888             826     23.6172E-15     20.8623E-15
            4888             827     20.1594E-15     21.2637E-15
            4888            5067     16.6221E-15     16.6652E-15
            4888            5068     19.9386E-15     20.2258E-15
            4889             825     17.3058E-15     13.0553E-15
            4889             826     23.6172E-15     20.8623E-15
            4889            5068     19.9386E-15     20.2258E-15
            4889            5069     18.0221E-15     17.3178E-15
            4890             824     27.1932E-15     23.0315E-15
            4890             825     17.3058E-15     13.0553E-15
            4890            5069     18.0221E-15     17.3178E-15
            4890            5070     27.8477E-15     25.8418E-15
            4891             823     28.4899E-15     26.6652E-15
            4891             824     27.1932E-15     23.0315E-15
            4891            5070     27.8477E-15     25.8418E-15
            4891            5071     25.3594E-15     23.1803E-15
            4892             822     20.4757E-15     21.3022E-15
            4892             823     28.4899E-15     26.6652E-15
            4892            5071     25.3594E-15     23.1803E-15
            4892            5072     17.6619E-15     16.7072E-15
            4893             821     15.4156E-15     15.0736E-15
            4893             822     20.4757E-15     21.3022E-15
            4893            5072     17.6619E-15     16.7072E-15
            4893            5073     17.0796E-15     16.8104E-15
            4894             820     15.0841E-15     14.1717E-15
            4894             821     15.4156E-15     15.0736E-15
            4894            5073     17.0796E-15     16.8104E-15
            4894            5074     19.0015E-15     18.4260E-15
            4895             819     16.0798E-15     15.0939E-15
            4895             820     15.0841E-15     14.1717E-15
            4895            5074     19.0015E-15     18.4260E-15
            4895            5075     16.1992E-15     16.4154E-15
            4896             818     9.97097E-15     9.10580E-15
            4896             819     16.0798E-15     15.0939E-15
            4896            5075     16.1992E-15     16.4154E-15
            4896            5076     8.94657E-15     8.44448E-15
            4897              31     5.63805E-15     5.88006E-15
            4897             817     6.35584E-15     5.39114E-15
            4897             818     9.97097E-15     9.10580E-15
            4897            5076     8.94657E-15     8.44448E-15
            5687              22     102.974E-03     125.422E-03
            5687             547     119.514E-03     138.163E-03
            5687             754     59.4369E-03     61.0234E-03
            5687            5695     71.2835E-03     83.9030E-03
            5688             546     155.923E-03     171.143E-03
            5688             547     119.514E-03     138.163E-03
            5688            5695     71.2835E-03     83.9030E-03
            5688            5696     103.878E-03     129.943E-03
            5689             545     198.310E-03     214.185E-03
            5689             546     155.923E-03     171.143E-03
            5689            5696     103.878E-03     129.943E-03
            5689            5697     148.106E-03     176.754E-03
            5690             544     245.188E-03     261.258E-03
            5690             545     198.310E-03     214.185E-03
            5690            5697     148.106E-03     176.754E-03
            5690            5698     195.727E-03     225.121E-03
            5691             543     294.847E-03     310.249E-03
            5691             544     245.188E-03     261.258E-03
            5691            5698     195.727E-03     225.121E-03
            5691            5699     244.709E-03     274.444E-03
            5692             542     345.570E-03     360.890E-03
            5692             543     294.847E-03     310.249E-03
            5692            5699     244.709E-03     274.444E-03
            5692            5700     294.325E-03     324.180E-03
            5693             541     397.060E-03     412.031E-03
            5693             542     345.570E-03     360.890E-03
            5693            5700     294.325E-03     324.180E-03
            5693            5701     344.270E-03     374.104E-03
            5694             540     448.596E-03     463.647E-03
            5694             541     397.060E-03     412.031E-03
            5694            5701     344.270E-03     374.104E-03
            5694            5702     394.355E-03     424.344E-03
            5695             539     500.215E-03     514.792E-03
            5695             540     448.596E-03     463.647E-03
            5695            5702     394.355E-03     424.344E-03
            5695            5703     444.605E-03     474.441E-03
            5696             538     551.070E-03     565.472E-03
            5696             539     500.215E-03     514.792E-03
            5696            5703     444.605E-03     474.441E-03
            5696            5704     494.902E-03     524.876E-03
            5697             537     601.440E-03     614.503E-03
            5697             538     551.070E-03     565.472E-03
            5697            5704     494.902E-03     524.876E-03
            5697            5705     545.030E-03     574.865E-03
            5698             536     649.172E-03     660.588E-03
            5698             537     601.440E-03     614.503E-03
            5698            5705     545.030E-03     574.865E-03
            5698            5706     595.540E-03     625.202E-03
            5699             535     696.219E-03     703.132E-03
            5699             536     649.172E-03     660.588E-03
            5699            5706     595.540E-03     625.202E-03
            5699            5707     645.253E-03     675.401E-03
            5700             534     737.988E-03     740.834E-03
            5700             535     696.219E-03     703.132E-03
            5700            5707     645.253E-03     675.401E-03
            5700            5708     703.281E-03     733.374E-03
            5701             533     792.455E-03     804.281E-03
            5701             534     737.988E-03     740.834E-03
            5701            5708     703.281E-03     733.374E-03
            5701            5709     790.038E-03     812.874E-03
            5702              21     830.135E-03     849.581E-03
            5702             533     792.455E-03     804.281E-03
            5702             664     843.139E-03     858.469E-03
            5702            5709     790.038E-03     812.874E-03
            5703             754     59.4369E-03     61.0234E-03
            5703             755     94.7697E-03     88.8765E-03
            5703            5695     71.2835E-03     83.9030E-03
            5703            5710     103.180E-03     104.682E-03
            5704            5695     71.2835E-03     83.9030E-03
            5704            5696     103.878E-03     129.943E-03
            5704            5710     103.180E-03     104.682E-03
            5704            5711     130.154E-03     139.014E-03
            5705            5696     103.878E-03     129.943E-03
            5705            5697     148.106E-03     176.754E-03
            5705            5711     130.154E-03     139.014E-03
            5705            5712     170.956E-03     179.655E-03
            5706            5697     148.106E-03     176.754E-03
            5706            5698     195.727E-03     225.121E-03
            5706            5712     170.956E-03     179.655E-03
            5706            5713     216.268E-03     225.163E-03
            5707            5698     195.727E-03     225.121E-03
            5707            5699     244.709E-03     274.444E-03
            5707            5713     216.268E-03     225.163E-03
            5707            5714     263.212E-03     272.718E-03
            5708            5699     244.709E-03     274.444E-03
            5708            5700     294.325E-03     324.180E-03
            5708            5714     263.212E-03     272.718E-03
            5708            5715     311.553E-03     321.161E-03
            5709            5700     294.325E-03     324.180E-03
            5709            5701     344.270E-03     374.104E-03
            5709            5715     311.553E-03     321.161E-03
            5709            5716     360.536E-03     370.268E-03
            5710            5701     344.270E-03     374.104E-03
            5710            5702     394.355E-03     424.344E-03
            5710            5716     360.536E-03     370.268E-03
            5710            5717     410.043E-03     419.716E-03
            5711            5702     394.355E-03     424.344E-03
            5711            5703     444.605E-03     474.441E-03
            5711            5717     410.043E-03     419.716E-03
            5711            5718     459.840E-03     469.624E-03
            5712            5703     444.605E-03     474.441E-03
            5712            5704     494.902E-03     524.876E-03
            5712            5718     459.840E-03     469.624E-03
            5712            5719     510.057E-03     519.664E-03
            5713            5704     494.902E-03     524.876E-03
            5713            5705     545.030E-03     574.865E-03
            5713            5719     510.057E-03     519.664E-03
            5713            5720     560.697E-03     570.400E-03
            5714            5705     545.030E-03     574.865E-03
            5714            5706     595.540E-03     625.202E-03
            5714            5720     560.697E-03     570.400E-03
            5714            5721     611.851E-03     622.005E-03
            5715            5706     595.540E-03     625.202E-03
            5715            5707     645.253E-03     675.401E-03
            5715            5721     611.851E-03     622.005E-03
            5715            5722     663.039E-03     674.996E-03
            5716            5707     645.253E-03     675.401E-03
            5716            5708     703.281E-03     733.374E-03
            5716            5722     663.039E-03     674.996E-03
            5716            5723     721.753E-03     735.373E-03
            5717            5708     703.281E-03     733.374E-03
            5717            5709     790.038E-03     812.874E-03
            5717            5723     721.753E-03     735.373E-03
            5717            5724     772.365E-03     775.634E-03
            5718             664     843.139E-03     858.469E-03
            5718             665     789.525E-03     782.888E-03
            5718            5709     790.038E-03     812.874E-03
            5718            5724     772.365E-03     775.634E-03
            5719             755     94.7697E-03     88.8765E-03
            5719             756     117.724E-03     126.479E-03
            5719            5710     103.180E-03     104.682E-03
            5719            5725     129.647E-03     132.556E-03
            5720            5710     103.180E-03     104.682E-03
            5720            5711     130.154E-03     139.014E-03
            5720            5725     129.647E-03     132.556E-03
            5720            5726     158.963E-03     153.663E-03
            5721            5711     130.154E-03     139.014E-03
            5721            5712     170.956E-03     179.655E-03
            5721            5726     158.963E-03     153.663E-03
            5721            5727     196.708E-03     188.704E-03
            5722            5712     170.956E-03     179.655E-03
            5722            5713     216.268E-03     225.163E-03
            5722            5727     196.708E-03     188.704E-03
            5722            5728     239.143E-03     230.330E-03
            5723            5713     216.268E-03     225.163E-03
            5723            5714     263.212E-03     272.718E-03
            5723            5728     239.143E-03     230.330E-03
            5723            5729     284.216E-03     274.790E-03
            5724            5714     263.212E-03     272.718E-03
            5724            5715     311.553E-03     321.161E-03
            5724            5729     284.216E-03     274.790E-03
            5724            5730     330.743E-03     321.136E-03
            5725            5715     311.553E-03     321.161E-03
            5725            5716     360.536E-03     370.268E-03
            5725            5730     330.743E-03     321.136E-03
            5725            5731     378.297E-03     368.440E-03
            5726            5716     360.536E-03     370.268E-03
            5726            5717     410.043E-03     419.716E-03
            5726            5731     378.297E-03     368.440E-03
            5726            5732     426.281E-03     416.373E-03
            5727            5717     410.043E-03     419.716E-03
            5727            5718     459.840E-03     469.624E-03
            5727            5732     426.281E-03     416.373E-03
            5727            5733     474.661E-03     464.570E-03
            5728            5718     459.840E-03     469.624E-03
            5728            5719     510.057E-03     519.664E-03
            5728            5733     474.661E-03     464.570E-03
            5728            5734     522.851E-03     512.869E-03
            5729            5719     510.057E-03     519.664E-03
            5729            5720     560.697E-03     570.400E-03
            5729            5734     522.851E-03     512.869E-03
            5729            5735     571.351E-03     561.011E-03
            5730            5720     560.697E-03     570.400E-03
            5730            5721     611.851E-03     622.005E-03
            5730            5735     571.351E-03     561.011E-03
            5730            5736     619.022E-03     609.011E-03
            5731            5721     611.851E-03     622.005E-03
            5731            5722     663.039E-03     674.996E-03
            5731            5736     619.022E-03     609.011E-03
            5731            5737     667.194E-03     656.408E-03
            5732            5722     663.039E-03     674.996E-03
            5732            5723     721.753E-03     735.373E-03
            5732            5737     667.194E-03     656.408E-03
            5732            5738     708.217E-03     697.245E-03
            5733            5723     721.753E-03     735.373E-03
            5733            5724     772.365E-03     775.634E-03
            5733            5738     708.217E-03     697.245E-03
            5733            5739     721.706E-03     715.557E-03
            5734             665     789.525E-03     782.888E-03
            5734             666     719.397E-03     716.343E-03
            5734            5724     772.365E-03     775.634E-03
            5734            5739     721.706E-03     715.557E-03
            5735             756     117.724E-03     126.479E-03
            5735             757     70.9522E-03     83.6683E-03
            5735            5725     129.647E-03     132.556E-03
            5735            5740     86.8385E-03     95.8599E-03
            5736            5725     129.647E-03     132.556E-03
            5736            5726     158.963E-03     153.663E-03
            5736            5740     86.8385E-03     95.8599E-03
            5736            5741     119.880E-03     124.138E-03
            5737            5726     158.963E-03     153.663E-03
            5737            5727     196.708E-03     188.704E-03
            5737            5741     119.880E-03     124.138E-03
            5737            5742     155.910E-03     158.788E-03
            5738            5727     196.708E-03     188.704E-03
            5738            5728     239.143E-03     230.330E-03
            5738            5742     155.910E-03     158.788E-03
            5738            5743     194.559E-03     197.167E-03
            5739            5728     239.143E-03     230.330E-03
            5739            5729     284.216E-03     274.790E-03
            5739            5743     194.559E-03     197.167E-03
            5739            5744     234.851E-03     237.041E-03
            5740            5729     284.216E-03     274.790E-03
            5740            5730     330.743E-03     321.136E-03
            5740            5744     234.851E-03     237.041E-03
            5740            5745     275.986E-03     277.968E-03
            5741            5730     330.743E-03     321.136E-03
            5741            5731     378.297E-03     368.440E-03
            5741            5745     275.986E-03     277.968E-03
            5741            5746     317.844E-03     319.264E-03
            5742            5731     378.297E-03     368.440E-03
            5742            5732     426.281E-03     416.373E-03
            5742            5746     317.844E-03     319.264E-03
            5742            5747     360.037E-03     361.090E-03
            5743            5732     426.281E-03     416.373E-03
            5743            5733     474.661E-03     464.570E-03
            5743            5747     360.037E-03     361.090E-03
            5743            5748     402.864E-03     402.834E-03
            5744            5733     474.661E-03     464.570E-03
            5744            5734     522.851E-03     512.869E-03
            5744            5748     402.864E-03     402.834E-03
            5744            5749     446.092E-03     445.388E-03
            5745            5734     522.851E-03     512.869E-03
            5745            5735     571.351E-03     561.011E-03
            5745            5749     446.092E-03     445.388E-03
            5745            5750     490.458E-03     488.072E-03
            5746            5735     571.351E-03     561.011E-03
            5746            5736     619.022E-03     609.011E-03
            5746            5750     490.458E-03     488.072E-03
            5746            5751     536.485E-03     532.671E-03
            5747            5736     619.022E-03     609.011E-03
            5747            5737     667.194E-03     656.408E-03
            5747            5751     536.485E-03     532.671E-03
            5747            5752     585.568E-03     579.969E-03
            5748            5737     667.194E-03     656.408E-03
            5748            5738     708.217E-03     697.245E-03
            5748            5752     585.568E-03     579.969E-03
            5748            5753     633.403E-03     627.928E-03
            5749            5738     708.217E-03     697.245E-03
            5749            5739     721.706E-03     715.557E-03
            5749            5753     633.403E-03     627.928E-03
            5749            5754     693.684E-03     700.364E-03
            5750             666     719.397E-03     716.343E-03
            5750             667     732.198E-03     748.015E-03
            5750            5739     721.706E-03     715.557E-03
            5750            5754     693.684E-03     700.364E-03
            5751             757     70.9522E-03     83.6683E-03
            5751             758     28.3404E-03     34.8492E-03
            5751            5740     86.8385E-03     95.8599E-03
            5751            5755     41.4596E-03     52.2243E-03
            5752            5740     86.8385E-03     95.8599E-03
            5752            5741     119.880E-03     124.138E-03
            5752            5755     41.4596E-03     52.2243E-03
            5752            5756     71.6213E-03     88.0895E-03
            5753            5741     119.880E-03     124.138E-03
            5753            5742     155.910E-03     158.788E-03
            5753            5756     71.6213E-03     88.0895E-03
            5753            5757     106.503E-03     125.257E-03
            5754            5742     155.910E-03     158.788E-03
            5754            5743     194.559E-03     197.167E-03
            5754            5757     106.503E-03     125.257E-03
            5754            5758     142.580E-03     162.618E-03
            5755            5743     194.559E-03     197.167E-03
            5755            5744     234.851E-03     237.041E-03
            5755            5758     142.580E-03     162.618E-03
            5755            5759     179.203E-03     199.862E-03
            5756            5744     234.851E-03     237.041E-03
            5756            5745     275.986E-03     277.968E-03
            5756            5759     179.203E-03     199.862E-03
            5756            5760     216.147E-03     237.034E-03
            5757            5745     275.986E-03     277.968E-03
            5757            5746     317.844E-03     319.264E-03
            5757            5760     216.147E-03     237.034E-03
            5757            5761     253.378E-03     274.048E-03
            5758            5746     317.844E-03     319.264E-03
            5758            5747     360.037E-03     361.090E-03
            5758            5761     253.378E-03     274.048E-03
            5758            5762     291.134E-03     311.255E-03
            5759            5747     360.037E-03     361.090E-03
            5759            5748     402.864E-03     402.834E-03
            5759            5762     291.134E-03     311.255E-03
            5759            5763     329.570E-03     348.751E-03
            5760            5748     402.864E-03     402.834E-03
            5760            5749     446.092E-03     445.388E-03
            5760            5763     329.570E-03     348.751E-03
            5760            5764     369.688E-03     387.578E-03
            5761            5749     446.092E-03     445.388E-03
            5761            5750     490.458E-03     488.072E-03
            5761            5764     369.688E-03     387.578E-03
            5761            5765     412.038E-03     428.394E-03
            5762            5750     490.458E-03     488.072E-03
            5762            5751     536.485E-03     532.671E-03
            5762            5765     412.038E-03     428.394E-03
            5762            5766     459.799E-03     474.523E-03
            5763            5751     536.485E-03     532.671E-03
            5763            5752     585.568E-03     579.969E-03
            5763            5766     459.799E-03     474.523E-03
            5763            5767     514.579E-03     528.327E-03
            5764            5752     585.568E-03     579.969E-03
            5764            5753     633.403E-03     627.928E-03
            5764            5767     514.579E-03     528.327E-03
            5764            5768     588.932E-03     603.466E-03
            5765            5753     633.403E-03     627.928E-03
            5765            5754     693.684E-03     700.364E-03
            5765            5768     588.932E-03     603.466E-03
            5765            5769     702.461E-03     712.395E-03
            5766             667     732.198E-03     748.015E-03
            5766             668     770.245E-03     774.542E-03
            5766            5754     693.684E-03     700.364E-03
            5766            5769     702.461E-03     712.395E-03
            5767             758     28.3404E-03     34.8492E-03
            5767             759     48.8788E-03     48.9215E-03
            5767            5755     41.4596E-03     52.2243E-03
            5767            5770     59.0170E-03     63.2381E-03
            5768            5755     41.4596E-03     52.2243E-03
            5768            5756     71.6213E-03     88.0895E-03
            5768            5770     59.0170E-03     63.2381E-03
            5768            5771     84.4442E-03     95.2260E-03
            5769            5756     71.6213E-03     88.0895E-03
            5769            5757     106.503E-03     125.257E-03
            5769            5771     84.4442E-03     95.2260E-03
            5769            5772     117.057E-03     131.218E-03
            5770            5757     106.503E-03     125.257E-03
            5770            5758     142.580E-03     162.618E-03
            5770            5772     117.057E-03     131.218E-03
            5770            5773     152.441E-03     168.236E-03
            5771            5758     142.580E-03     162.618E-03
            5771            5759     179.203E-03     199.862E-03
            5771            5773     152.441E-03     168.236E-03
            5771            5774     189.012E-03     205.778E-03
            5772            5759     179.203E-03     199.862E-03
            5772            5760     216.147E-03     237.034E-03
            5772            5774     189.012E-03     205.778E-03
            5772            5775     226.244E-03     243.481E-03
            5773            5760     216.147E-03     237.034E-03
            5773            5761     253.378E-03     274.048E-03
            5773            5775     226.244E-03     243.481E-03
            5773            5776     264.016E-03     281.484E-03
            5774            5761     253.378E-03     274.048E-03
            5774            5762     291.134E-03     311.255E-03
            5774            5776     264.016E-03     281.484E-03
            5774            5777     302.251E-03     319.830E-03
            5775            5762     291.134E-03     311.255E-03
            5775            5763     329.570E-03     348.751E-03
            5775            5777     302.251E-03     319.830E-03
            5775            5778     341.439E-03     358.958E-03
            5776            5763     329.570E-03     348.751E-03
            5776            5764     369.688E-03     387.578E-03
            5776            5778     341.439E-03     358.958E-03
            5776            5779     381.895E-03     399.451E-03
            5777            5764     369.688E-03     387.578E-03
            5777            5765     412.038E-03     428.394E-03
            5777            5779     381.895E-03     399.451E-03
            5777            5780     425.285E-03     442.546E-03
            5778            5765     412.038E-03     428.394E-03
            5778            5766     459.799E-03     474.523E-03
            5778            5780     425.285E-03     442.546E-03
            5778            5781     473.273E-03     490.450E-03
            5779            5766     459.799E-03     474.523E-03
            5779            5767     514.579E-03     528.327E-03
            5779            5781     473.273E-03     490.450E-03
            5779            5782     530.043E-03     546.378E-03
            5780            5767     514.579E-03     528.327E-03
            5780            5768     588.932E-03     603.466E-03
            5780            5782     530.043E-03     546.378E-03
            5780            5783     607.971E-03     619.383E-03
            5781            5768     588.932E-03     603.466E-03
            5781            5769     702.461E-03     712.395E-03
            5781            5783     607.971E-03     619.383E-03
            5781            5784     692.351E-03     694.535E-03
            5782             668     770.245E-03     774.542E-03
            5782             669     730.522E-03     727.234E-03
            5782            5769     702.461E-03     712.395E-03
            5782            5784     692.351E-03     694.535E-03
            5783             759     48.8788E-03     48.9215E-03
            5783             760     68.3115E-03     65.1181E-03
            5783            5770     59.0170E-03     63.2381E-03
            5783            5785     76.3960E-03     77.2733E-03
            5784            5770     59.0170E-03     63.2381E-03
            5784            5771     84.4442E-03     95.2260E-03
            5784            5785     76.3960E-03     77.2733E-03
            5784            5786     98.4171E-03     105.359E-03
            5785            5771     84.4442E-03     95.2260E-03
            5785            5772     117.057E-03     131.218E-03
            5785            5786     98.4171E-03     105.359E-03
            5785            5787     128.786E-03     139.113E-03
            5786            5772     117.057E-03     131.218E-03
            5786            5773     152.441E-03     168.236E-03
            5786            5787     128.786E-03     139.113E-03
            5786            5788     162.956E-03     175.295E-03
            5787            5773     152.441E-03     168.236E-03
            5787            5774     189.012E-03     205.778E-03
            5787            5788     162.956E-03     175.295E-03
            5787            5789     199.085E-03     212.429E-03
            5788            5774     189.012E-03     205.778E-03
            5788            5775     226.244E-03     243.481E-03
            5788            5789     199.085E-03     212.429E-03
            5788            5790     236.334E-03     250.340E-03
            5789            5775     226.244E-03     243.481E-03
            5789            5776     264.016E-03     281.484E-03
            5789            5790     236.334E-03     250.340E-03
            5789            5791     274.285E-03     288.834E-03
            5790            5776     264.016E-03     281.484E-03
            5790            5777     302.251E-03     319.830E-03
            5790            5791     274.285E-03     288.834E-03
            5790            5792     312.958E-03     328.023E-03
            5791            5777     302.251E-03     319.830E-03
            5791            5778     341.439E-03     358.958E-03
            5791            5792     312.958E-03     328.023E-03
            5791            5793     352.410E-03     368.210E-03
            5792            5778     341.439E-03     358.958E-03
            5792            5779     381.895E-03     399.451E-03
            5792            5793     352.410E-03     368.210E-03
            5792            5794     393.215E-03     409.699E-03
            5793            5779     381.895E-03     399.451E-03
            5793            5780     425.285E-03     442.546E-03
            5793            5794     393.215E-03     409.699E-03
            5793            5795     436.434E-03     453.641E-03
            5794            5780     425.285E-03     442.546E-03
            5794            5781     473.273E-03     490.450E-03
            5794            5795     436.434E-03     453.641E-03
            5794            5796     483.261E-03     500.663E-03
            5795            5781     473.273E-03     490.450E-03
            5795            5782     530.043E-03     546.378E-03
            5795            5796     483.261E-03     500.663E-03
            5795            5797     539.156E-03     554.291E-03
            5796            5782     530.043E-03     546.378E-03
            5796            5783     607.971E-03     619.383E-03
            5796            5797     539.156E-03     554.291E-03
            5796            5798     600.643E-03     612.115E-03
            5797            5783     607.971E-03     619.383E-03
            5797            5784     692.351E-03     694.535E-03
            5797            5798     600.643E-03     612.115E-03
            5797            5799     657.956E-03     668.551E-03
            5798             669     730.522E-03     727.234E-03
            5798             670     685.134E-03     696.579E-03
            5798            5784     692.351E-03     694.535E-03
            5798            5799     657.956E-03     668.551E-03
            5799             760     68.3115E-03     65.1181E-03
            5799             761     86.0237E-03     82.7920E-03
            5799            5785     76.3960E-03     77.2733E-03
            5799            5800     93.0163E-03     92.4160E-03
            5800            5785     76.3960E-03     77.2733E-03
            5800            5786     98.4171E-03     105.359E-03
            5800            5800     93.0163E-03     92.4160E-03
            5800            5801     112.502E-03     116.899E-03
            5801            5786     98.4171E-03     105.359E-03
            5801            5787     128.786E-03     139.113E-03
            5801            5801     112.502E-03     116.899E-03
            5801            5802     140.558E-03     148.350E-03
            5802            5787     128.786E-03     139.113E-03
            5802            5788     162.956E-03     175.295E-03
            5802            5802     140.558E-03     148.350E-03
            5802            5803     173.342E-03     182.758E-03
            5803            5788     162.956E-03     175.295E-03
            5803            5789     199.085E-03     212.429E-03
            5803            5803     173.342E-03     182.758E-03
            5803            5804     208.716E-03     219.059E-03
            5804            5789     199.085E-03     212.429E-03
            5804            5790     236.334E-03     250.340E-03
            5804            5804     208.716E-03     219.059E-03
            5804            5805     245.573E-03     256.486E-03
            5805            5790     236.334E-03     250.340E-03
            5805            5791     274.285E-03     288.834E-03
            5805            5805     245.573E-03     256.486E-03
            5805            5806     283.436E-03     294.902E-03
            5806            5791     274.285E-03     288.834E-03
            5806            5792     312.958E-03     328.023E-03
            5806            5806     283.436E-03     294.902E-03
            5806            5807     322.047E-03     334.331E-03
            5807            5792     312.958E-03     328.023E-03
            5807            5793     352.410E-03     368.210E-03
            5807            5807     322.047E-03     334.331E-03
            5807            5808     361.361E-03     374.678E-03
            5808            5793     352.410E-03     368.210E-03
            5808            5794     393.215E-03     409.699E-03
            5808            5808     361.361E-03     374.678E-03
            5808            5809     401.762E-03     416.325E-03
            5809            5794     393.215E-03     409.699E-03
            5809            5795     436.434E-03     453.641E-03
            5809            5809     401.762E-03     416.325E-03
            5809            5810     443.161E-03     459.057E-03
            5810            5795     436.434E-03     453.641E-03
            5810            5796     483.261E-03     500.663E-03
            5810            5810     443.161E-03     459.057E-03
            5810            5811     487.631E-03     503.624E-03
            5811            5796     483.261E-03     500.663E-03
            5811            5797     539.156E-03     554.291E-03
            5811            5811     487.631E-03     503.624E-03
            5811            5812     533.892E-03     549.021E-03
            5812            5797     539.156E-03     554.291E-03
            5812            5798     600.643E-03     612.115E-03
            5812            5812     533.892E-03     549.021E-03
            5812            5813     580.127E-03     593.025E-03
            5813            5798     600.643E-03     612.115E-03
            5813            5799     657.956E-03     668.551E-03
            5813            5813     580.127E-03     593.025E-03
            5813            5814     627.190E-03     632.788E-03
            5814             670     685.134E-03     696.579E-03
            5814             671     650.667E-03     650.851E-03
            5814            5799     657.956E-03     668.551E-03
            5814            5814     627.190E-03     632.788E-03
            5815             761     86.0237E-03     82.7920E-03
            5815             762     103.459E-03     98.5252E-03
            5815            5800     93.0163E-03     92.4160E-03
            5815            5815     109.294E-03     107.729E-03
            5816            5800     93.0163E-03     92.4160E-03
            5816            5801     112.502E-03     116.899E-03
            5816            5815     109.294E-03     107.729E-03
            5816            5816     126.292E-03     129.701E-03
            5817            5801     112.502E-03     116.899E-03
            5817            5802     140.558E-03     148.350E-03
            5817            5816     126.292E-03     129.701E-03
            5817            5817     152.097E-03     157.996E-03
            5818            5802     140.558E-03     148.350E-03
            5818            5803     173.342E-03     182.758E-03
            5818            5817     152.097E-03     157.996E-03
            5818            5818     183.246E-03     190.388E-03
            5819            5803     173.342E-03     182.758E-03
            5819            5804     208.716E-03     219.059E-03
            5819            5818     183.246E-03     190.388E-03
            5819            5819     217.449E-03     224.940E-03
            5820            5804     208.716E-03     219.059E-03
            5820            5805     245.573E-03     256.486E-03
            5820            5819     217.449E-03     224.940E-03
            5820            5820     253.530E-03     261.168E-03
            5821            5805     245.573E-03     256.486E-03
            5821            5806     283.436E-03     294.902E-03
            5821            5820     253.530E-03     261.168E-03
            5821            5821     290.738E-03     298.829E-03
            5822            5806     283.436E-03     294.902E-03
            5822            5807     322.047E-03     334.331E-03
            5822            5821     290.738E-03     298.829E-03
            5822            5822     328.679E-03     337.535E-03
            5823            5807     322.047E-03     334.331E-03
            5823            5808     361.361E-03     374.678E-03
            5823            5822     328.679E-03     337.535E-03
            5823            5823     367.307E-03     377.275E-03
            5824            5808     361.361E-03     374.678E-03
            5824            5809     401.762E-03     416.325E-03
            5824            5823     367.307E-03     377.275E-03
            5824            5824     406.069E-03     417.632E-03
            5825            5809     401.762E-03     416.325E-03
            5825            5810     443.161E-03     459.057E-03
            5825            5824     406.069E-03     417.632E-03
            5825            5825     445.331E-03     458.368E-03
            5826            5810     443.161E-03     459.057E-03
            5826            5811     487.631E-03     503.624E-03
            5826            5825     445.331E-03     458.368E-03
            5826            5826     483.760E-03     498.307E-03
            5827            5811     487.631E-03     503.624E-03
            5827            5812     533.892E-03     549.021E-03
            5827            5826     483.760E-03     498.307E-03
            5827            5827     520.986E-03     535.526E-03
            5828            5812     533.892E-03     549.021E-03
            5828            5813     580.127E-03     593.025E-03
            5828            5827     520.986E-03     535.526E-03
            5828            5828     557.370E-03     568.354E-03
            5829            5813     580.127E-03     593.025E-03
            5829            5814     627.190E-03     632.788E-03
            5829            5828     557.370E-03     568.354E-03
            5829            5829     592.245E-03     599.394E-03
            5830             671     650.667E-03     650.851E-03
            5830             672     609.542E-03     615.421E-03
            5830            5814     627.190E-03     632.788E-03
            5830            5829     592.245E-03     599.394E-03
            5831             762     103.459E-03     98.5252E-03
            5831             763     120.224E-03     117.742E-03
            5831            5815     109.294E-03     107.729E-03
            5831            5830     125.023E-03     124.447E-03
            5832            5815     109.294E-03     107.729E-03
            5832            5816     126.292E-03     129.701E-03
            5832            5830     125.023E-03     124.447E-03
            5832            5831     139.978E-03     142.855E-03
            5833            5816     126.292E-03     129.701E-03
            5833            5817     152.097E-03     157.996E-03
            5833            5831     139.978E-03     142.855E-03
            5833            5832     163.508E-03     168.561E-03
            5834            5817     152.097E-03     157.996E-03
            5834            5818     183.246E-03     190.388E-03
            5834            5832     163.508E-03     168.561E-03
            5834            5833     192.645E-03     197.793E-03
            5835            5818     183.246E-03     190.388E-03
            5835            5819     217.449E-03     224.940E-03
            5835            5833     192.645E-03     197.793E-03
            5835            5834     225.387E-03     229.779E-03
            5836            5819     217.449E-03     224.940E-03
            5836            5820     253.530E-03     261.168E-03
            5836            5834     225.387E-03     229.779E-03
            5836            5835     260.020E-03     264.165E-03
            5837            5820     253.530E-03     261.168E-03
            5837            5821     290.738E-03     298.829E-03
            5837            5835     260.020E-03     264.165E-03
            5837            5836     295.818E-03     300.098E-03
            5838            5821     290.738E-03     298.829E-03
            5838            5822     328.679E-03     337.535E-03
            5838            5836     295.818E-03     300.098E-03
            5838            5837     332.482E-03     337.255E-03
            5839            5822     328.679E-03     337.535E-03
            5839            5823     367.307E-03     377.275E-03
            5839            5837     332.482E-03     337.255E-03
            5839            5838     369.363E-03     375.140E-03
            5840            5823     367.307E-03     377.275E-03
            5840            5824     406.069E-03     417.632E-03
            5840            5838     369.363E-03     375.140E-03
            5840            5839     406.254E-03     413.328E-03
            5841            5824     406.069E-03     417.632E-03
            5841            5825     445.331E-03     458.368E-03
            5841            5839     406.254E-03     413.328E-03
            5841            5840     441.851E-03     450.941E-03
            5842            5825     445.331E-03     458.368E-03
            5842            5826     483.760E-03     498.307E-03
            5842            5840     441.851E-03     450.941E-03
            5842            5841     474.999E-03     486.224E-03
            5843            5826     483.760E-03     498.307E-03
            5843            5827     520.986E-03     535.526E-03
            5843            5841     474.999E-03     486.224E-03
            5843            5842     504.389E-03     516.843E-03
            5844            5827     520.986E-03     535.526E-03
            5844            5828     557.370E-03     568.354E-03
            5844            5842     504.389E-03     516.843E-03
            5844            5843     530.339E-03     541.833E-03
            5845            5828     557.370E-03     568.354E-03
            5845            5829     592.245E-03     599.394E-03
            5845            5843     530.339E-03     541.833E-03
            5845            5844     557.888E-03     562.877E-03
            5846             672     609.542E-03     615.421E-03
            5846             673     572.794E-03     572.726E-03
            5846            5829     592.245E-03     599.394E-03
            5846            5844     557.888E-03     562.877E-03
            5847             763     120.224E-03     117.742E-03
            5847             764     136.476E-03     133.774E-03
            5847            5830     125.023E-03     124.447E-03
            5847            5845     141.056E-03     140.994E-03
            5848            5830     125.023E-03     124.447E-03
            5848            5831     139.978E-03     142.855E-03
            5848            5845     141.056E-03     140.994E-03
            5848            5846     153.911E-03     158.419E-03
            5849            5831     139.978E-03     142.855E-03
            5849            5832     163.508E-03     168.561E-03
            5849            5846     153.911E-03     158.419E-03
            5849            5847     174.879E-03     179.826E-03
            5850            5832     163.508E-03     168.561E-03
            5850            5833     192.645E-03     197.793E-03
            5850            5847     174.879E-03     179.826E-03
            5850            5848     202.364E-03     204.836E-03
            5851            5833     192.645E-03     197.793E-03
            5851            5834     225.387E-03     229.779E-03
            5851            5848     202.364E-03     204.836E-03
            5851            5849     232.897E-03     233.984E-03
            5852            5834     225.387E-03     229.779E-03
            5852            5835     260.020E-03     264.165E-03
            5852            5849     232.897E-03     233.984E-03
            5852            5850     265.226E-03     265.668E-03
            5853            5835     260.020E-03     264.165E-03
            5853            5836     295.818E-03     300.098E-03
            5853            5850     265.226E-03     265.668E-03
            5853            5851     298.900E-03     299.075E-03
            5854            5836     295.818E-03     300.098E-03
            5854            5837     332.482E-03     337.255E-03
            5854            5851     298.900E-03     299.075E-03
            5854            5852     333.214E-03     333.535E-03
            5855            5837     332.482E-03     337.255E-03
            5855            5838     369.363E-03     375.140E-03
            5855            5852     333.214E-03     333.535E-03
            5855            5853     367.827E-03     368.501E-03
            5856            5838     369.363E-03     375.140E-03
            5856            5839     406.254E-03     413.328E-03
            5856            5853     367.827E-03     368.501E-03
            5856            5854     401.750E-03     403.328E-03
            5857            5839     406.254E-03     413.328E-03
            5857            5840     441.851E-03     450.941E-03
            5857            5854     401.750E-03     403.328E-03
            5857            5855     433.933E-03     436.930E-03
            5858            5840     441.851E-03     450.941E-03
            5858            5841     474.999E-03     486.224E-03
            5858            5855     433.933E-03     436.930E-03
            5858            5856     462.618E-03     467.861E-03
            5859            5841     474.999E-03     486.224E-03
            5859            5842     504.389E-03     516.843E-03
            5859            5856     462.618E-03     467.861E-03
            5859            5857     485.070E-03     493.489E-03
            5860            5842     504.389E-03     516.843E-03
            5860            5843     530.339E-03     541.833E-03
            5860            5857     485.070E-03     493.489E-03
            5860            5858     501.674E-03     511.017E-03
            5861            5843     530.339E-03     541.833E-03
            5861            5844     557.888E-03     562.877E-03
            5861            5858     501.674E-03     511.017E-03
            5861            5859     519.071E-03     524.285E-03
            5862             673     572.794E-03     572.726E-03
            5862             674     529.278E-03     531.063E-03
            5862            5844     557.888E-03     562.877E-03
            5862            5859     519.071E-03     524.285E-03
            5863             764     136.476E-03     133.774E-03
            5863             765     156.033E-03     156.877E-03
            5863            5845     141.056E-03     140.994E-03
            5863            5860     157.361E-03     163.433E-03
            5864            5845     141.056E-03     140.994E-03
            5864            5846     153.911E-03     158.419E-03
            5864            5860     157.361E-03     163.433E-03
            5864            5861     167.451E-03     175.701E-03
            5865            5846     153.911E-03     158.419E-03
            5865            5847     174.879E-03     179.826E-03
            5865            5861     167.451E-03     175.701E-03
            5865            5862     188.187E-03     190.789E-03
            5866            5847     174.879E-03     179.826E-03
            5866            5848     202.364E-03     204.836E-03
            5866            5862     188.187E-03     190.789E-03
            5866            5863     213.241E-03     212.422E-03
            5867            5848     202.364E-03     204.836E-03
            5867            5849     232.897E-03     233.984E-03
            5867            5863     213.241E-03     212.422E-03
            5867            5864     240.619E-03     238.340E-03
            5868            5849     232.897E-03     233.984E-03
            5868            5850     265.226E-03     265.668E-03
            5868            5864     240.619E-03     238.340E-03
            5868            5865     269.959E-03     266.754E-03
            5869            5850     265.226E-03     265.668E-03
            5869            5851     298.900E-03     299.075E-03
            5869            5865     269.959E-03     266.754E-03
            5869            5866     300.464E-03     296.747E-03
            5870            5851     298.900E-03     299.075E-03
            5870            5852     333.214E-03     333.535E-03
            5870            5866     300.464E-03     296.747E-03
            5870            5867     331.701E-03     327.467E-03
            5871            5852     333.214E-03     333.535E-03
            5871            5853     367.827E-03     368.501E-03
            5871            5867     331.701E-03     327.467E-03
            5871            5868     362.917E-03     358.319E-03
            5872            5853     367.827E-03     368.501E-03
            5872            5854     401.750E-03     403.328E-03
            5872            5868     362.917E-03     358.319E-03
            5872            5869     393.351E-03     388.467E-03
            5873            5854     401.750E-03     403.328E-03
            5873            5855     433.933E-03     436.930E-03
            5873            5869     393.351E-03     388.467E-03
            5873            5870     421.831E-03     417.022E-03
            5874            5855     433.933E-03     436.930E-03
            5874            5856     462.618E-03     467.861E-03
            5874            5870     421.831E-03     417.022E-03
            5874            5871     446.389E-03     442.541E-03
            5875            5856     462.618E-03     467.861E-03
            5875            5857     485.070E-03     493.489E-03
            5875            5871     446.389E-03     442.541E-03
            5875            5872     464.825E-03     463.162E-03
            5876            5857     485.070E-03     493.489E-03
            5876            5858     501.674E-03     511.017E-03
            5876            5872     464.825E-03     463.162E-03
            5876            5873     472.533E-03     474.934E-03
            5877            5858     501.674E-03     511.017E-03
            5877            5859     519.071E-03     524.285E-03
            5877            5873     472.533E-03     474.934E-03
            5877            5874     476.402E-03     477.882E-03
            5878             674     529.278E-03     531.063E-03
            5878             675     479.925E-03     477.940E-03
            5878            5859     519.071E-03     524.285E-03
            5878            5874     476.402E-03     477.882E-03
            5879             765     156.033E-03     156.877E-03
            5879             766     166.064E-03     186.711E-03
            5879            5860     157.361E-03     163.433E-03
            5879            5875     171.577E-03     186.412E-03
            5880            5860     157.361E-03     163.433E-03
            5880            5861     167.451E-03     175.701E-03
            5880            5875     171.577E-03     186.412E-03
            5880            5876     185.800E-03     189.984E-03
            5881            5861     167.451E-03     175.701E-03
            5881            5862     188.187E-03     190.789E-03
            5881            5876     185.800E-03     189.984E-03
            5881            5877     204.624E-03     202.513E-03
            5882            5862     188.187E-03     190.789E-03
            5882            5863     213.241E-03     212.422E-03
            5882            5877     204.624E-03     202.513E-03
            5882            5878     225.911E-03     221.728E-03
            5883            5863     213.241E-03     212.422E-03
            5883            5864     240.619E-03     238.340E-03
            5883            5878     225.911E-03     221.728E-03
            5883            5879     249.621E-03     244.319E-03
            5884            5864     240.619E-03     238.340E-03
            5884            5865     269.959E-03     266.754E-03
            5884            5879     249.621E-03     244.319E-03
            5884            5880     275.235E-03     269.110E-03
            5885            5865     269.959E-03     266.754E-03
            5885            5866     300.464E-03     296.747E-03
            5885            5880     275.235E-03     269.110E-03
            5885            5881     301.962E-03     294.965E-03
            5886            5866     300.464E-03     296.747E-03
            5886            5867     331.701E-03     327.467E-03
            5886            5881     301.962E-03     294.965E-03
            5886            5882     329.185E-03     321.151E-03
            5887            5867     331.701E-03     327.467E-03
            5887            5868     362.917E-03     358.319E-03
            5887            5882     329.185E-03     321.151E-03
            5887            5883     356.181E-03     346.759E-03
            5888            5868     362.917E-03     358.319E-03
            5888            5869     393.351E-03     388.467E-03
            5888            5883     356.181E-03     346.759E-03
            5888            5884     382.203E-03     371.065E-03
            5889            5869     393.351E-03     388.467E-03
            5889            5870     421.831E-03     417.022E-03
            5889            5884     382.203E-03     371.065E-03
            5889            5885     406.125E-03     392.946E-03
            5890            5870     421.831E-03     417.022E-03
            5890            5871     446.389E-03     442.541E-03
            5890            5885     406.125E-03     392.946E-03
            5890            5886     426.728E-03     411.221E-03
            5891            5871     446.389E-03     442.541E-03
            5891            5872     464.825E-03     463.162E-03
            5891            5886     426.728E-03     411.221E-03
            5891            5887     441.635E-03     424.239E-03
            5892            5872     464.825E-03     463.162E-03
            5892            5873     472.533E-03     474.934E-03
            5892            5887     441.635E-03     424.239E-03
            5892            5888     446.735E-03     429.140E-03
            5893            5873     472.533E-03     474.934E-03
            5893            5874     476.402E-03     477.882E-03
            5893            5888     446.735E-03     429.140E-03
            5893            5889     436.530E-03     419.013E-03
            5894             675     479.925E-03     477.940E-03
            5894             676     426.856E-03     408.824E-03
            5894            5874     476.402E-03     477.882E-03
            5894            5889     436.530E-03     419.013E-03
            5895             766     166.064E-03     186.711E-03
            5895             767     109.228E-03     130.682E-03
            5895            5875     171.577E-03     186.412E-03
            5895            5890     117.200E-03     131.095E-03
            5896            5875     171.577E-03     186.412E-03
            5896            5876     185.800E-03     189.984E-03
            5896            5890     117.200E-03     131.095E-03
            5896            5891     130.802E-03     135.645E-03
            5897            5876     185.800E-03     189.984E-03
            5897            5877     204.624E-03     202.513E-03
            5897            5891     130.802E-03     135.645E-03
            5897            5892     143.705E-03     147.459E-03
            5898            5877     204.624E-03     202.513E-03
            5898            5878     225.911E-03     221.728E-03
            5898            5892     143.705E-03     147.459E-03
            5898            5893     159.489E-03     163.558E-03
            5899            5878     225.911E-03     221.728E-03
            5899            5879     249.621E-03     244.319E-03
            5899            5893     159.489E-03     163.558E-03
            5899            5894     177.287E-03     181.370E-03
            5900            5879     249.621E-03     244.319E-03
            5900            5880     275.235E-03     269.110E-03
            5900            5894     177.287E-03     181.370E-03
            5900            5895     196.629E-03     200.739E-03
            5901            5880     275.235E-03     269.110E-03
            5901            5881     301.962E-03     294.965E-03
            5901            5895     196.629E-03     200.739E-03
            5901            5896     216.974E-03     220.689E-03
            5902            5881     301.962E-03     294.965E-03
            5902            5882     329.185E-03     321.151E-03
            5902            5896     216.974E-03     220.689E-03
            5902            5897     237.977E-03     241.047E-03
            5903            5882     329.185E-03     321.151E-03
            5903            5883     356.181E-03     346.759E-03
            5903            5897     237.977E-03     241.047E-03
            5903            5898     259.483E-03     261.408E-03
            5904            5883     356.181E-03     346.759E-03
            5904            5884     382.203E-03     371.065E-03
            5904            5898     259.483E-03     261.408E-03
            5904            5899     281.234E-03     281.705E-03
            5905            5884     382.203E-03     371.065E-03
            5905            5885     406.125E-03     392.946E-03
            5905            5899     281.234E-03     281.705E-03
            5905            5900     303.657E-03     301.983E-03
            5906            5885     406.125E-03     392.946E-03
            5906            5886     426.728E-03     411.221E-03
            5906            5900     303.657E-03     301.983E-03
            5906            5901     326.481E-03     322.676E-03
            5907            5886     426.728E-03     411.221E-03
            5907            5887     441.635E-03     424.239E-03
            5907            5901     326.481E-03     322.676E-03
            5907            5902     351.402E-03     345.070E-03
            5908            5887     441.635E-03     424.239E-03
            5908            5888     446.735E-03     429.140E-03
            5908            5902     351.402E-03     345.070E-03
            5908            5903     378.098E-03     370.892E-03
            5909            5888     446.735E-03     429.140E-03
            5909            5889     436.530E-03     419.013E-03
            5909            5903     378.098E-03     370.892E-03
            5909            5904     416.615E-03     417.855E-03
            5910             676     426.856E-03     408.824E-03
            5910             677     441.999E-03     450.653E-03
            5910            5889     436.530E-03     419.013E-03
            5910            5904     416.615E-03     417.855E-03
            5911             767     109.228E-03     130.682E-03
            5911             768     62.3204E-03     67.6582E-03
            5911            5890     117.200E-03     131.095E-03
            5911            5905     63.7405E-03     71.0288E-03
            5912            5890     117.200E-03     131.095E-03
            5912            5891     130.802E-03     135.645E-03
            5912            5905     63.7405E-03     71.0288E-03
            5912            5906     69.3106E-03     78.9733E-03
            5913            5891     130.802E-03     135.645E-03
            5913            5892     143.705E-03     147.459E-03
            5913            5906     69.3106E-03     78.9733E-03
            5913            5907     78.9894E-03     89.7810E-03
            5914            5892     143.705E-03     147.459E-03
            5914            5893     159.489E-03     163.558E-03
            5914            5907     78.9894E-03     89.7810E-03
            5914            5908     90.9328E-03     103.171E-03
            5915            5893     159.489E-03     163.558E-03
            5915            5894     177.287E-03     181.370E-03
            5915            5908     90.9328E-03     103.171E-03
            5915            5909     104.527E-03     117.844E-03
            5916            5894     177.287E-03     181.370E-03
            5916            5895     196.629E-03     200.739E-03
            5916            5909     104.527E-03     117.844E-03
            5916            5910     119.387E-03     133.442E-03
            5917            5895     196.629E-03     200.739E-03
            5917            5896     216.974E-03     220.689E-03
            5917            5910     119.387E-03     133.442E-03
            5917            5911     135.195E-03     149.670E-03
            5918            5896     216.974E-03     220.689E-03
            5918            5897     237.977E-03     241.047E-03
            5918            5911     135.195E-03     149.670E-03
            5918            5912     152.062E-03     166.693E-03
            5919            5897     237.977E-03     241.047E-03
            5919            5898     259.483E-03     261.408E-03
            5919            5912     152.062E-03     166.693E-03
            5919            5913     170.102E-03     184.604E-03
            5920            5898     259.483E-03     261.408E-03
            5920            5899     281.234E-03     281.705E-03
            5920            5913     170.102E-03     184.604E-03
            5920            5914     190.167E-03     204.370E-03
            5921            5899     281.234E-03     281.705E-03
            5921            5900     303.657E-03     301.983E-03
            5921            5914     190.167E-03     204.370E-03
            5921            5915     212.942E-03     226.706E-03
            5922            5900     303.657E-03     301.983E-03
            5922            5901     326.481E-03     322.676E-03
            5922            5915     212.942E-03     226.706E-03
            5922            5916     241.206E-03     254.584E-03
            5923            5901     326.481E-03     322.676E-03
            5923            5902     351.402E-03     345.070E-03
            5923            5916     241.206E-03     254.584E-03
            5923            5917     276.772E-03     290.288E-03
            5924            5902     351.402E-03     345.070E-03
            5924            5903     378.098E-03     370.892E-03
            5924            5917     276.772E-03     290.288E-03
            5924            5918     330.475E-03     345.143E-03
            5925            5903     378.098E-03     370.892E-03
            5925            5904     416.615E-03     417.855E-03
            5925            5918     330.475E-03     345.143E-03
            5925            5919     420.293E-03     432.182E-03
            5926             677     441.999E-03     450.653E-03
            5926             678     475.718E-03     483.794E-03
            5926            5904     416.615E-03     417.855E-03
            5926            5919     420.293E-03     432.182E-03
            5927             768     62.3204E-03     67.6582E-03
            5927             769     76.4923E-03     72.5900E-03
            5927            5905     63.7405E-03     71.0288E-03
            5927            5920     76.9720E-03     76.6656E-03
            5928            5905     63.7405E-03     71.0288E-03
            5928            5906     69.3106E-03     78.9733E-03
            5928            5920     76.9720E-03     76.6656E-03
            5928            5921     80.6359E-03     85.7142E-03
            5929            5906     69.3106E-03     78.9733E-03
            5929            5907     78.9894E-03     89.7810E-03
            5929            5921     80.6359E-03     85.7142E-03
            5929            5922     89.0167E-03     96.6137E-03
            5930            5907     78.9894E-03     89.7810E-03
            5930            5908     90.9328E-03     103.171E-03
            5930            5922     89.0167E-03     96.6137E-03
            5930            5923     100.364E-03     109.437E-03
            5931            5908     90.9328E-03     103.171E-03
            5931            5909     104.527E-03     117.844E-03
            5931            5923     100.364E-03     109.437E-03
            5931            5924     113.503E-03     123.873E-03
            5932            5909     104.527E-03     117.844E-03
            5932            5910     119.387E-03     133.442E-03
            5932            5924     113.503E-03     123.873E-03
            5932            5925     128.004E-03     139.266E-03
            5933            5910     119.387E-03     133.442E-03
            5933            5911     135.195E-03     149.670E-03
            5933            5925     128.004E-03     139.266E-03
            5933            5926     143.618E-03     155.517E-03
            5934            5911     135.195E-03     149.670E-03
            5934            5912     152.062E-03     166.693E-03
            5934            5926     143.618E-03     155.517E-03
            5934            5927     160.181E-03     172.530E-03
            5935            5912     152.062E-03     166.693E-03
            5935            5913     170.102E-03     184.604E-03
            5935            5927     160.181E-03     172.530E-03
            5935            5928     178.077E-03     190.657E-03
            5936            5913     170.102E-03     184.604E-03
            5936            5914     190.167E-03     204.370E-03
            5936            5928     178.077E-03     190.657E-03
            5936            5929     197.595E-03     210.349E-03
            5937            5914     190.167E-03     204.370E-03
            5937            5915     212.942E-03     226.706E-03
            5937            5929     197.595E-03     210.349E-03
            5937            5930     220.290E-03     232.832E-03
            5938            5915     212.942E-03     226.706E-03
            5938            5916     241.206E-03     254.584E-03
            5938            5930     220.290E-03     232.832E-03
            5938            5931     247.653E-03     260.008E-03
            5939            5916     241.206E-03     254.584E-03
            5939            5917     276.772E-03     290.288E-03
            5939            5931     247.653E-03     260.008E-03
            5939            5932     283.712E-03     295.018E-03
            5940            5917     276.772E-03     290.288E-03
            5940            5918     330.475E-03     345.143E-03
            5940            5932     283.712E-03     295.018E-03
            5940            5933     338.936E-03     346.095E-03
            5941            5918     330.475E-03     345.143E-03
            5941            5919     420.293E-03     432.182E-03
            5941            5933     338.936E-03     346.095E-03
            5941            5934     403.843E-03     404.575E-03
            5942             678     475.718E-03     483.794E-03
            5942             679     434.838E-03     432.116E-03
            5942            5919     420.293E-03     432.182E-03
            5942            5934     403.843E-03     404.575E-03
            5943             769     76.4923E-03     72.5900E-03
            5943             770     85.2118E-03     80.7929E-03
            5943            5920     76.9720E-03     76.6656E-03
            5943            5935     86.8885E-03     83.6295E-03
            5944            5920     76.9720E-03     76.6656E-03
            5944            5921     80.6359E-03     85.7142E-03
            5944            5935     86.8885E-03     83.6295E-03
            5944            5936     91.3834E-03     91.7003E-03
            5945            5921     80.6359E-03     85.7142E-03
            5945            5922     89.0167E-03     96.6137E-03
            5945            5936     91.3834E-03     91.7003E-03
            5945            5937     98.7692E-03     102.880E-03
            5946            5922     89.0167E-03     96.6137E-03
            5946            5923     100.364E-03     109.437E-03
            5946            5937     98.7692E-03     102.880E-03
            5946            5938     109.364E-03     115.618E-03
            5947            5923     100.364E-03     109.437E-03
            5947            5924     113.503E-03     123.873E-03
            5947            5938     109.364E-03     115.618E-03
            5947            5939     122.142E-03     129.817E-03
            5948            5924     113.503E-03     123.873E-03
            5948            5925     128.004E-03     139.266E-03
            5948            5939     122.142E-03     129.817E-03
            5948            5940     136.423E-03     145.150E-03
            5949            5925     128.004E-03     139.266E-03
            5949            5926     143.618E-03     155.517E-03
            5949            5940     136.423E-03     145.150E-03
            5949            5941     151.859E-03     161.364E-03
            5950            5926     143.618E-03     155.517E-03
            5950            5927     160.181E-03     172.530E-03
            5950            5941     151.859E-03     161.364E-03
            5950            5942     168.351E-03     178.444E-03
            5951            5927     160.181E-03     172.530E-03
            5951            5928     178.077E-03     190.657E-03
            5951            5942     168.351E-03     178.444E-03
            5951            5943     185.852E-03     196.509E-03
            5952            5928     178.077E-03     190.657E-03
            5952            5929     197.595E-03     210.349E-03
            5952            5943     185.852E-03     196.509E-03
            5952            5944     204.924E-03     215.863E-03
            5953            5929     197.595E-03     210.349E-03
            5953            5930     220.290E-03     232.832E-03
            5953            5944     204.924E-03     215.863E-03
            5953            5945     226.336E-03     237.451E-03
            5954            5930     220.290E-03     232.832E-03
            5954            5931     247.653E-03     260.008E-03
            5954            5945     226.336E-03     237.451E-03
            5954            5946     251.534E-03     262.151E-03
            5955            5931     247.653E-03     260.008E-03
            5955            5932     283.712E-03     295.018E-03
            5955            5946     251.534E-03     262.151E-03
            5955            5947     285.173E-03     293.531E-03
            5956            5932     283.712E-03     295.018E-03
            5956            5933     338.936E-03     346.095E-03
            5956            5947     285.173E-03     293.531E-03
            5956            5948     325.606E-03     331.382E-03
            5957            5933     338.936E-03     346.095E-03
            5957            5934     403.843E-03     404.575E-03
            5957            5948     325.606E-03     331.382E-03
            5957            5949     367.863E-03     374.190E-03
            5958             679     434.838E-03     432.116E-03
            5958             680     389.386E-03     397.334E-03
            5958            5934     403.843E-03     404.575E-03
            5958            5949     367.863E-03     374.190E-03
            5959             770     85.2118E-03     80.7929E-03
            5959             771     94.4035E-03     88.7507E-03
            5959            5935     86.8885E-03     83.6295E-03
            5959            5950     95.6423E-03     91.5543E-03
            5960            5935     86.8885E-03     83.6295E-03
            5960            5936     91.3834E-03     91.7003E-03
            5960            5950     95.6423E-03     91.5543E-03
            5960            5951     99.9777E-03     98.6266E-03
            5961            5936     91.3834E-03     91.7003E-03
            5961            5937     98.7692E-03     102.880E-03
            5961            5951     99.9777E-03     98.6266E-03
            5961            5952     107.528E-03     108.870E-03
            5962            5937     98.7692E-03     102.880E-03
            5962            5938     109.364E-03     115.618E-03
            5962            5952     107.528E-03     108.870E-03
            5962            5953     117.623E-03     121.461E-03
            5963            5938     109.364E-03     115.618E-03
            5963            5939     122.142E-03     129.817E-03
            5963            5953     117.623E-03     121.461E-03
            5963            5954     130.023E-03     135.358E-03
            5964            5939     122.142E-03     129.817E-03
            5964            5940     136.423E-03     145.150E-03
            5964            5954     130.023E-03     135.358E-03
            5964            5955     144.107E-03     150.466E-03
            5965            5940     136.423E-03     145.150E-03
            5965            5941     151.859E-03     161.364E-03
            5965            5955     144.107E-03     150.466E-03
            5965            5956     159.390E-03     166.521E-03
            5966            5941     151.859E-03     161.364E-03
            5966            5942     168.351E-03     178.444E-03
            5966            5956     159.390E-03     166.521E-03
            5966            5957     175.609E-03     183.429E-03
            5967            5942     168.351E-03     178.444E-03
            5967            5943     185.852E-03     196.509E-03
            5967            5957     175.609E-03     183.429E-03
            5967            5958     192.627E-03     201.063E-03
            5968            5943     185.852E-03     196.509E-03
            5968            5944     204.924E-03     215.863E-03
            5968            5958     192.627E-03     201.063E-03
            5968            5959     210.562E-03     219.595E-03
            5969            5944     204.924E-03     215.863E-03
            5969            5945     226.336E-03     237.451E-03
            5969            5959     210.562E-03     219.595E-03
            5969            5960     229.545E-03     238.942E-03
            5970            5945     226.336E-03     237.451E-03
            5970            5946     251.534E-03     262.151E-03
            5970            5960     229.545E-03     238.942E-03
            5970            5961     251.275E-03     260.113E-03
            5971            5946     251.534E-03     262.151E-03
            5971            5947     285.173E-03     293.531E-03
            5971            5961     251.275E-03     260.113E-03
            5971            5962     275.543E-03     283.373E-03
            5972            5947     285.173E-03     293.531E-03
            5972            5948     325.606E-03     331.382E-03
            5972            5962     275.543E-03     283.373E-03
            5972            5963     302.785E-03     309.181E-03
            5973            5948     325.606E-03     331.382E-03
            5973            5949     367.863E-03     374.190E-03
            5973            5963     302.785E-03     309.181E-03
            5973            5964     335.991E-03     338.581E-03
            5974             680     389.386E-03     397.334E-03
            5974             681     354.298E-03     354.036E-03
            5974            5949     367.863E-03     374.190E-03
            5974            5964     335.991E-03     338.581E-03
            5975             771     94.4035E-03     88.7507E-03
            5975             772     102.077E-03     96.6410E-03
            5975            5950     95.6423E-03     91.5543E-03
            5975            5965     103.505E-03     98.8871E-03
            5976            5950     95.6423E-03     91.5543E-03
            5976            5951     99.9777E-03     98.6266E-03
            5976            5965     103.505E-03     98.8871E-03
            5976            5966     107.772E-03     105.476E-03
            5977            5951     99.9777E-03     98.6266E-03
            5977            5952     107.528E-03     108.870E-03
            5977            5966     107.772E-03     105.476E-03
            5977            5967     114.905E-03     115.132E-03
            5978            5952     107.528E-03     108.870E-03
            5978            5953     117.623E-03     121.461E-03
            5978            5967     114.905E-03     115.132E-03
            5978            5968     124.796E-03     126.810E-03
            5979            5953     117.623E-03     121.461E-03
            5979            5954     130.023E-03     135.358E-03
            5979            5968     124.796E-03     126.810E-03
            5979            5969     136.875E-03     140.213E-03
            5980            5954     130.023E-03     135.358E-03
            5980            5955     144.107E-03     150.466E-03
            5980            5969     136.875E-03     140.213E-03
            5980            5970     150.634E-03     154.767E-03
            5981            5955     144.107E-03     150.466E-03
            5981            5956     159.390E-03     166.521E-03
            5981            5970     150.634E-03     154.767E-03
            5981            5971     165.636E-03     170.356E-03
            5982            5956     159.390E-03     166.521E-03
            5982            5957     175.609E-03     183.429E-03
            5982            5971     165.636E-03     170.356E-03
            5982            5972     181.373E-03     186.695E-03
            5983            5957     175.609E-03     183.429E-03
            5983            5958     192.627E-03     201.063E-03
            5983            5972     181.373E-03     186.695E-03
            5983            5973     197.611E-03     203.599E-03
            5984            5958     192.627E-03     201.063E-03
            5984            5959     210.562E-03     219.595E-03
            5984            5973     197.611E-03     203.599E-03
            5984            5974     213.774E-03     220.572E-03
            5985            5959     210.562E-03     219.595E-03
            5985            5960     229.545E-03     238.942E-03
            5985            5974     213.774E-03     220.572E-03
            5985            5975     229.973E-03     237.349E-03
            5986            5960     229.545E-03     238.942E-03
            5986            5961     251.275E-03     260.113E-03
            5986            5975     229.973E-03     237.349E-03
            5986            5976     245.565E-03     253.380E-03
            5987            5961     251.275E-03     260.113E-03
            5987            5962     275.543E-03     283.373E-03
            5987            5976     245.565E-03     253.380E-03
            5987            5977     261.155E-03     268.489E-03
            5988            5962     275.543E-03     283.373E-03
            5988            5963     302.785E-03     309.181E-03
            5988            5977     261.155E-03     268.489E-03
            5988            5978     279.359E-03     284.254E-03
            5989            5963     302.785E-03     309.181E-03
            5989            5964     335.991E-03     338.581E-03
            5989            5978     279.359E-03     284.254E-03
            5989            5979     302.417E-03     305.701E-03
            5990             681     354.298E-03     354.036E-03
            5990             682     315.527E-03     318.902E-03
            5990            5964     335.991E-03     338.581E-03
            5990            5979     302.417E-03     305.701E-03
            5991             772     102.077E-03     96.6410E-03
            5991             773     109.534E-03     103.579E-03
            5991            5965     103.505E-03     98.8871E-03
            5991            5980     110.778E-03     106.180E-03
            5992            5965     103.505E-03     98.8871E-03
            5992            5966     107.772E-03     105.476E-03
            5992            5980     110.778E-03     106.180E-03
            5992            5981     114.636E-03     112.440E-03
            5993            5966     107.772E-03     105.476E-03
            5993            5967     114.905E-03     115.132E-03
            5993            5981     114.636E-03     112.440E-03
            5993            5982     121.396E-03     121.069E-03
            5994            5967     114.905E-03     115.132E-03
            5994            5968     124.796E-03     126.810E-03
            5994            5982     121.396E-03     121.069E-03
            5994            5983     130.863E-03     131.880E-03
            5995            5968     124.796E-03     126.810E-03
            5995            5969     136.875E-03     140.213E-03
            5995            5983     130.863E-03     131.880E-03
            5995            5984     142.504E-03     144.165E-03
            5996            5969     136.875E-03     140.213E-03
            5996            5970     150.634E-03     154.767E-03
            5996            5984     142.504E-03     144.165E-03
            5996            5985     155.844E-03     157.766E-03
            5997            5970     150.634E-03     154.767E-03
            5997            5971     165.636E-03     170.356E-03
            5997            5985     155.844E-03     157.766E-03
            5997            5986     170.235E-03     172.433E-03
            5998            5971     165.636E-03     170.356E-03
            5998            5972     181.373E-03     186.695E-03
            5998            5986     170.235E-03     172.433E-03
            5998            5987     185.285E-03     187.854E-03
            5999            5972     181.373E-03     186.695E-03
            5999            5973     197.611E-03     203.599E-03
            5999            5987     185.285E-03     187.854E-03
            5999            5988     200.271E-03     203.476E-03
            6000            5973     197.611E-03     203.599E-03
            6000            5974     213.774E-03     220.572E-03
            6000            5988     200.271E-03     203.476E-03
            6000            5989     214.766E-03     218.725E-03
            6001            5974     213.774E-03     220.572E-03
            6001            5975     229.973E-03     237.349E-03
            6001            5989     214.766E-03     218.725E-03
            6001            5990     227.403E-03     232.566E-03
            6002            5975     229.973E-03     237.349E-03
            6002            5976     245.565E-03     253.380E-03
            6002            5990     227.403E-03     232.566E-03
            6002            5991     237.443E-03     243.649E-03
            6003            5976     245.565E-03     253.380E-03
            6003            5977     261.155E-03     268.489E-03
            6003            5991     237.443E-03     243.649E-03
            6003            5992     245.443E-03     251.676E-03
            6004            5977     261.155E-03     268.489E-03
            6004            5978     279.359E-03     284.254E-03
            6004            5992     245.443E-03     251.676E-03
            6004            5993     253.739E-03     258.994E-03
            6005            5978     279.359E-03     284.254E-03
            6005            5979     302.417E-03     305.701E-03
            6005            5993     253.739E-03     258.994E-03
            6005            5994     269.937E-03     271.686E-03
            6006             682     315.527E-03     318.902E-03
            6006             683     281.248E-03     280.306E-03
            6006            5979     302.417E-03     305.701E-03
            6006            5994     269.937E-03     271.686E-03
            6007             773     109.534E-03     103.579E-03
            6007             774     116.660E-03     112.385E-03
            6007            5980     110.778E-03     106.180E-03
            6007            5995     117.500E-03     114.123E-03
            6008            5980     110.778E-03     106.180E-03
            6008            5981     114.636E-03     112.440E-03
            6008            5995     117.500E-03     114.123E-03
            6008            5996     120.901E-03     119.301E-03
            6009            5981     114.636E-03     112.440E-03
            6009            5982     121.396E-03     121.069E-03
            6009            5996     120.901E-03     119.301E-03
            6009            5997     127.195E-03     127.205E-03
            6010            5982     121.396E-03     121.069E-03
            6010            5983     130.863E-03     131.880E-03
            6010            5997     127.195E-03     127.205E-03
            6010            5998     136.016E-03     136.528E-03
            6011            5983     130.863E-03     131.880E-03
            6011            5984     142.504E-03     144.165E-03
            6011            5998     136.016E-03     136.528E-03
            6011            5999     147.162E-03     147.188E-03
            6012            5984     142.504E-03     144.165E-03
            6012            5985     155.844E-03     157.766E-03
            6012            5999     147.162E-03     147.188E-03
            6012            6000     159.714E-03     159.385E-03
            6013            5985     155.844E-03     157.766E-03
            6013            5986     170.235E-03     172.433E-03
            6013            6000     159.714E-03     159.385E-03
            6013            6001     173.188E-03     172.703E-03
            6014            5986     170.235E-03     172.433E-03
            6014            5987     185.285E-03     187.854E-03
            6014            6001     173.188E-03     172.703E-03
            6014            6002     187.026E-03     186.630E-03
            6015            5987     185.285E-03     187.854E-03
            6015            5988     200.271E-03     203.476E-03
            6015            6002     187.026E-03     186.630E-03
            6015            6003     200.727E-03     200.636E-03
            6016            5988     200.271E-03     203.476E-03
            6016            5989     214.766E-03     218.725E-03
            6016            6003     200.727E-03     200.636E-03
            6016            6004     213.104E-03     213.789E-03
            6017            5989     214.766E-03     218.725E-03
            6017            5990     227.403E-03     232.566E-03
            6017            6004     213.104E-03     213.789E-03
            6017            6005     223.088E-03     224.866E-03
            6018            5990     227.403E-03     232.566E-03
            6018            5991     237.443E-03     243.649E-03
            6018            6005     223.088E-03     224.866E-03
            6018            6006     228.616E-03     232.131E-03
            6019            5991     237.443E-03     243.649E-03
            6019            5992     245.443E-03     251.676E-03
            6019            6006     228.616E-03     232.131E-03
            6019            6007     228.728E-03     233.966E-03
            6020            5992     245.443E-03     251.676E-03
            6020            5993     253.739E-03     258.994E-03
            6020            6007     228.728E-03     233.966E-03
            6020            6008     228.210E-03     232.431E-03
            6021            5993     253.739E-03     258.994E-03
            6021            5994     269.937E-03     271.686E-03
            6021            6008     228.210E-03     232.431E-03
            6021            6009     235.607E-03     237.011E-03
            6022             683     281.248E-03     280.306E-03
            6022             684     242.552E-03     242.622E-03
            6022            5994     269.937E-03     271.686E-03
            6022            6009     235.607E-03     237.011E-03
            6023             774     116.660E-03     112.385E-03
            6023             775     122.966E-03     119.193E-03
            6023            5995     117.500E-03     114.123E-03
            6023            6010     124.159E-03     121.653E-03
            6024            5995     117.500E-03     114.123E-03
            6024            5996     120.901E-03     119.301E-03
            6024            6010     124.159E-03     121.653E-03
            6024            6011     126.983E-03     127.494E-03
            6025            5996     120.901E-03     119.301E-03
            6025            5997     127.195E-03     127.205E-03
            6025            6011     126.983E-03     127.494E-03
            6025            6012     132.314E-03     133.745E-03
            6026            5997     127.195E-03     127.205E-03
            6026            5998     136.016E-03     136.528E-03
            6026            6012     132.314E-03     133.745E-03
            6026            6013     140.982E-03     140.607E-03
            6027            5998     136.016E-03     136.528E-03
            6027            5999     147.162E-03     147.188E-03
            6027            6013     140.982E-03     140.607E-03
            6027            6014     151.285E-03     149.511E-03
            6028            5999     147.162E-03     147.188E-03
            6028            6000     159.714E-03     159.385E-03
            6028            6014     151.285E-03     149.511E-03
            6028            6015     162.583E-03     159.942E-03
            6029            6000     159.714E-03     159.385E-03
            6029            6001     173.188E-03     172.703E-03
            6029            6015     162.583E-03     159.942E-03
            6029            6016     174.601E-03     171.368E-03
            6030            6001     173.188E-03     172.703E-03
            6030            6002     187.026E-03     186.630E-03
            6030            6016     174.601E-03     171.368E-03
            6030            6017     186.874E-03     183.322E-03
            6031            6002     187.026E-03     186.630E-03
            6031            6003     200.727E-03     200.636E-03
            6031            6017     186.874E-03     183.322E-03
            6031            6018     198.681E-03     195.080E-03
            6032            6003     200.727E-03     200.636E-03
            6032            6004     213.104E-03     213.789E-03
            6032            6018     198.681E-03     195.080E-03
            6032            6019     209.188E-03     205.803E-03
            6033            6004     213.104E-03     213.789E-03
            6033            6005     223.088E-03     224.866E-03
            6033            6019     209.188E-03     205.803E-03
            6033            6020     216.713E-03     214.129E-03
            6034            6005     223.088E-03     224.866E-03
            6034            6006     228.616E-03     232.131E-03
            6034            6020     216.713E-03     214.129E-03
            6034            6021     219.423E-03     218.347E-03
            6035            6006     228.616E-03     232.131E-03
            6035            6007     228.728E-03     233.966E-03
            6035            6021     219.423E-03     218.347E-03
            6035            6022     213.945E-03     215.559E-03
            6036            6007     228.728E-03     233.966E-03
            6036            6008     228.210E-03     232.431E-03
            6036            6022     213.945E-03     215.559E-03
            6036            6023     201.693E-03     205.410E-03
            6037            6008     228.210E-03     232.431E-03
            6037            6009     235.607E-03     237.011E-03
            6037            6023     201.693E-03     205.410E-03
            6037            6024     199.904E-03     199.810E-03
            6038             684     242.552E-03     242.622E-03
            6038             685     204.784E-03     200.667E-03
            6038            6009     235.607E-03     237.011E-03
            6038            6024     199.904E-03     199.810E-03
            6039             775     122.966E-03     119.193E-03
            6039             776     131.888E-03     130.523E-03
            6039            6010     124.159E-03     121.653E-03
            6039            6025     130.682E-03     133.476E-03
            6040            6010     124.159E-03     121.653E-03
            6040            6011     126.983E-03     127.494E-03
            6040            6025     130.682E-03     133.476E-03
            6040            6026     131.922E-03     137.117E-03
            6041            6011     126.983E-03     127.494E-03
            6041            6012     132.314E-03     133.745E-03
            6041            6026     131.922E-03     137.117E-03
            6041            6027     138.419E-03     139.567E-03
            6042            6012     132.314E-03     133.745E-03
            6042            6013     140.982E-03     140.607E-03
            6042            6027     138.419E-03     139.567E-03
            6042            6028     146.603E-03     144.594E-03
            6043            6013     140.982E-03     140.607E-03
            6043            6014     151.285E-03     149.511E-03
            6043            6028     146.603E-03     144.594E-03
            6043            6029     155.434E-03     151.743E-03
            6044            6014     151.285E-03     149.511E-03
            6044            6015     162.583E-03     159.942E-03
            6044            6029     155.434E-03     151.743E-03
            6044            6030     165.051E-03     160.107E-03
            6045            6015     162.583E-03     159.942E-03
            6045            6016     174.601E-03     171.368E-03
            6045            6030     165.051E-03     160.107E-03
            6045            6031     175.092E-03     169.270E-03
            6046            6016     174.601E-03     171.368E-03
            6046            6017     186.874E-03     183.322E-03
            6046            6031     175.092E-03     169.270E-03
            6046            6032     185.156E-03     178.602E-03
            6047            6017     186.874E-03     183.322E-03
            6047            6018     198.681E-03     195.080E-03
            6047            6032     185.156E-03     178.602E-03
            6047            6033     194.676E-03     187.481E-03
            6048            6018     198.681E-03     195.080E-03
            6048            6019     209.188E-03     205.803E-03
            6048            6033     194.676E-03     187.481E-03
            6048            6034     202.745E-03     195.050E-03
            6049            6019     209.188E-03     205.803E-03
            6049            6020     216.713E-03     214.129E-03
            6049            6034     202.745E-03     195.050E-03
            6049            6035     208.066E-03     200.155E-03
            6050            6020     216.713E-03     214.129E-03
            6050            6021     219.423E-03     218.347E-03
            6050            6035     208.066E-03     200.155E-03
            6050            6036     208.558E-03     200.951E-03
            6051            6021     219.423E-03     218.347E-03
            6051            6022     213.945E-03     215.559E-03
            6051            6036     208.558E-03     200.951E-03
            6051            6037     201.290E-03     195.234E-03
            6052            6022     213.945E-03     215.559E-03
            6052            6023     201.693E-03     205.410E-03
            6052            6037     201.290E-03     195.234E-03
            6052            6038     179.736E-03     177.646E-03
            6053            6023     201.693E-03     205.410E-03
            6053            6024     199.904E-03     199.810E-03
            6053            6038     179.736E-03     177.646E-03
            6053            6039     161.647E-03     160.416E-03
            6054             685     204.784E-03     200.667E-03
            6054             686     159.179E-03     156.025E-03
            6054            6024     199.904E-03     199.810E-03
            6054            6039     161.647E-03     160.416E-03
            6055             776     131.888E-03     130.523E-03
            6055             777     132.688E-03     147.774E-03
            6055            6025     130.682E-03     133.476E-03
            6055            6040     134.748E-03     146.162E-03
            6056            6025     130.682E-03     133.476E-03
            6056            6026     131.922E-03     137.117E-03
            6056            6040     134.748E-03     146.162E-03
            6056            6041     140.150E-03     143.919E-03
            6057            6026     131.922E-03     137.117E-03
            6057            6027     138.419E-03     139.567E-03
            6057            6041     140.150E-03     143.919E-03
            6057            6042     146.787E-03     145.054E-03
            6058            6027     138.419E-03     139.567E-03
            6058            6028     146.603E-03     144.594E-03
            6058            6042     146.787E-03     145.054E-03
            6058            6043     153.351E-03     149.296E-03
            6059            6028     146.603E-03     144.594E-03
            6059            6029     155.434E-03     151.743E-03
            6059            6043     153.351E-03     149.296E-03
            6059            6044     160.403E-03     154.799E-03
            6060            6029     155.434E-03     151.743E-03
            6060            6030     165.051E-03     160.107E-03
            6060            6044     160.403E-03     154.799E-03
            6060            6045     167.960E-03     161.120E-03
            6061            6030     165.051E-03     160.107E-03
            6061            6031     175.092E-03     169.270E-03
            6061            6045     167.960E-03     161.120E-03
            6061            6046     175.610E-03     167.714E-03
            6062            6031     175.092E-03     169.270E-03
            6062            6032     185.156E-03     178.602E-03
            6062            6046     175.610E-03     167.714E-03
            6062            6047     183.023E-03     173.979E-03
            6063            6032     185.156E-03     178.602E-03
            6063            6033     194.676E-03     187.481E-03
            6063            6047     183.023E-03     173.979E-03
            6063            6048     189.589E-03     179.347E-03
            6064            6033     194.676E-03     187.481E-03
            6064            6034     202.745E-03     195.050E-03
            6064            6048     189.589E-03     179.347E-03
            6064            6049     194.531E-03     182.889E-03
            6065            6034     202.745E-03     195.050E-03
            6065            6035     208.066E-03     200.155E-03
            6065            6049     194.531E-03     182.889E-03
            6065            6050     196.939E-03     183.670E-03
            6066            6035     208.066E-03     200.155E-03
            6066            6036     208.558E-03     200.951E-03
            6066            6050     196.939E-03     183.670E-03
            6066            6051     194.965E-03     179.974E-03
            6067            6036     208.558E-03     200.951E-03
            6067            6037     201.290E-03     195.234E-03
            6067            6051     194.965E-03     179.974E-03
            6067            6052     186.667E-03     169.809E-03
            6068            6037     201.290E-03     195.234E-03
            6068            6038     179.736E-03     177.646E-03
            6068            6052     186.667E-03     169.809E-03
            6068            6053     165.675E-03     148.191E-03
            6069            6038     179.736E-03     177.646E-03
            6069            6039     161.647E-03     160.416E-03
            6069            6053     165.675E-03     148.191E-03
            6069            6054     130.683E-03     117.633E-03
            6070             686     159.179E-03     156.025E-03
            6070             687     110.854E-03     101.860E-03
            6070            6039     161.647E-03     160.416E-03
            6070            6054     130.683E-03     117.633E-03
            6071             777     132.688E-03     147.774E-03
            6071             778     102.394E-03     120.574E-03
            6071            6040     134.748E-03     146.162E-03
            6071            6055     107.606E-03     118.032E-03
            6072            6040     134.748E-03     146.162E-03
            6072            6041     140.150E-03     143.919E-03
            6072            6055     107.606E-03     118.032E-03
            6072            6056     114.253E-03     115.291E-03
            6073            6041     140.150E-03     143.919E-03
            6073            6042     146.787E-03     145.054E-03
            6073            6056     114.253E-03     115.291E-03
            6073            6057     116.746E-03     116.860E-03
            6074            6042     146.787E-03     145.054E-03
            6074            6043     153.351E-03     149.296E-03
            6074            6057     116.746E-03     116.860E-03
            6074            6058     119.324E-03     119.723E-03
            6075            6043     153.351E-03     149.296E-03
            6075            6044     160.403E-03     154.799E-03
            6075            6058     119.324E-03     119.723E-03
            6075            6059     122.476E-03     122.642E-03
            6076            6044     160.403E-03     154.799E-03
            6076            6045     167.960E-03     161.120E-03
            6076            6059     122.476E-03     122.642E-03
            6076            6060     125.840E-03     126.140E-03
            6077            6045     167.960E-03     161.120E-03
            6077            6046     175.610E-03     167.714E-03
            6077            6060     125.840E-03     126.140E-03
            6077            6061     129.228E-03     129.561E-03
            6078            6046     175.610E-03     167.714E-03
            6078            6047     183.023E-03     173.979E-03
            6078            6061     129.228E-03     129.561E-03
            6078            6062     132.652E-03     132.902E-03
            6079            6047     183.023E-03     173.979E-03
            6079            6048     189.589E-03     179.347E-03
            6079            6062     132.652E-03     132.902E-03
            6079            6063     135.444E-03     135.523E-03
            6080            6048     189.589E-03     179.347E-03
            6080            6049     194.531E-03     182.889E-03
            6080            6063     135.444E-03     135.523E-03
            6080            6064     137.901E-03     137.489E-03
            6081            6049     194.531E-03     182.889E-03
            6081            6050     196.939E-03     183.670E-03
            6081            6064     137.901E-03     137.489E-03
            6081            6065     138.579E-03     137.561E-03
            6082            6050     196.939E-03     183.670E-03
            6082            6051     194.965E-03     179.974E-03
            6082            6065     138.579E-03     137.561E-03
            6082            6066     138.310E-03     135.800E-03
            6083            6051     194.965E-03     179.974E-03
            6083            6052     186.667E-03     169.809E-03
            6083            6066     138.310E-03     135.800E-03
            6083            6067     132.542E-03     129.303E-03
            6084            6052     186.667E-03     169.809E-03
            6084            6053     165.675E-03     148.191E-03
            6084            6067     132.542E-03     129.303E-03
            6084            6068     123.304E-03     118.790E-03
            6085            6053     165.675E-03     148.191E-03
            6085            6054     130.683E-03     117.633E-03
            6085            6068     123.304E-03     118.790E-03
            6085            6069     117.260E-03     118.927E-03
            6086             687     110.854E-03     101.860E-03
            6086             688     114.198E-03     123.974E-03
            6086            6054     130.683E-03     117.633E-03
            6086            6069     117.260E-03     118.927E-03
            6087             778     102.394E-03     120.574E-03
            6087             779     84.1958E-03     83.4248E-03
            6087            6055     107.606E-03     118.032E-03
            6087            6070     83.8298E-03     84.1435E-03
            6088            6055     107.606E-03     118.032E-03
            6088            6056     114.253E-03     115.291E-03
            6088            6070     83.8298E-03     84.1435E-03
            6088            6071     83.3129E-03     85.2492E-03
            6089            6056     114.253E-03     115.291E-03
            6089            6057     116.746E-03     116.860E-03
            6089            6071     83.3129E-03     85.2492E-03
            6089            6072     83.1057E-03     86.0070E-03
            6090            6057     116.746E-03     116.860E-03
            6090            6058     119.324E-03     119.723E-03
            6090            6072     83.1057E-03     86.0070E-03
            6090            6073     83.1469E-03     86.9592E-03
            6091            6058     119.324E-03     119.723E-03
            6091            6059     122.476E-03     122.642E-03
            6091            6073     83.1469E-03     86.9592E-03
            6091            6074     83.4145E-03     88.1189E-03
            6092            6059     122.476E-03     122.642E-03
            6092            6060     125.840E-03     126.140E-03
            6092            6074     83.4145E-03     88.1189E-03
            6092            6075     83.9084E-03     89.4599E-03
            6093            6060     125.840E-03     126.140E-03
            6093            6061     129.228E-03     129.561E-03
            6093            6075     83.9084E-03     89.4599E-03
            6093            6076     84.5439E-03     90.9156E-03
            6094            6061     129.228E-03     129.561E-03
            6094            6062     132.652E-03     132.902E-03
            6094            6076     84.5439E-03     90.9156E-03
            6094            6077     85.4517E-03     92.6122E-03
            6095            6062     132.652E-03     132.902E-03
            6095            6063     135.444E-03     135.523E-03
            6095            6077     85.4517E-03     92.6122E-03
            6095            6078     86.4429E-03     94.3450E-03
            6096            6063     135.444E-03     135.523E-03
            6096            6064     137.901E-03     137.489E-03
            6096            6078     86.4429E-03     94.3450E-03
            6096            6079     87.9445E-03     96.4907E-03
            6097            6064     137.901E-03     137.489E-03
            6097            6065     138.579E-03     137.561E-03
            6097            6079     87.9445E-03     96.4907E-03
            6097            6080     89.3599E-03     98.5889E-03
            6098            6065     138.579E-03     137.561E-03
            6098            6066     138.310E-03     135.800E-03
            6098            6080     89.3599E-03     98.5889E-03
            6098            6081     91.9582E-03     101.426E-03
            6099            6066     138.310E-03     135.800E-03
            6099            6067     132.542E-03     129.303E-03
            6099            6081     91.9582E-03     101.426E-03
            6099            6082     93.0403E-03     103.393E-03
            6100            6067     132.542E-03     129.303E-03
            6100            6068     123.304E-03     118.790E-03
            6100            6082     93.0403E-03     103.393E-03
            6100            6083     93.2802E-03     106.049E-03
            6101            6068     123.304E-03     118.790E-03
            6101            6069     117.260E-03     118.927E-03
            6101            6083     93.2802E-03     106.049E-03
            6101            6084     107.490E-03     119.332E-03
            6102             688     114.198E-03     123.974E-03
            6102             689     120.252E-03     129.773E-03
            6102            6069     117.260E-03     118.927E-03
            6102            6084     107.490E-03     119.332E-03
            6103             779     84.1958E-03     83.4248E-03
            6103             780     93.3257E-03     80.6817E-03
            6103            6070     83.8298E-03     84.1435E-03
            6103            6085     89.9833E-03     83.6404E-03
            6104            6070     83.8298E-03     84.1435E-03
            6104            6071     83.3129E-03     85.2492E-03
            6104            6085     89.9833E-03     83.6404E-03
            6104            6086     85.9418E-03     86.7925E-03
            6105            6071     83.3129E-03     85.2492E-03
            6105            6072     83.1057E-03     86.0070E-03
            6105            6086     85.9418E-03     86.7925E-03
            6105            6087     85.9481E-03     86.5909E-03
            6106            6072     83.1057E-03     86.0070E-03
            6106            6073     83.1469E-03     86.9592E-03
            6106            6087     85.9481E-03     86.5909E-03
            6106            6088     86.7455E-03     86.6909E-03
            6107            6073     83.1469E-03     86.9592E-03
            6107            6074     83.4145E-03     88.1189E-03
            6107            6088     86.7455E-03     86.6909E-03
            6107            6089     87.2848E-03     87.6059E-03
            6108            6074     83.4145E-03     88.1189E-03
            6108            6075     83.9084E-03     89.4599E-03
            6108            6089     87.2848E-03     87.6059E-03
            6108            6090     88.1560E-03     88.4523E-03
            6109            6075     83.9084E-03     89.4599E-03
            6109            6076     84.5439E-03     90.9156E-03
            6109            6090     88.1560E-03     88.4523E-03
            6109            6091     89.2096E-03     89.5174E-03
            6110            6076     84.5439E-03     90.9156E-03
            6110            6077     85.4517E-03     92.6122E-03
            6110            6091     89.2096E-03     89.5174E-03
            6110            6092     90.3079E-03     90.6640E-03
            6111            6077     85.4517E-03     92.6122E-03
            6111            6078     86.4429E-03     94.3450E-03
            6111            6092     90.3079E-03     90.6640E-03
            6111            6093     91.6937E-03     92.0696E-03
            6112            6078     86.4429E-03     94.3450E-03
            6112            6079     87.9445E-03     96.4907E-03
            6112            6093     91.6937E-03     92.0696E-03
            6112            6094     93.0524E-03     93.4406E-03
            6113            6079     87.9445E-03     96.4907E-03
            6113            6080     89.3599E-03     98.5889E-03
            6113            6094     93.0524E-03     93.4406E-03
            6113            6095     95.1830E-03     95.4889E-03
            6114            6080     89.3599E-03     98.5889E-03
            6114            6081     91.9582E-03     101.426E-03
            6114            6095     95.1830E-03     95.4889E-03
            6114            6096     97.2892E-03     98.0642E-03
            6115            6081     91.9582E-03     101.426E-03
            6115            6082     93.0403E-03     103.393E-03
            6115            6096     97.2892E-03     98.0642E-03
            6115            6097     102.551E-03     101.738E-03
            6116            6082     93.0403E-03     103.393E-03
            6116            6083     93.2802E-03     106.049E-03
            6116            6097     102.551E-03     101.738E-03
            6116            6098     100.465E-03     101.778E-03
            6117            6083     93.2802E-03     106.049E-03
            6117            6084     107.490E-03     119.332E-03
            6117            6098     100.465E-03     101.778E-03
            6117            6099     77.4407E-03     79.1200E-03
            6118             689     120.252E-03     129.773E-03
            6118             690     61.3470E-03     59.0962E-03
            6118            6084     107.490E-03     119.332E-03
            6118            6099     77.4407E-03     79.1200E-03
            6119             780     93.3257E-03     80.6817E-03
            6119             781     88.6451E-03     88.6983E-03
            6119            6085     89.9833E-03     83.6404E-03
            6119            6100     88.8881E-03     88.4694E-03
            6120            6085     89.9833E-03     83.6404E-03
            6120            6086     85.9418E-03     86.7925E-03
            6120            6100     88.8881E-03     88.4694E-03
            6120            6101     89.4760E-03     88.0234E-03
            6121            6086     85.9418E-03     86.7925E-03
            6121            6087     85.9481E-03     86.5909E-03
            6121            6101     89.4760E-03     88.0234E-03
            6121            6102     90.2120E-03     87.8158E-03
            6122            6087     85.9481E-03     86.5909E-03
            6122            6088     86.7455E-03     86.6909E-03
            6122            6102     90.2120E-03     87.8158E-03
            6122            6103     91.1328E-03     87.9065E-03
            6123            6088     86.7455E-03     86.6909E-03
            6123            6089     87.2848E-03     87.6059E-03
            6123            6103     91.1328E-03     87.9065E-03
            6123            6104     92.1858E-03     88.1661E-03
            6124            6089     87.2848E-03     87.6059E-03
            6124            6090     88.1560E-03     88.4523E-03
            6124            6104     92.1858E-03     88.1661E-03
            6124            6105     93.3815E-03     88.6135E-03
            6125            6090     88.1560E-03     88.4523E-03
            6125            6091     89.2096E-03     89.5174E-03
            6125            6105     93.3815E-03     88.6135E-03
            6125            6106     94.6697E-03     89.1708E-03
            6126            6091     89.2096E-03     89.5174E-03
            6126            6092     90.3079E-03     90.6640E-03
            6126            6106     94.6697E-03     89.1708E-03
            6126            6107     96.0969E-03     89.8761E-03
            6127            6092     90.3079E-03     90.6640E-03
            6127            6093     91.6937E-03     92.0696E-03
            6127            6107     96.0969E-03     89.8761E-03
            6127            6108     97.5279E-03     90.6320E-03
            6128            6093     91.6937E-03     92.0696E-03
            6128            6094     93.0524E-03     93.4406E-03
            6128            6108     97.5279E-03     90.6320E-03
            6128            6109     99.1397E-03     91.5760E-03
            6129            6094     93.0524E-03     93.4406E-03
            6129            6095     95.1830E-03     95.4889E-03
            6129            6109     99.1397E-03     91.5760E-03
            6129            6110     100.772E-03     92.4888E-03
            6130            6095     95.1830E-03     95.4889E-03
            6130            6096     97.2892E-03     98.0642E-03
            6130            6110     100.772E-03     92.4888E-03
            6130            6111     102.712E-03     93.8306E-03
            6131            6096     97.2892E-03     98.0642E-03
            6131            6097     102.551E-03     101.738E-03
            6131            6111     102.712E-03     93.8306E-03
            6131            6112     103.797E-03     93.6425E-03
            6132            6097     102.551E-03     101.738E-03
            6132            6098     100.465E-03     101.778E-03
            6132            6112     103.797E-03     93.6425E-03
            6132            6113     95.3010E-03     85.0651E-03
            6133            6098     100.465E-03     101.778E-03
            6133            6099     77.4407E-03     79.1200E-03
            6133            6113     95.3010E-03     85.0651E-03
            6133            6114     54.9338E-03     63.2355E-03
            6134             690     61.3470E-03     59.0962E-03
            6134             691     22.8485E-03     48.7607E-03
            6134            6099     77.4407E-03     79.1200E-03
            6134            6114     54.9338E-03     63.2355E-03
            6135              30     41.3816E-03     47.3058E-03
            6135             781     88.6451E-03     88.6983E-03
            6135             797     43.2585E-03     45.9339E-03
            6135            6100     88.8881E-03     88.4694E-03
            6136             797     43.2585E-03     45.9339E-03
            6136             798     45.7314E-03     44.3160E-03
            6136            6100     88.8881E-03     88.4694E-03
            6136            6101     89.4760E-03     88.0234E-03
            6137             798     45.7314E-03     44.3160E-03
            6137             799     46.3433E-03     44.2875E-03
            6137            6101     89.4760E-03     88.0234E-03
            6137            6102     90.2120E-03     87.8158E-03
            6138             799     46.3433E-03     44.2875E-03
            6138             800     46.7599E-03     44.4362E-03
            6138            6102     90.2120E-03     87.8158E-03
            6138            6103     91.1328E-03     87.9065E-03
            6139             800     46.7599E-03     44.4362E-03
            6139             801     47.4318E-03     44.3609E-03
            6139            6103     91.1328E-03     87.9065E-03
            6139            6104     92.1858E-03     88.1661E-03
            6140             801     47.4318E-03     44.3609E-03
            6140             802     48.1135E-03     44.5021E-03
            6140            6104     92.1858E-03     88.1661E-03
            6140            6105     93.3815E-03     88.6135E-03
            6141             802     48.1135E-03     44.5021E-03
            6141             803     48.7897E-03     44.6254E-03
            6141            6105     93.3815E-03     88.6135E-03
            6141            6106     94.6697E-03     89.1708E-03
            6142             803     48.7897E-03     44.6254E-03
            6142             804     49.6156E-03     44.9154E-03
            6142            6106     94.6697E-03     89.1708E-03
            6142            6107     96.0969E-03     89.8761E-03
            6143             804     49.6156E-03     44.9154E-03
            6143             805     50.2789E-03     45.0501E-03
            6143            6107     96.0969E-03     89.8761E-03
            6143            6108     97.5279E-03     90.6320E-03
            6144             805     50.2789E-03     45.0501E-03
            6144             806     51.2580E-03     45.5411E-03
            6144            6108     97.5279E-03     90.6320E-03
            6144            6109     99.1397E-03     91.5760E-03
            6145             806     51.2580E-03     45.5411E-03
            6145             807     51.6742E-03     45.4834E-03
            6145            6109     99.1397E-03     91.5760E-03
            6145            6110     100.772E-03     92.4888E-03
            6146             807     51.6742E-03     45.4834E-03
            6146             808     52.9011E-03     45.7970E-03
            6146            6110     100.772E-03     92.4888E-03
            6146            6111     102.712E-03     93.8306E-03
            6147             808     52.9011E-03     45.7970E-03
            6147             809     50.7252E-03     43.6932E-03
            6147            6111     102.712E-03     93.8306E-03
            6147            6112     103.797E-03     93.6425E-03
            6148             809     50.7252E-03     43.6932E-03
            6148             810     44.9256E-03     36.9788E-03
            6148            6112     103.797E-03     93.6425E-03
            6148            6113     95.3010E-03     85.0651E-03
            6149             810     44.9256E-03     36.9788E-03
            6149             811     27.6981E-03     31.9210E-03
            6149            6113     95.3010E-03     85.0651E-03
            6149            6114     54.9338E-03     63.2355E-03
            6150              28     12.4077E-03     30.4317E-03
            6150             691     22.8485E-03     48.7607E-03
            6150             811     27.6981E-03     31.9210E-03
            6150            6114     54.9338E-03     63.2355E-03


  Minimum                            5.63805E-15     5.39114E-15
      At Element                            4897            4897
            Node                              31             817

  Maximum                                1.04444         1.05038
      At Element                            2936            2936
            Node                             528             528

           Total                     1.69525E+03     1.73076E+03


Field Output reported at element nodes for region: DO228-1.Region_4
   Computation algorithm: EXTRAPOLATE_COMPUTE_AVERAGE
   Averaged at nodes
   Averaging regions: ODB_REGIONS

   Element Label      Node Label         S.Mises         S.Mises
                                          @Loc 1          @Loc 2
-----------------------------------------------------------------
             833               1     24.8615E-03     28.4172E-03
             833             168     25.9846E-03     27.5967E-03
             833             209     11.8425E-15     10.2142E-15
             833            1670     10.1600E-15     10.0451E-15
             834             168     25.9846E-03     27.5967E-03
             834             169     27.4681E-03     26.6251E-03
             834            1670     10.1600E-15     10.0451E-15
             834            1671     10.8077E-15     12.0544E-15
             835             169     27.4681E-03     26.6251E-03
             835             170     27.8402E-03     26.6051E-03
             835            1671     10.8077E-15     12.0544E-15
             835            1672     12.4296E-15     13.2347E-15
             836             170     27.8402E-03     26.6051E-03
             836             171     28.0917E-03     26.6970E-03
             836            1672     12.4296E-15     13.2347E-15
             836            1673     13.6502E-15     13.6200E-15
             837             171     28.0917E-03     26.6970E-03
             837             172     28.4965E-03     26.6550E-03
             837            1673     13.6502E-15     13.6200E-15
             837            1674     20.4442E-15     20.4136E-15
             838             172     28.4965E-03     26.6550E-03
             838             173     28.9080E-03     26.7415E-03
             838            1674     20.4442E-15     20.4136E-15
             838            1675     19.1264E-15     24.4549E-15
             839             173     28.9080E-03     26.7415E-03
             839             174     29.3164E-03     26.8187E-03
             839            1675     19.1264E-15     24.4549E-15
             839            1676     17.4852E-15     20.5020E-15
             840             174     29.3164E-03     26.8187E-03
             840             175     29.8140E-03     26.9952E-03
             840            1676     17.4852E-15     20.5020E-15
             840            1677     17.3116E-15     12.0327E-15
             841             175     29.8140E-03     26.9952E-03
             841             176     30.2154E-03     27.0797E-03
             841            1677     17.3116E-15     12.0327E-15
             841            1678     16.1236E-15     14.1574E-15
             842             176     30.2154E-03     27.0797E-03
             842             177     30.8045E-03     27.3767E-03
             842            1678     16.1236E-15     14.1574E-15
             842            1679     14.7078E-15     18.6278E-15
             843             177     30.8045E-03     27.3767E-03
             843             178     31.0568E-03     27.3422E-03
             843            1679     14.7078E-15     18.6278E-15
             843            1680     15.2783E-15     18.6930E-15
             844             178     31.0568E-03     27.3422E-03
             844             179     31.7841E-03     27.5254E-03
             844            1680     15.2783E-15     18.6930E-15
             844            1681     15.6836E-15     18.8406E-15
             845             179     31.7841E-03     27.5254E-03
             845             180     30.4510E-03     26.2349E-03
             845            1681     15.6836E-15     18.8406E-15
             845            1682     12.7925E-15     15.8286E-15
             846             180     30.4510E-03     26.2349E-03
             846             181     26.9304E-03     22.1612E-03
             846            1682     12.7925E-15     15.8286E-15
             846            1683     16.9784E-15     18.6333E-15
             847             181     26.9304E-03     22.1612E-03
             847             182     16.5950E-03     19.1211E-03
             847            1683     16.9784E-15     18.6333E-15
             847            1684     26.5568E-15     27.1726E-15
             848               5     7.44882E-03     18.2453E-03
             848             182     16.5950E-03     19.1211E-03
             848             183     34.1668E-15     33.3528E-15
             848            1684     26.5568E-15     27.1726E-15
             849             208     11.4957E-15     8.80987E-15
             849             209     11.8425E-15     10.2142E-15
             849            1670     10.1600E-15     10.0451E-15
             849            1685     13.5442E-15     11.8200E-15
             850            1670     10.1600E-15     10.0451E-15
             850            1671     10.8077E-15     12.0544E-15
             850            1685     13.5442E-15     11.8200E-15
             850            1686     16.8929E-15     16.4293E-15
             851            1671     10.8077E-15     12.0544E-15
             851            1672     12.4296E-15     13.2347E-15
             851            1686     16.8929E-15     16.4293E-15
             851            1687     15.8581E-15     15.6049E-15
             852            1672     12.4296E-15     13.2347E-15
             852            1673     13.6502E-15     13.6200E-15
             852            1687     15.8581E-15     15.6049E-15
             852            1688     16.1460E-15     18.7465E-15
             853            1673     13.6502E-15     13.6200E-15
             853            1674     20.4442E-15     20.4136E-15
             853            1688     16.1460E-15     18.7465E-15
             853            1689     16.3792E-15     18.3238E-15
             854            1674     20.4442E-15     20.4136E-15
             854            1675     19.1264E-15     24.4549E-15
             854            1689     16.3792E-15     18.3238E-15
             854            1690     10.6019E-15     17.5895E-15
             855            1675     19.1264E-15     24.4549E-15
             855            1676     17.4852E-15     20.5020E-15
             855            1690     10.6019E-15     17.5895E-15
             855            1691     15.5240E-15     22.4736E-15
             856            1676     17.4852E-15     20.5020E-15
             856            1677     17.3116E-15     12.0327E-15
             856            1691     15.5240E-15     22.4736E-15
             856            1692     20.8892E-15     18.7229E-15
             857            1677     17.3116E-15     12.0327E-15
             857            1678     16.1236E-15     14.1574E-15
             857            1692     20.8892E-15     18.7229E-15
             857            1693     16.0980E-15     16.2581E-15
             858            1678     16.1236E-15     14.1574E-15
             858            1679     14.7078E-15     18.6278E-15
             858            1693     16.0980E-15     16.2581E-15
             858            1694     10.9666E-15     16.7642E-15
             859            1679     14.7078E-15     18.6278E-15
             859            1680     15.2783E-15     18.6930E-15
             859            1694     10.9666E-15     16.7642E-15
             859            1695     10.6517E-15     13.7116E-15
             860            1680     15.2783E-15     18.6930E-15
             860            1681     15.6836E-15     18.8406E-15
             860            1695     10.6517E-15     13.7116E-15
             860            1696     16.0260E-15     16.1871E-15
             861            1681     15.6836E-15     18.8406E-15
             861            1682     12.7925E-15     15.8286E-15
             861            1696     16.0260E-15     16.1871E-15
             861            1697     13.2424E-15     15.6891E-15
             862            1682     12.7925E-15     15.8286E-15
             862            1683     16.9784E-15     18.6333E-15
             862            1697     13.2424E-15     15.6891E-15
             862            1698     13.3318E-15     15.2245E-15
             863            1683     16.9784E-15     18.6333E-15
             863            1684     26.5568E-15     27.1726E-15
             863            1698     13.3318E-15     15.2245E-15
             863            1699     19.9414E-15     20.7880E-15
             864             183     34.1668E-15     33.3528E-15
             864             184     21.2733E-15     21.2005E-15
             864            1684     26.5568E-15     27.1726E-15
             864            1699     19.9414E-15     20.7880E-15
             865             207     24.4676E-15     22.4883E-15
             865             208     11.4957E-15     8.80987E-15
             865            1685     13.5442E-15     11.8200E-15
             865            1700     24.5419E-15     22.4995E-15
             866            1685     13.5442E-15     11.8200E-15
             866            1686     16.8929E-15     16.4293E-15
             866            1700     24.5419E-15     22.4995E-15
             866            1701     21.1506E-15     20.5107E-15
             867            1686     16.8929E-15     16.4293E-15
             867            1687     15.8581E-15     15.6049E-15
             867            1701     21.1506E-15     20.5107E-15
             867            1702     18.3172E-15     18.9980E-15
             868            1687     15.8581E-15     15.6049E-15
             868            1688     16.1460E-15     18.7465E-15
             868            1702     18.3172E-15     18.9980E-15
             868            1703     16.6888E-15     18.9430E-15
             869            1688     16.1460E-15     18.7465E-15
             869            1689     16.3792E-15     18.3238E-15
             869            1703     16.6888E-15     18.9430E-15
             869            1704     12.3971E-15     13.0356E-15
             870            1689     16.3792E-15     18.3238E-15
             870            1690     10.6019E-15     17.5895E-15
             870            1704     12.3971E-15     13.0356E-15
             870            1705     9.10111E-15     13.8207E-15
             871            1690     10.6019E-15     17.5895E-15
             871            1691     15.5240E-15     22.4736E-15
             871            1705     9.10111E-15     13.8207E-15
             871            1706     14.7495E-15     17.8297E-15
             872            1691     15.5240E-15     22.4736E-15
             872            1692     20.8892E-15     18.7229E-15
             872            1706     14.7495E-15     17.8297E-15
             872            1707     17.9298E-15     14.4120E-15
             873            1692     20.8892E-15     18.7229E-15
             873            1693     16.0980E-15     16.2581E-15
             873            1707     17.9298E-15     14.4120E-15
             873            1708     11.5950E-15     11.5799E-15
             874            1693     16.0980E-15     16.2581E-15
             874            1694     10.9666E-15     16.7642E-15
             874            1708     11.5950E-15     11.5799E-15
             874            1709     8.00245E-15     10.1331E-15
             875            1694     10.9666E-15     16.7642E-15
             875            1695     10.6517E-15     13.7116E-15
             875            1709     8.00245E-15     10.1331E-15
             875            1710     7.85502E-15     8.67246E-15
             876            1695     10.6517E-15     13.7116E-15
             876            1696     16.0260E-15     16.1871E-15
             876            1710     7.85502E-15     8.67246E-15
             876            1711     15.5656E-15     16.4295E-15
             877            1696     16.0260E-15     16.1871E-15
             877            1697     13.2424E-15     15.6891E-15
             877            1711     15.5656E-15     16.4295E-15
             877            1712     15.9184E-15     17.8593E-15
             878            1697     13.2424E-15     15.6891E-15
             878            1698     13.3318E-15     15.2245E-15
             878            1712     15.9184E-15     17.8593E-15
             878            1713     9.17060E-15     8.37811E-15
             879            1698     13.3318E-15     15.2245E-15
             879            1699     19.9414E-15     20.7880E-15
             879            1713     9.17060E-15     8.37811E-15
             879            1714     13.0397E-15     11.4785E-15
             880             184     21.2733E-15     21.2005E-15
             880             185     17.1424E-15     16.1636E-15
             880            1699     19.9414E-15     20.7880E-15
             880            1714     13.0397E-15     11.4785E-15
             881             206     38.3120E-15     39.6974E-15
             881             207     24.4676E-15     22.4883E-15
             881            1700     24.5419E-15     22.4995E-15
             881            1715     29.5040E-15     30.4883E-15
             882            1700     24.5419E-15     22.4995E-15
             882            1701     21.1506E-15     20.5107E-15
             882            1715     29.5040E-15     30.4883E-15
             882            1716     17.9550E-15     17.7169E-15
             883            1701     21.1506E-15     20.5107E-15
             883            1702     18.3172E-15     18.9980E-15
             883            1716     17.9550E-15     17.7169E-15
             883            1717     16.5005E-15     15.8383E-15
             884            1702     18.3172E-15     18.9980E-15
             884            1703     16.6888E-15     18.9430E-15
             884            1717     16.5005E-15     15.8383E-15
             884            1718     15.1973E-15     14.5142E-15
             885            1703     16.6888E-15     18.9430E-15
             885            1704     12.3971E-15     13.0356E-15
             885            1718     15.1973E-15     14.5142E-15
             885            1719     17.6610E-15     17.2569E-15
             886            1704     12.3971E-15     13.0356E-15
             886            1705     9.10111E-15     13.8207E-15
             886            1719     17.6610E-15     17.2569E-15
             886            1720     23.3991E-15     24.5496E-15
             887            1705     9.10111E-15     13.8207E-15
             887            1706     14.7495E-15     17.8297E-15
             887            1720     23.3991E-15     24.5496E-15
             887            1721     17.3492E-15     18.8071E-15
             888            1706     14.7495E-15     17.8297E-15
             888            1707     17.9298E-15     14.4120E-15
             888            1721     17.3492E-15     18.8071E-15
             888            1722     9.37957E-15     8.96563E-15
             889            1707     17.9298E-15     14.4120E-15
             889            1708     11.5950E-15     11.5799E-15
             889            1722     9.37957E-15     8.96563E-15
             889            1723     10.0657E-15     10.0631E-15
             890            1708     11.5950E-15     11.5799E-15
             890            1709     8.00245E-15     10.1331E-15
             890            1723     10.0657E-15     10.0631E-15
             890            1724     13.4195E-15     13.3901E-15
             891            1709     8.00245E-15     10.1331E-15
             891            1710     7.85502E-15     8.67246E-15
             891            1724     13.4195E-15     13.3901E-15
             891            1725     11.6424E-15     10.0495E-15
             892            1710     7.85502E-15     8.67246E-15
             892            1711     15.5656E-15     16.4295E-15
             892            1725     11.6424E-15     10.0495E-15
             892            1726     14.3939E-15     14.2183E-15
             893            1711     15.5656E-15     16.4295E-15
             893            1712     15.9184E-15     17.8593E-15
             893            1726     14.3939E-15     14.2183E-15
             893            1727     17.8139E-15     17.5561E-15
             894            1712     15.9184E-15     17.8593E-15
             894            1713     9.17060E-15     8.37811E-15
             894            1727     17.8139E-15     17.5561E-15
             894            1728     13.8097E-15     12.4355E-15
             895            1713     9.17060E-15     8.37811E-15
             895            1714     13.0397E-15     11.4785E-15
             895            1728     13.8097E-15     12.4355E-15
             895            1729     16.7202E-15     15.6337E-15
             896             185     17.1424E-15     16.1636E-15
             896             186     21.0938E-15     20.1084E-15
             896            1714     13.0397E-15     11.4785E-15
             896            1729     16.7202E-15     15.6337E-15
             897             205     24.3928E-15     27.3070E-15
             897             206     38.3120E-15     39.6974E-15
             897            1715     29.5040E-15     30.4883E-15
             897            1730     20.4407E-15     23.5566E-15
             898            1715     29.5040E-15     30.4883E-15
             898            1716     17.9550E-15     17.7169E-15
             898            1730     20.4407E-15     23.5566E-15
             898            1731     14.6761E-15     14.6887E-15
             899            1716     17.9550E-15     17.7169E-15
             899            1717     16.5005E-15     15.8383E-15
             899            1731     14.6761E-15     14.6887E-15
             899            1732     17.0681E-15     14.1880E-15
             900            1717     16.5005E-15     15.8383E-15
             900            1718     15.1973E-15     14.5142E-15
             900            1732     17.0681E-15     14.1880E-15
             900            1733     17.6632E-15     16.2178E-15
             901            1718     15.1973E-15     14.5142E-15
             901            1719     17.6610E-15     17.2569E-15
             901            1733     17.6632E-15     16.2178E-15
             901            1734     26.7664E-15     24.8889E-15
             902            1719     17.6610E-15     17.2569E-15
             902            1720     23.3991E-15     24.5496E-15
             902            1734     26.7664E-15     24.8889E-15
             902            1735     39.0353E-15     37.3563E-15
             903            1720     23.3991E-15     24.5496E-15
             903            1721     17.3492E-15     18.8071E-15
             903            1735     39.0353E-15     37.3563E-15
             903            1736     26.3273E-15     26.6058E-15
             904            1721     17.3492E-15     18.8071E-15
             904            1722     9.37957E-15     8.96563E-15
             904            1736     26.3273E-15     26.6058E-15
             904            1737     14.0819E-15     12.9455E-15
             905            1722     9.37957E-15     8.96563E-15
             905            1723     10.0657E-15     10.0631E-15
             905            1737     14.0819E-15     12.9455E-15
             905            1738     15.5022E-15     15.4699E-15
             906            1723     10.0657E-15     10.0631E-15
             906            1724     13.4195E-15     13.3901E-15
             906            1738     15.5022E-15     15.4699E-15
             906            1739     15.8271E-15     15.8683E-15
             907            1724     13.4195E-15     13.3901E-15
             907            1725     11.6424E-15     10.0495E-15
             907            1739     15.8271E-15     15.8683E-15
             907            1740     14.3711E-15     12.2674E-15
             908            1725     11.6424E-15     10.0495E-15
             908            1726     14.3939E-15     14.2183E-15
             908            1740     14.3711E-15     12.2674E-15
             908            1741     19.7474E-15     17.5106E-15
             909            1726     14.3939E-15     14.2183E-15
             909            1727     17.8139E-15     17.5561E-15
             909            1741     19.7474E-15     17.5106E-15
             909            1742     20.3541E-15     17.6919E-15
             910            1727     17.8139E-15     17.5561E-15
             910            1728     13.8097E-15     12.4355E-15
             910            1742     20.3541E-15     17.6919E-15
             910            1743     15.5495E-15     14.0238E-15
             911            1728     13.8097E-15     12.4355E-15
             911            1729     16.7202E-15     15.6337E-15
             911            1743     15.5495E-15     14.0238E-15
             911            1744     15.2842E-15     15.2951E-15
             912             186     21.0938E-15     20.1084E-15
             912             187     14.6743E-15     15.3981E-15
             912            1729     16.7202E-15     15.6337E-15
             912            1744     15.2842E-15     15.2951E-15
             913             204     14.2801E-15     16.4372E-15
             913             205     24.3928E-15     27.3070E-15
             913            1730     20.4407E-15     23.5566E-15
             913            1745     14.0087E-15     14.9635E-15
             914            1730     20.4407E-15     23.5566E-15
             914            1731     14.6761E-15     14.6887E-15
             914            1745     14.0087E-15     14.9635E-15
             914            1746     14.9698E-15     16.0034E-15
             915            1731     14.6761E-15     14.6887E-15
             915            1732     17.0681E-15     14.1880E-15
             915            1746     14.9698E-15     16.0034E-15
             915            1747     17.1706E-15     19.9095E-15
             916            1732     17.0681E-15     14.1880E-15
             916            1733     17.6632E-15     16.2178E-15
             916            1747     17.1706E-15     19.9095E-15
             916            1748     14.1751E-15     14.9453E-15
             917            1733     17.6632E-15     16.2178E-15
             917            1734     26.7664E-15     24.8889E-15
             917            1748     14.1751E-15     14.9453E-15
             917            1749     20.6935E-15     22.0381E-15
             918            1734     26.7664E-15     24.8889E-15
             918            1735     39.0353E-15     37.3563E-15
             918            1749     20.6935E-15     22.0381E-15
             918            1750     29.2291E-15     34.9683E-15
             919            1735     39.0353E-15     37.3563E-15
             919            1736     26.3273E-15     26.6058E-15
             919            1750     29.2291E-15     34.9683E-15
             919            1751     24.1651E-15     27.7484E-15
             920            1736     26.3273E-15     26.6058E-15
             920            1737     14.0819E-15     12.9455E-15
             920            1751     24.1651E-15     27.7484E-15
             920            1752     17.8802E-15     14.9789E-15
             921            1737     14.0819E-15     12.9455E-15
             921            1738     15.5022E-15     15.4699E-15
             921            1752     17.8802E-15     14.9789E-15
             921            1753     14.8121E-15     15.4220E-15
             922            1738     15.5022E-15     15.4699E-15
             922            1739     15.8271E-15     15.8683E-15
             922            1753     14.8121E-15     15.4220E-15
             922            1754     16.7238E-15     20.9618E-15
             923            1739     15.8271E-15     15.8683E-15
             923            1740     14.3711E-15     12.2674E-15
             923            1754     16.7238E-15     20.9618E-15
             923            1755     16.5342E-15     20.2657E-15
             924            1740     14.3711E-15     12.2674E-15
             924            1741     19.7474E-15     17.5106E-15
             924            1755     16.5342E-15     20.2657E-15
             924            1756     15.7871E-15     20.1658E-15
             925            1741     19.7474E-15     17.5106E-15
             925            1742     20.3541E-15     17.6919E-15
             925            1756     15.7871E-15     20.1658E-15
             925            1757     13.7741E-15     16.6519E-15
             926            1742     20.3541E-15     17.6919E-15
             926            1743     15.5495E-15     14.0238E-15
             926            1757     13.7741E-15     16.6519E-15
             926            1758     16.1473E-15     16.9132E-15
             927            1743     15.5495E-15     14.0238E-15
             927            1744     15.2842E-15     15.2951E-15
             927            1758     16.1473E-15     16.9132E-15
             927            1759     19.0589E-15     18.3538E-15
             928             187     14.6743E-15     15.3981E-15
             928             188     16.3298E-15     16.3954E-15
             928            1744     15.2842E-15     15.2951E-15
             928            1759     19.0589E-15     18.3538E-15
             929               7     20.3456E-15     18.7618E-15
             929             203     14.5817E-15     11.6763E-15
             929             204     14.2801E-15     16.4372E-15
             929            1745     14.0087E-15     14.9635E-15
             930             202     14.9534E-15     14.9153E-15
             930             203     14.5817E-15     11.6763E-15
             930            1745     14.0087E-15     14.9635E-15
             930            1746     14.9698E-15     16.0034E-15
             931             201     13.9371E-15     21.4260E-15
             931             202     14.9534E-15     14.9153E-15
             931            1746     14.9698E-15     16.0034E-15
             931            1747     17.1706E-15     19.9095E-15
             932             200     8.73427E-15     12.5718E-15
             932             201     13.9371E-15     21.4260E-15
             932            1747     17.1706E-15     19.9095E-15
             932            1748     14.1751E-15     14.9453E-15
             933             199     16.2346E-15     21.2309E-15
             933             200     8.73427E-15     12.5718E-15
             933            1748     14.1751E-15     14.9453E-15
             933            1749     20.6935E-15     22.0381E-15
             934             198     18.5748E-15     31.0036E-15
             934             199     16.2346E-15     21.2309E-15
             934            1749     20.6935E-15     22.0381E-15
             934            1750     29.2291E-15     34.9683E-15
             935             197     17.0102E-15     25.4188E-15
             935             198     18.5748E-15     31.0036E-15
             935            1750     29.2291E-15     34.9683E-15
             935            1751     24.1651E-15     27.7484E-15
             936             196     16.4204E-15     14.8526E-15
             936             197     17.0102E-15     25.4188E-15
             936            1751     24.1651E-15     27.7484E-15
             936            1752     17.8802E-15     14.9789E-15
             937             195     15.6628E-15     17.5054E-15
             937             196     16.4204E-15     14.8526E-15
             937            1752     17.8802E-15     14.9789E-15
             937            1753     14.8121E-15     15.4220E-15
             938             194     21.8406E-15     31.0685E-15
             938             195     15.6628E-15     17.5054E-15
             938            1753     14.8121E-15     15.4220E-15
             938            1754     16.7238E-15     20.9618E-15
             939             193     18.6205E-15     28.2717E-15
             939             194     21.8406E-15     31.0685E-15
             939            1754     16.7238E-15     20.9618E-15
             939            1755     16.5342E-15     20.2657E-15
             940             192     10.0410E-15     21.1273E-15
             940             193     18.6205E-15     28.2717E-15
             940            1755     16.5342E-15     20.2657E-15
             940            1756     15.7871E-15     20.1658E-15
             941             191     10.5454E-15     18.8392E-15
             941             192     10.0410E-15     21.1273E-15
             941            1756     15.7871E-15     20.1658E-15
             941            1757     13.7741E-15     16.6519E-15
             942             190     19.9988E-15     24.1132E-15
             942             191     10.5454E-15     18.8392E-15
             942            1757     13.7741E-15     16.6519E-15
             942            1758     16.1473E-15     16.9132E-15
             943             189     23.6248E-15     24.3001E-15
             943             190     19.9988E-15     24.1132E-15
             943            1758     16.1473E-15     16.9132E-15
             943            1759     19.0589E-15     18.3538E-15
             944               6     18.9620E-15     19.2701E-15
             944             188     16.3298E-15     16.3954E-15
             944             189     23.6248E-15     24.3001E-15
             944            1759     19.0589E-15     18.3538E-15
            1873               5     7.44882E-03     18.2453E-03
            1873             182     16.5950E-03     19.1211E-03
            1873             243     13.8314E-03     29.3308E-03
            1873            2506     32.9679E-03     37.9366E-03
            1874             181     26.9304E-03     22.1612E-03
            1874             182     16.5950E-03     19.1211E-03
            1874            2506     32.9679E-03     37.9366E-03
            1874            2507     57.1556E-03     51.0272E-03
            1875             180     30.4510E-03     26.2349E-03
            1875             181     26.9304E-03     22.1612E-03
            1875            2507     57.1556E-03     51.0272E-03
            1875            2508     62.3628E-03     56.2721E-03
            1876             179     31.7841E-03     27.5254E-03
            1876             180     30.4510E-03     26.2349E-03
            1876            2508     62.3628E-03     56.2721E-03
            1876            2509     61.7413E-03     56.4157E-03
            1877             178     31.0568E-03     27.3422E-03
            1877             179     31.7841E-03     27.5254E-03
            1877            2509     61.7413E-03     56.4157E-03
            1877            2510     60.5743E-03     55.6082E-03
            1878             177     30.8045E-03     27.3767E-03
            1878             178     31.0568E-03     27.3422E-03
            1878            2510     60.5743E-03     55.6082E-03
            1878            2511     59.5861E-03     55.0508E-03
            1879             176     30.2154E-03     27.0797E-03
            1879             177     30.8045E-03     27.3767E-03
            1879            2511     59.5861E-03     55.0508E-03
            1879            2512     58.6113E-03     54.4765E-03
            1880             175     29.8140E-03     26.9952E-03
            1880             176     30.2154E-03     27.0797E-03
            1880            2512     58.6113E-03     54.4765E-03
            1880            2513     57.7458E-03     54.0154E-03
            1881             174     29.3164E-03     26.8187E-03
            1881             175     29.8140E-03     26.9952E-03
            1881            2513     57.7458E-03     54.0154E-03
            1881            2514     56.8836E-03     53.5858E-03
            1882             173     28.9080E-03     26.7415E-03
            1882             174     29.3164E-03     26.8187E-03
            1882            2514     56.8836E-03     53.5858E-03
            1882            2515     56.1051E-03     53.2453E-03
            1883             172     28.4965E-03     26.6550E-03
            1883             173     28.9080E-03     26.7415E-03
            1883            2515     56.1051E-03     53.2453E-03
            1883            2516     55.3829E-03     52.9716E-03
            1884             171     28.0917E-03     26.6970E-03
            1884             172     28.4965E-03     26.6550E-03
            1884            2516     55.3829E-03     52.9716E-03
            1884            2517     54.7466E-03     52.8115E-03
            1885             170     27.8402E-03     26.6051E-03
            1885             171     28.0917E-03     26.6970E-03
            1885            2517     54.7466E-03     52.8115E-03
            1885            2518     54.1905E-03     52.7534E-03
            1886             169     27.4681E-03     26.6251E-03
            1886             170     27.8402E-03     26.6051E-03
            1886            2518     54.1905E-03     52.7534E-03
            1886            2519     53.7451E-03     52.8749E-03
            1887             168     25.9846E-03     27.5967E-03
            1887             169     27.4681E-03     26.6251E-03
            1887            2519     53.7451E-03     52.8749E-03
            1887            2520     53.3898E-03     53.1431E-03
            1888               1     24.8615E-03     28.4172E-03
            1888             167     53.2435E-03     53.2820E-03
            1888             168     25.9846E-03     27.5967E-03
            1888            2520     53.3898E-03     53.1431E-03
            1889             243     13.8314E-03     29.3308E-03
            1889             244     37.0828E-03     35.6952E-03
            1889            2506     32.9679E-03     37.9366E-03
            1889            2521     46.5990E-03     47.5937E-03
            1890            2506     32.9679E-03     37.9366E-03
            1890            2507     57.1556E-03     51.0272E-03
            1890            2521     46.5990E-03     47.5937E-03
            1890            2522     60.3320E-03     61.1366E-03
            1891            2507     57.1556E-03     51.0272E-03
            1891            2508     62.3628E-03     56.2721E-03
            1891            2522     60.3320E-03     61.1366E-03
            1891            2523     61.6655E-03     61.1825E-03
            1892            2508     62.3628E-03     56.2721E-03
            1892            2509     61.7413E-03     56.4157E-03
            1892            2523     61.6655E-03     61.1825E-03
            1892            2524     58.5139E-03     58.9768E-03
            1893            2509     61.7413E-03     56.4157E-03
            1893            2510     60.5743E-03     55.6082E-03
            1893            2524     58.5139E-03     58.9768E-03
            1893            2525     57.2269E-03     57.4150E-03
            1894            2510     60.5743E-03     55.6082E-03
            1894            2511     59.5861E-03     55.0508E-03
            1894            2525     57.2269E-03     57.4150E-03
            1894            2526     55.9336E-03     56.1676E-03
            1895            2511     59.5861E-03     55.0508E-03
            1895            2512     58.6113E-03     54.4765E-03
            1895            2526     55.9336E-03     56.1676E-03
            1895            2527     55.1053E-03     55.3327E-03
            1896            2512     58.6113E-03     54.4765E-03
            1896            2513     57.7458E-03     54.0154E-03
            1896            2527     55.1053E-03     55.3327E-03
            1896            2528     54.2650E-03     54.4805E-03
            1897            2513     57.7458E-03     54.0154E-03
            1897            2514     56.8836E-03     53.5858E-03
            1897            2528     54.2650E-03     54.4805E-03
            1897            2529     53.5978E-03     53.7841E-03
            1898            2514     56.8836E-03     53.5858E-03
            1898            2515     56.1051E-03     53.2453E-03
            1898            2529     53.5978E-03     53.7841E-03
            1898            2530     52.9587E-03     53.1386E-03
            1899            2515     56.1051E-03     53.2453E-03
            1899            2516     55.3829E-03     52.9716E-03
            1899            2530     52.9587E-03     53.1386E-03
            1899            2531     52.4312E-03     52.6234E-03
            1900            2516     55.3829E-03     52.9716E-03
            1900            2517     54.7466E-03     52.8115E-03
            1900            2531     52.4312E-03     52.6234E-03
            1900            2532     52.1018E-03     52.0714E-03
            1901            2517     54.7466E-03     52.8115E-03
            1901            2518     54.1905E-03     52.7534E-03
            1901            2532     52.1018E-03     52.0714E-03
            1901            2533     51.6188E-03     52.0099E-03
            1902            2518     54.1905E-03     52.7534E-03
            1902            2519     53.7451E-03     52.8749E-03
            1902            2533     51.6188E-03     52.0099E-03
            1902            2534     51.6183E-03     52.1175E-03
            1903            2519     53.7451E-03     52.8749E-03
            1903            2520     53.3898E-03     53.1431E-03
            1903            2534     51.6183E-03     52.1175E-03
            1903            2535     54.0368E-03     50.2216E-03
            1904             166     56.0330E-03     48.4529E-03
            1904             167     53.2435E-03     53.2820E-03
            1904            2520     53.3898E-03     53.1431E-03
            1904            2535     54.0368E-03     50.2216E-03
            1905             244     37.0828E-03     35.6952E-03
            1905             245     72.5441E-03     78.2088E-03
            1905            2521     46.5990E-03     47.5937E-03
            1905            2536     64.7649E-03     71.8491E-03
            1906            2521     46.5990E-03     47.5937E-03
            1906            2522     60.3320E-03     61.1366E-03
            1906            2536     64.7649E-03     71.8491E-03
            1906            2537     56.0989E-03     63.7676E-03
            1907            2522     60.3320E-03     61.1366E-03
            1907            2523     61.6655E-03     61.1825E-03
            1907            2537     56.0989E-03     63.7676E-03
            1907            2538     55.9364E-03     62.1565E-03
            1908            2523     61.6655E-03     61.1825E-03
            1908            2524     58.5139E-03     58.9768E-03
            1908            2538     55.9364E-03     62.1565E-03
            1908            2539     55.2888E-03     60.9703E-03
            1909            2524     58.5139E-03     58.9768E-03
            1909            2525     57.2269E-03     57.4150E-03
            1909            2539     55.2888E-03     60.9703E-03
            1909            2540     53.7206E-03     59.2569E-03
            1910            2525     57.2269E-03     57.4150E-03
            1910            2526     55.9336E-03     56.1676E-03
            1910            2540     53.7206E-03     59.2569E-03
            1910            2541     52.8557E-03     57.9848E-03
            1911            2526     55.9336E-03     56.1676E-03
            1911            2527     55.1053E-03     55.3327E-03
            1911            2541     52.8557E-03     57.9848E-03
            1911            2542     51.9419E-03     56.6851E-03
            1912            2527     55.1053E-03     55.3327E-03
            1912            2528     54.2650E-03     54.4805E-03
            1912            2542     51.9419E-03     56.6851E-03
            1912            2543     51.3351E-03     55.6345E-03
            1913            2528     54.2650E-03     54.4805E-03
            1913            2529     53.5978E-03     53.7841E-03
            1913            2543     51.3351E-03     55.6345E-03
            1913            2544     50.7811E-03     54.6074E-03
            1914            2529     53.5978E-03     53.7841E-03
            1914            2530     52.9587E-03     53.1386E-03
            1914            2544     50.7811E-03     54.6074E-03
            1914            2545     50.3913E-03     53.7258E-03
            1915            2530     52.9587E-03     53.1386E-03
            1915            2531     52.4312E-03     52.6234E-03
            1915            2545     50.3913E-03     53.7258E-03
            1915            2546     50.0884E-03     52.9145E-03
            1916            2531     52.4312E-03     52.6234E-03
            1916            2532     52.1018E-03     52.0714E-03
            1916            2546     50.0884E-03     52.9145E-03
            1916            2547     49.9226E-03     52.2129E-03
            1917            2532     52.1018E-03     52.0714E-03
            1917            2533     51.6188E-03     52.0099E-03
            1917            2547     49.9226E-03     52.2129E-03
            1917            2548     49.8941E-03     51.6371E-03
            1918            2533     51.6188E-03     52.0099E-03
            1918            2534     51.6183E-03     52.1175E-03
            1918            2548     49.8941E-03     51.6371E-03
            1918            2549     50.0152E-03     51.1761E-03
            1919            2534     51.6183E-03     52.1175E-03
            1919            2535     54.0368E-03     50.2216E-03
            1919            2549     50.0152E-03     51.1761E-03
            1919            2550     50.3235E-03     50.5094E-03
            1920             165     50.5425E-03     50.0789E-03
            1920             166     56.0330E-03     48.4529E-03
            1920            2535     54.0368E-03     50.2216E-03
            1920            2550     50.3235E-03     50.5094E-03
            1921             245     72.5441E-03     78.2088E-03
            1921             246     68.3469E-03     73.6520E-03
            1921            2536     64.7649E-03     71.8491E-03
            1921            2551     70.4808E-03     71.2504E-03
            1922            2536     64.7649E-03     71.8491E-03
            1922            2537     56.0989E-03     63.7676E-03
            1922            2551     70.4808E-03     71.2504E-03
            1922            2552     74.3669E-03     71.7521E-03
            1923            2537     56.0989E-03     63.7676E-03
            1923            2538     55.9364E-03     62.1565E-03
            1923            2552     74.3669E-03     71.7521E-03
            1923            2553     79.7502E-03     77.8850E-03
            1924            2538     55.9364E-03     62.1565E-03
            1924            2539     55.2888E-03     60.9703E-03
            1924            2553     79.7502E-03     77.8850E-03
            1924            2554     82.9609E-03     81.5324E-03
            1925            2539     55.2888E-03     60.9703E-03
            1925            2540     53.7206E-03     59.2569E-03
            1925            2554     82.9609E-03     81.5324E-03
            1925            2555     82.9244E-03     82.3368E-03
            1926            2540     53.7206E-03     59.2569E-03
            1926            2541     52.8557E-03     57.9848E-03
            1926            2555     82.9244E-03     82.3368E-03
            1926            2556     82.2139E-03     81.9427E-03
            1927            2541     52.8557E-03     57.9848E-03
            1927            2542     51.9419E-03     56.6851E-03
            1927            2556     82.2139E-03     81.9427E-03
            1927            2557     80.5163E-03     80.5184E-03
            1928            2542     51.9419E-03     56.6851E-03
            1928            2543     51.3351E-03     55.6345E-03
            1928            2557     80.5163E-03     80.5184E-03
            1928            2558     78.6045E-03     78.6626E-03
            1929            2543     51.3351E-03     55.6345E-03
            1929            2544     50.7811E-03     54.6074E-03
            1929            2558     78.6045E-03     78.6626E-03
            1929            2559     76.3628E-03     76.4669E-03
            1930            2544     50.7811E-03     54.6074E-03
            1930            2545     50.3913E-03     53.7258E-03
            1930            2559     76.3628E-03     76.4669E-03
            1930            2560     74.1780E-03     74.2472E-03
            1931            2545     50.3913E-03     53.7258E-03
            1931            2546     50.0884E-03     52.9145E-03
            1931            2560     74.1780E-03     74.2472E-03
            1931            2561     72.0231E-03     72.0240E-03
            1932            2546     50.0884E-03     52.9145E-03
            1932            2547     49.9226E-03     52.2129E-03
            1932            2561     72.0231E-03     72.0240E-03
            1932            2562     70.0513E-03     70.1964E-03
            1933            2547     49.9226E-03     52.2129E-03
            1933            2548     49.8941E-03     51.6371E-03
            1933            2562     70.0513E-03     70.1964E-03
            1933            2563     68.4111E-03     68.4021E-03
            1934            2548     49.8941E-03     51.6371E-03
            1934            2549     50.0152E-03     51.1761E-03
            1934            2563     68.4111E-03     68.4021E-03
            1934            2564     66.9014E-03     67.4360E-03
            1935            2549     50.0152E-03     51.1761E-03
            1935            2550     50.3235E-03     50.5094E-03
            1935            2564     66.9014E-03     67.4360E-03
            1935            2565     62.9425E-03     68.9479E-03
            1936             164     59.9221E-03     70.4722E-03
            1936             165     50.5425E-03     50.0789E-03
            1936            2550     50.3235E-03     50.5094E-03
            1936            2565     62.9425E-03     68.9479E-03
            1937             246     68.3469E-03     73.6520E-03
            1937             247     65.8324E-03     60.3258E-03
            1937            2551     70.4808E-03     71.2504E-03
            1937            2566     78.6186E-03     70.7179E-03
            1938            2551     70.4808E-03     71.2504E-03
            1938            2552     74.3669E-03     71.7521E-03
            1938            2566     78.6186E-03     70.7179E-03
            1938            2567     100.148E-03     89.7300E-03
            1939            2552     74.3669E-03     71.7521E-03
            1939            2553     79.7502E-03     77.8850E-03
            1939            2567     100.148E-03     89.7300E-03
            1939            2568     112.209E-03     102.295E-03
            1940            2553     79.7502E-03     77.8850E-03
            1940            2554     82.9609E-03     81.5324E-03
            1940            2568     112.209E-03     102.295E-03
            1940            2569     116.672E-03     107.772E-03
            1941            2554     82.9609E-03     81.5324E-03
            1941            2555     82.9244E-03     82.3368E-03
            1941            2569     116.672E-03     107.772E-03
            1941            2570     117.196E-03     109.323E-03
            1942            2555     82.9244E-03     82.3368E-03
            1942            2556     82.2139E-03     81.9427E-03
            1942            2570     117.196E-03     109.323E-03
            1942            2571     115.204E-03     108.252E-03
            1943            2556     82.2139E-03     81.9427E-03
            1943            2557     80.5163E-03     80.5184E-03
            1943            2571     115.204E-03     108.252E-03
            1943            2572     111.740E-03     105.546E-03
            1944            2557     80.5163E-03     80.5184E-03
            1944            2558     78.6045E-03     78.6626E-03
            1944            2572     111.740E-03     105.546E-03
            1944            2573     107.389E-03     101.903E-03
            1945            2558     78.6045E-03     78.6626E-03
            1945            2559     76.3628E-03     76.4669E-03
            1945            2573     107.389E-03     101.903E-03
            1945            2574     102.646E-03     97.7737E-03
            1946            2559     76.3628E-03     76.4669E-03
            1946            2560     74.1780E-03     74.2472E-03
            1946            2574     102.646E-03     97.7737E-03
            1946            2575     97.8153E-03     93.5756E-03
            1947            2560     74.1780E-03     74.2472E-03
            1947            2561     72.0231E-03     72.0240E-03
            1947            2575     97.8153E-03     93.5756E-03
            1947            2576     93.1296E-03     89.5893E-03
            1948            2561     72.0231E-03     72.0240E-03
            1948            2562     70.0513E-03     70.1964E-03
            1948            2576     93.1296E-03     89.5893E-03
            1948            2577     88.7858E-03     86.1683E-03
            1949            2562     70.0513E-03     70.1964E-03
            1949            2563     68.4111E-03     68.4021E-03
            1949            2577     88.7858E-03     86.1683E-03
            1949            2578     84.7937E-03     83.5169E-03
            1950            2563     68.4111E-03     68.4021E-03
            1950            2564     66.9014E-03     67.4360E-03
            1950            2578     84.7937E-03     83.5169E-03
            1950            2579     80.8100E-03     82.7314E-03
            1951            2564     66.9014E-03     67.4360E-03
            1951            2565     62.9425E-03     68.9479E-03
            1951            2579     80.8100E-03     82.7314E-03
            1951            2580     77.6331E-03     83.9127E-03
            1952             163     76.4522E-03     84.7560E-03
            1952             164     59.9221E-03     70.4722E-03
            1952            2565     62.9425E-03     68.9479E-03
            1952            2580     77.6331E-03     83.9127E-03
            1953             247     65.8324E-03     60.3258E-03
            1953             248     95.6904E-03     93.9945E-03
            1953            2566     78.6186E-03     70.7179E-03
            1953            2581     97.4603E-03     97.0463E-03
            1954            2566     78.6186E-03     70.7179E-03
            1954            2567     100.148E-03     89.7300E-03
            1954            2581     97.4603E-03     97.0463E-03
            1954            2582     108.512E-03     107.500E-03
            1955            2567     100.148E-03     89.7300E-03
            1955            2568     112.209E-03     102.295E-03
            1955            2582     108.512E-03     107.500E-03
            1955            2583     120.847E-03     117.273E-03
            1956            2568     112.209E-03     102.295E-03
            1956            2569     116.672E-03     107.772E-03
            1956            2583     120.847E-03     117.273E-03
            1956            2584     124.237E-03     119.858E-03
            1957            2569     116.672E-03     107.772E-03
            1957            2570     117.196E-03     109.323E-03
            1957            2584     124.237E-03     119.858E-03
            1957            2585     123.172E-03     118.564E-03
            1958            2570     117.196E-03     109.323E-03
            1958            2571     115.204E-03     108.252E-03
            1958            2585     123.172E-03     118.564E-03
            1958            2586     119.272E-03     114.782E-03
            1959            2571     115.204E-03     108.252E-03
            1959            2572     111.740E-03     105.546E-03
            1959            2586     119.272E-03     114.782E-03
            1959            2587     113.900E-03     109.720E-03
            1960            2572     111.740E-03     105.546E-03
            1960            2573     107.389E-03     101.903E-03
            1960            2587     113.900E-03     109.720E-03
            1960            2588     107.864E-03     104.001E-03
            1961            2573     107.389E-03     101.903E-03
            1961            2574     102.646E-03     97.7737E-03
            1961            2588     107.864E-03     104.001E-03
            1961            2589     101.603E-03     98.1651E-03
            1962            2574     102.646E-03     97.7737E-03
            1962            2575     97.8153E-03     93.5756E-03
            1962            2589     101.603E-03     98.1651E-03
            1962            2590     95.5079E-03     92.5226E-03
            1963            2575     97.8153E-03     93.5756E-03
            1963            2576     93.1296E-03     89.5893E-03
            1963            2590     95.5079E-03     92.5226E-03
            1963            2591     89.7251E-03     87.4238E-03
            1964            2576     93.1296E-03     89.5893E-03
            1964            2577     88.7858E-03     86.1683E-03
            1964            2591     89.7251E-03     87.4238E-03
            1964            2592     84.4752E-03     83.0794E-03
            1965            2577     88.7858E-03     86.1683E-03
            1965            2578     84.7937E-03     83.5169E-03
            1965            2592     84.4752E-03     83.0794E-03
            1965            2593     79.6512E-03     80.0199E-03
            1966            2578     84.7937E-03     83.5169E-03
            1966            2579     80.8100E-03     82.7314E-03
            1966            2593     79.6512E-03     80.0199E-03
            1966            2594     75.8662E-03     78.4491E-03
            1967            2579     80.8100E-03     82.7314E-03
            1967            2580     77.6331E-03     83.9127E-03
            1967            2594     75.8662E-03     78.4491E-03
            1967            2595     75.0966E-03     76.2713E-03
            1968             162     75.7517E-03     74.5874E-03
            1968             163     76.4522E-03     84.7560E-03
            1968            2580     77.6331E-03     83.9127E-03
            1968            2595     75.0966E-03     76.2713E-03
            1969             248     95.6904E-03     93.9945E-03
            1969             249     123.149E-03     121.546E-03
            1969            2581     97.4603E-03     97.0463E-03
            1969            2596     120.619E-03     120.948E-03
            1970            2581     97.4603E-03     97.0463E-03
            1970            2582     108.512E-03     107.500E-03
            1970            2596     120.619E-03     120.948E-03
            1970            2597     121.578E-03     123.937E-03
            1971            2582     108.512E-03     107.500E-03
            1971            2583     120.847E-03     117.273E-03
            1971            2597     121.578E-03     123.937E-03
            1971            2598     127.911E-03     129.190E-03
            1972            2583     120.847E-03     117.273E-03
            1972            2584     124.237E-03     119.858E-03
            1972            2598     127.911E-03     129.190E-03
            1972            2599     130.238E-03     129.753E-03
            1973            2584     124.237E-03     119.858E-03
            1973            2585     123.172E-03     118.564E-03
            1973            2599     130.238E-03     129.753E-03
            1973            2600     127.535E-03     126.207E-03
            1974            2585     123.172E-03     118.564E-03
            1974            2586     119.272E-03     114.782E-03
            1974            2600     127.535E-03     126.207E-03
            1974            2601     122.205E-03     120.444E-03
            1975            2586     119.272E-03     114.782E-03
            1975            2587     113.900E-03     109.720E-03
            1975            2601     122.205E-03     120.444E-03
            1975            2602     115.397E-03     113.462E-03
            1976            2587     113.900E-03     109.720E-03
            1976            2588     107.864E-03     104.001E-03
            1976            2602     115.397E-03     113.462E-03
            1976            2603     107.978E-03     106.095E-03
            1977            2588     107.864E-03     104.001E-03
            1977            2589     101.603E-03     98.1651E-03
            1977            2603     107.978E-03     106.095E-03
            1977            2604     100.548E-03     98.7910E-03
            1978            2589     101.603E-03     98.1651E-03
            1978            2590     95.5079E-03     92.5226E-03
            1978            2604     100.548E-03     98.7910E-03
            1978            2605     93.3599E-03     91.8924E-03
            1979            2590     95.5079E-03     92.5226E-03
            1979            2591     89.7251E-03     87.4238E-03
            1979            2605     93.3599E-03     91.8924E-03
            1979            2606     86.7147E-03     85.6648E-03
            1980            2591     89.7251E-03     87.4238E-03
            1980            2592     84.4752E-03     83.0794E-03
            1980            2606     86.7147E-03     85.6648E-03
            1980            2607     80.7175E-03     80.3518E-03
            1981            2592     84.4752E-03     83.0794E-03
            1981            2593     79.6512E-03     80.0199E-03
            1981            2607     80.7175E-03     80.3518E-03
            1981            2608     75.7094E-03     76.2339E-03
            1982            2593     79.6512E-03     80.0199E-03
            1982            2594     75.8662E-03     78.4491E-03
            1982            2608     75.7094E-03     76.2339E-03
            1982            2609     72.6444E-03     72.5316E-03
            1983            2594     75.8662E-03     78.4491E-03
            1983            2595     75.0966E-03     76.2713E-03
            1983            2609     72.6444E-03     72.5316E-03
            1983            2610     71.0579E-03     69.0695E-03
            1984             161     70.3921E-03     67.5781E-03
            1984             162     75.7517E-03     74.5874E-03
            1984            2595     75.0966E-03     76.2713E-03
            1984            2610     71.0579E-03     69.0695E-03
            1985             249     123.149E-03     121.546E-03
            1985             250     147.109E-03     146.672E-03
            1985            2596     120.619E-03     120.948E-03
            1985            2611     142.297E-03     143.363E-03
            1986            2596     120.619E-03     120.948E-03
            1986            2597     121.578E-03     123.937E-03
            1986            2611     142.297E-03     143.363E-03
            1986            2612     136.976E-03     140.055E-03
            1987            2597     121.578E-03     123.937E-03
            1987            2598     127.911E-03     129.190E-03
            1987            2612     136.976E-03     140.055E-03
            1987            2613     136.448E-03     139.739E-03
            1988            2598     127.911E-03     129.190E-03
            1988            2599     130.238E-03     129.753E-03
            1988            2613     136.448E-03     139.739E-03
            1988            2614     134.887E-03     137.311E-03
            1989            2599     130.238E-03     129.753E-03
            1989            2600     127.535E-03     126.207E-03
            1989            2614     134.887E-03     137.311E-03
            1989            2615     130.370E-03     131.794E-03
            1990            2600     127.535E-03     126.207E-03
            1990            2601     122.205E-03     120.444E-03
            1990            2615     130.370E-03     131.794E-03
            1990            2616     123.543E-03     124.277E-03
            1991            2601     122.205E-03     120.444E-03
            1991            2602     115.397E-03     113.462E-03
            1991            2616     123.543E-03     124.277E-03
            1991            2617     115.529E-03     115.887E-03
            1992            2602     115.397E-03     113.462E-03
            1992            2603     107.978E-03     106.095E-03
            1992            2617     115.529E-03     115.887E-03
            1992            2618     107.171E-03     107.303E-03
            1993            2603     107.978E-03     106.095E-03
            1993            2604     100.548E-03     98.7910E-03
            1993            2618     107.171E-03     107.303E-03
            1993            2619     98.8536E-03     98.9117E-03
            1994            2604     100.548E-03     98.7910E-03
            1994            2605     93.3599E-03     91.8924E-03
            1994            2619     98.8536E-03     98.9117E-03
            1994            2620     90.9497E-03     91.0338E-03
            1995            2605     93.3599E-03     91.8924E-03
            1995            2606     86.7147E-03     85.6648E-03
            1995            2620     90.9497E-03     91.0338E-03
            1995            2621     83.6630E-03     83.8258E-03
            1996            2606     86.7147E-03     85.6648E-03
            1996            2607     80.7175E-03     80.3518E-03
            1996            2621     83.6630E-03     83.8258E-03
            1996            2622     77.2467E-03     77.5630E-03
            1997            2607     80.7175E-03     80.3518E-03
            1997            2608     75.7094E-03     76.2339E-03
            1997            2622     77.2467E-03     77.5630E-03
            1997            2623     72.2435E-03     72.0676E-03
            1998            2608     75.7094E-03     76.2339E-03
            1998            2609     72.6444E-03     72.5316E-03
            1998            2623     72.2435E-03     72.0676E-03
            1998            2624     68.6854E-03     67.3705E-03
            1999            2609     72.6444E-03     72.5316E-03
            1999            2610     71.0579E-03     69.0695E-03
            1999            2624     68.6854E-03     67.3705E-03
            1999            2625     66.7465E-03     64.3746E-03
            2000             160     66.2740E-03     63.4264E-03
            2000             161     70.3921E-03     67.5781E-03
            2000            2610     71.0579E-03     69.0695E-03
            2000            2625     66.7465E-03     64.3746E-03
            2001             250     147.109E-03     146.672E-03
            2001             251     169.327E-03     170.622E-03
            2001            2611     142.297E-03     143.363E-03
            2001            2626     162.779E-03     164.563E-03
            2002            2611     142.297E-03     143.363E-03
            2002            2612     136.976E-03     140.055E-03
            2002            2626     162.779E-03     164.563E-03
            2002            2627     152.447E-03     155.597E-03
            2003            2612     136.976E-03     140.055E-03
            2003            2613     136.448E-03     139.739E-03
            2003            2627     152.447E-03     155.597E-03
            2003            2628     145.490E-03     149.741E-03
            2004            2613     136.448E-03     139.739E-03
            2004            2614     134.887E-03     137.311E-03
            2004            2628     145.490E-03     149.741E-03
            2004            2629     139.101E-03     143.250E-03
            2005            2614     134.887E-03     137.311E-03
            2005            2615     130.370E-03     131.794E-03
            2005            2629     139.101E-03     143.250E-03
            2005            2630     131.726E-03     135.197E-03
            2006            2615     130.370E-03     131.794E-03
            2006            2616     123.543E-03     124.277E-03
            2006            2630     131.726E-03     135.197E-03
            2006            2631     123.138E-03     126.068E-03
            2007            2616     123.543E-03     124.277E-03
            2007            2617     115.529E-03     115.887E-03
            2007            2631     123.138E-03     126.068E-03
            2007            2632     114.191E-03     116.641E-03
            2008            2617     115.529E-03     115.887E-03
            2008            2618     107.171E-03     107.303E-03
            2008            2632     114.191E-03     116.641E-03
            2008            2633     105.114E-03     107.203E-03
            2009            2618     107.171E-03     107.303E-03
            2009            2619     98.8536E-03     98.9117E-03
            2009            2633     105.114E-03     107.203E-03
            2009            2634     96.2842E-03     98.1343E-03
            2010            2619     98.8536E-03     98.9117E-03
            2010            2620     90.9497E-03     91.0338E-03
            2010            2634     96.2842E-03     98.1343E-03
            2010            2635     87.9208E-03     89.5498E-03
            2011            2620     90.9497E-03     91.0338E-03
            2011            2621     83.6630E-03     83.8258E-03
            2011            2635     87.9208E-03     89.5498E-03
            2011            2636     80.2528E-03     81.6656E-03
            2012            2621     83.6630E-03     83.8258E-03
            2012            2622     77.2467E-03     77.5630E-03
            2012            2636     80.2528E-03     81.6656E-03
            2012            2637     73.6496E-03     74.4769E-03
            2013            2622     77.2467E-03     77.5630E-03
            2013            2623     72.2435E-03     72.0676E-03
            2013            2637     73.6496E-03     74.4769E-03
            2013            2638     68.2688E-03     68.1569E-03
            2014            2623     72.2435E-03     72.0676E-03
            2014            2624     68.6854E-03     67.3705E-03
            2014            2638     68.2688E-03     68.1569E-03
            2014            2639     64.5265E-03     63.1034E-03
            2015            2624     68.6854E-03     67.3705E-03
            2015            2625     66.7465E-03     64.3746E-03
            2015            2639     64.5265E-03     63.1034E-03
            2015            2640     62.4451E-03     59.2881E-03
            2016             159     61.7518E-03     57.6552E-03
            2016             160     66.2740E-03     63.4264E-03
            2016            2625     66.7465E-03     64.3746E-03
            2016            2640     62.4451E-03     59.2881E-03
            2017             251     169.327E-03     170.622E-03
            2017             252     192.950E-03     192.760E-03
            2017            2626     162.779E-03     164.563E-03
            2017            2641     183.533E-03     185.008E-03
            2018            2626     162.779E-03     164.563E-03
            2018            2627     152.447E-03     155.597E-03
            2018            2641     183.533E-03     185.008E-03
            2018            2642     166.879E-03     170.761E-03
            2019            2627     152.447E-03     155.597E-03
            2019            2628     145.490E-03     149.741E-03
            2019            2642     166.879E-03     170.761E-03
            2019            2643     153.920E-03     158.712E-03
            2020            2628     145.490E-03     149.741E-03
            2020            2629     139.101E-03     143.250E-03
            2020            2643     153.920E-03     158.712E-03
            2020            2644     142.268E-03     147.353E-03
            2021            2629     139.101E-03     143.250E-03
            2021            2630     131.726E-03     135.197E-03
            2021            2644     142.268E-03     147.353E-03
            2021            2645     131.232E-03     136.389E-03
            2022            2630     131.726E-03     135.197E-03
            2022            2631     123.138E-03     126.068E-03
            2022            2645     131.232E-03     136.389E-03
            2022            2646     121.200E-03     125.952E-03
            2023            2631     123.138E-03     126.068E-03
            2023            2632     114.191E-03     116.641E-03
            2023            2646     121.200E-03     125.952E-03
            2023            2647     111.364E-03     115.667E-03
            2024            2632     114.191E-03     116.641E-03
            2024            2633     105.114E-03     107.203E-03
            2024            2647     111.364E-03     115.667E-03
            2024            2648     101.861E-03     105.807E-03
            2025            2633     105.114E-03     107.203E-03
            2025            2634     96.2842E-03     98.1343E-03
            2025            2648     101.861E-03     105.807E-03
            2025            2649     92.7598E-03     96.3292E-03
            2026            2634     96.2842E-03     98.1343E-03
            2026            2635     87.9208E-03     89.5498E-03
            2026            2649     92.7598E-03     96.3292E-03
            2026            2650     84.1593E-03     87.3792E-03
            2027            2635     87.9208E-03     89.5498E-03
            2027            2636     80.2528E-03     81.6656E-03
            2027            2650     84.1593E-03     87.3792E-03
            2027            2651     76.3025E-03     79.0141E-03
            2028            2636     80.2528E-03     81.6656E-03
            2028            2637     73.6496E-03     74.4769E-03
            2028            2651     76.3025E-03     79.0141E-03
            2028            2652     69.4147E-03     71.3292E-03
            2029            2637     73.6496E-03     74.4769E-03
            2029            2638     68.2688E-03     68.1569E-03
            2029            2652     69.4147E-03     71.3292E-03
            2029            2653     63.9290E-03     64.4559E-03
            2030            2638     68.2688E-03     68.1569E-03
            2030            2639     64.5265E-03     63.1034E-03
            2030            2653     63.9290E-03     64.4559E-03
            2030            2654     59.9199E-03     58.7100E-03
            2031            2639     64.5265E-03     63.1034E-03
            2031            2640     62.4451E-03     59.2881E-03
            2031            2654     59.9199E-03     58.7100E-03
            2031            2655     57.5958E-03     54.9078E-03
            2032             158     56.9168E-03     53.6263E-03
            2032             159     61.7518E-03     57.6552E-03
            2032            2640     62.4451E-03     59.2881E-03
            2032            2655     57.5958E-03     54.9078E-03
            2033             252     192.950E-03     192.760E-03
            2033             253     214.820E-03     219.162E-03
            2033            2641     183.533E-03     185.008E-03
            2033            2656     203.222E-03     206.839E-03
            2034            2641     183.533E-03     185.008E-03
            2034            2642     166.879E-03     170.761E-03
            2034            2656     203.222E-03     206.839E-03
            2034            2657     180.908E-03     184.466E-03
            2035            2642     166.879E-03     170.761E-03
            2035            2643     153.920E-03     158.712E-03
            2035            2657     180.908E-03     184.466E-03
            2035            2658     159.861E-03     164.962E-03
            2036            2643     153.920E-03     158.712E-03
            2036            2644     142.268E-03     147.353E-03
            2036            2658     159.861E-03     164.962E-03
            2036            2659     142.308E-03     148.671E-03
            2037            2644     142.268E-03     147.353E-03
            2037            2645     131.232E-03     136.389E-03
            2037            2659     142.308E-03     148.671E-03
            2037            2660     129.163E-03     135.666E-03
            2038            2645     131.232E-03     136.389E-03
            2038            2646     121.200E-03     125.952E-03
            2038            2660     129.163E-03     135.666E-03
            2038            2661     117.737E-03     124.006E-03
            2039            2646     121.200E-03     125.952E-03
            2039            2647     111.364E-03     115.667E-03
            2039            2661     117.737E-03     124.006E-03
            2039            2662     107.345E-03     113.359E-03
            2040            2647     111.364E-03     115.667E-03
            2040            2648     101.861E-03     105.807E-03
            2040            2662     107.345E-03     113.359E-03
            2040            2663     97.6401E-03     103.275E-03
            2041            2648     101.861E-03     105.807E-03
            2041            2649     92.7598E-03     96.3292E-03
            2041            2663     97.6401E-03     103.275E-03
            2041            2664     88.3997E-03     93.6957E-03
            2042            2649     92.7598E-03     96.3292E-03
            2042            2650     84.1593E-03     87.3792E-03
            2042            2664     88.3997E-03     93.6957E-03
            2042            2665     79.7349E-03     84.5888E-03
            2043            2650     84.1593E-03     87.3792E-03
            2043            2651     76.3025E-03     79.0141E-03
            2043            2665     79.7349E-03     84.5888E-03
            2043            2666     71.7195E-03     75.9745E-03
            2044            2651     76.3025E-03     79.0141E-03
            2044            2652     69.4147E-03     71.3292E-03
            2044            2666     71.7195E-03     75.9745E-03
            2044            2667     64.6132E-03     68.0576E-03
            2045            2652     69.4147E-03     71.3292E-03
            2045            2653     63.9290E-03     64.4559E-03
            2045            2667     64.6132E-03     68.0576E-03
            2045            2668     58.7922E-03     60.9029E-03
            2046            2653     63.9290E-03     64.4559E-03
            2046            2654     59.9199E-03     58.7100E-03
            2046            2668     58.7922E-03     60.9029E-03
            2046            2669     54.8130E-03     54.6770E-03
            2047            2654     59.9199E-03     58.7100E-03
            2047            2655     57.5958E-03     54.9078E-03
            2047            2669     54.8130E-03     54.6770E-03
            2047            2670     52.5050E-03     50.0817E-03
            2048             157     51.6867E-03     48.3162E-03
            2048             158     56.9168E-03     53.6263E-03
            2048            2655     57.5958E-03     54.9078E-03
            2048            2670     52.5050E-03     50.0817E-03
            2049             253     214.820E-03     219.162E-03
            2049             254     242.412E-03     240.861E-03
            2049            2656     203.222E-03     206.839E-03
            2049            2671     225.324E-03     225.784E-03
            2050            2656     203.222E-03     206.839E-03
            2050            2657     180.908E-03     184.466E-03
            2050            2671     225.324E-03     225.784E-03
            2050            2672     189.512E-03     193.829E-03
            2051            2657     180.908E-03     184.466E-03
            2051            2658     159.861E-03     164.962E-03
            2051            2672     189.512E-03     193.829E-03
            2051            2673     159.304E-03     166.193E-03
            2052            2658     159.861E-03     164.962E-03
            2052            2659     142.308E-03     148.671E-03
            2052            2673     159.304E-03     166.193E-03
            2052            2674     139.980E-03     147.532E-03
            2053            2659     142.308E-03     148.671E-03
            2053            2660     129.163E-03     135.666E-03
            2053            2674     139.980E-03     147.532E-03
            2053            2675     125.412E-03     133.047E-03
            2054            2660     129.163E-03     135.666E-03
            2054            2661     117.737E-03     124.006E-03
            2054            2675     125.412E-03     133.047E-03
            2054            2676     113.246E-03     120.928E-03
            2055            2661     117.737E-03     124.006E-03
            2055            2662     107.345E-03     113.359E-03
            2055            2676     113.246E-03     120.928E-03
            2055            2677     102.635E-03     110.149E-03
            2056            2662     107.345E-03     113.359E-03
            2056            2663     97.6401E-03     103.275E-03
            2056            2677     102.635E-03     110.149E-03
            2056            2678     92.7693E-03     100.095E-03
            2057            2663     97.6401E-03     103.275E-03
            2057            2664     88.3997E-03     93.6957E-03
            2057            2678     92.7693E-03     100.095E-03
            2057            2679     83.5390E-03     90.5617E-03
            2058            2664     88.3997E-03     93.6957E-03
            2058            2665     79.7349E-03     84.5888E-03
            2058            2679     83.5390E-03     90.5617E-03
            2058            2680     74.7889E-03     81.4033E-03
            2059            2665     79.7349E-03     84.5888E-03
            2059            2666     71.7195E-03     75.9745E-03
            2059            2680     74.7889E-03     81.4033E-03
            2059            2681     66.6619E-03     72.7261E-03
            2060            2666     71.7195E-03     75.9745E-03
            2060            2667     64.6132E-03     68.0576E-03
            2060            2681     66.6619E-03     72.7261E-03
            2060            2682     59.3346E-03     64.5556E-03
            2061            2667     64.6132E-03     68.0576E-03
            2061            2668     58.7922E-03     60.9029E-03
            2061            2682     59.3346E-03     64.5556E-03
            2061            2683     53.0477E-03     57.3620E-03
            2062            2668     58.7922E-03     60.9029E-03
            2062            2669     54.8130E-03     54.6770E-03
            2062            2683     53.0477E-03     57.3620E-03
            2062            2684     48.5005E-03     51.2166E-03
            2063            2669     54.8130E-03     54.6770E-03
            2063            2670     52.5050E-03     50.0817E-03
            2063            2684     48.5005E-03     51.2166E-03
            2063            2685     46.5895E-03     46.0901E-03
            2064             156     46.3489E-03     43.8445E-03
            2064             157     51.6867E-03     48.3162E-03
            2064            2670     52.5050E-03     50.0817E-03
            2064            2685     46.5895E-03     46.0901E-03
            2065             254     242.412E-03     240.861E-03
            2065             255     267.720E-03     272.568E-03
            2065            2671     225.324E-03     225.784E-03
            2065            2686     236.133E-03     243.206E-03
            2066            2671     225.324E-03     225.784E-03
            2066            2672     189.512E-03     193.829E-03
            2066            2686     236.133E-03     243.206E-03
            2066            2687     185.269E-03     194.062E-03
            2067            2672     189.512E-03     193.829E-03
            2067            2673     159.304E-03     166.193E-03
            2067            2687     185.269E-03     194.062E-03
            2067            2688     155.441E-03     163.771E-03
            2068            2673     159.304E-03     166.193E-03
            2068            2674     139.980E-03     147.532E-03
            2068            2688     155.441E-03     163.771E-03
            2068            2689     136.132E-03     144.506E-03
            2069            2674     139.980E-03     147.532E-03
            2069            2675     125.412E-03     133.047E-03
            2069            2689     136.132E-03     144.506E-03
            2069            2690     120.902E-03     129.539E-03
            2070            2675     125.412E-03     133.047E-03
            2070            2676     113.246E-03     120.928E-03
            2070            2690     120.902E-03     129.539E-03
            2070            2691     108.626E-03     117.518E-03
            2071            2676     113.246E-03     120.928E-03
            2071            2677     102.635E-03     110.149E-03
            2071            2691     108.626E-03     117.518E-03
            2071            2692     97.7265E-03     106.746E-03
            2072            2677     102.635E-03     110.149E-03
            2072            2678     92.7693E-03     100.095E-03
            2072            2692     97.7265E-03     106.746E-03
            2072            2693     87.8069E-03     96.8465E-03
            2073            2678     92.7693E-03     100.095E-03
            2073            2679     83.5390E-03     90.5617E-03
            2073            2693     87.8069E-03     96.8465E-03
            2073            2694     78.4479E-03     87.3311E-03
            2074            2679     83.5390E-03     90.5617E-03
            2074            2680     74.7889E-03     81.4033E-03
            2074            2694     78.4479E-03     87.3311E-03
            2074            2695     69.6137E-03     78.1873E-03
            2075            2680     74.7889E-03     81.4033E-03
            2075            2681     66.6619E-03     72.7261E-03
            2075            2695     69.6137E-03     78.1873E-03
            2075            2696     61.3104E-03     69.3515E-03
            2076            2681     66.6619E-03     72.7261E-03
            2076            2682     59.3346E-03     64.5556E-03
            2076            2696     61.3104E-03     69.3515E-03
            2076            2697     53.7188E-03     61.0441E-03
            2077            2682     59.3346E-03     64.5556E-03
            2077            2683     53.0477E-03     57.3620E-03
            2077            2697     53.7188E-03     61.0441E-03
            2077            2698     47.1253E-03     53.4435E-03
            2078            2683     53.0477E-03     57.3620E-03
            2078            2684     48.5005E-03     51.2166E-03
            2078            2698     47.1253E-03     53.4435E-03
            2078            2699     41.7842E-03     47.3821E-03
            2079            2684     48.5005E-03     51.2166E-03
            2079            2685     46.5895E-03     46.0901E-03
            2079            2699     41.7842E-03     47.3821E-03
            2079            2700     38.7870E-03     42.9375E-03
            2080             155     38.1232E-03     40.9895E-03
            2080             156     46.3489E-03     43.8445E-03
            2080            2685     46.5895E-03     46.0901E-03
            2080            2700     38.7870E-03     42.9375E-03
            2081             255     267.720E-03     272.568E-03
            2081             256     248.883E-03     253.541E-03
            2081            2686     236.133E-03     243.206E-03
            2081            2701     234.863E-03     235.270E-03
            2082            2686     236.133E-03     243.206E-03
            2082            2687     185.269E-03     194.062E-03
            2082            2701     234.863E-03     235.270E-03
            2082            2702     213.613E-03     209.338E-03
            2083            2687     185.269E-03     194.062E-03
            2083            2688     155.441E-03     163.771E-03
            2083            2702     213.613E-03     209.338E-03
            2083            2703     199.268E-03     195.593E-03
            2084            2688     155.441E-03     163.771E-03
            2084            2689     136.132E-03     144.506E-03
            2084            2703     199.268E-03     195.593E-03
            2084            2704     186.018E-03     183.839E-03
            2085            2689     136.132E-03     144.506E-03
            2085            2690     120.902E-03     129.539E-03
            2085            2704     186.018E-03     183.839E-03
            2085            2705     173.798E-03     172.952E-03
            2086            2690     120.902E-03     129.539E-03
            2086            2691     108.626E-03     117.518E-03
            2086            2705     173.798E-03     172.952E-03
            2086            2706     161.818E-03     162.264E-03
            2087            2691     108.626E-03     117.518E-03
            2087            2692     97.7265E-03     106.746E-03
            2087            2706     161.818E-03     162.264E-03
            2087            2707     150.025E-03     151.359E-03
            2088            2692     97.7265E-03     106.746E-03
            2088            2693     87.8069E-03     96.8465E-03
            2088            2707     150.025E-03     151.359E-03
            2088            2708     138.318E-03     140.362E-03
            2089            2693     87.8069E-03     96.8465E-03
            2089            2694     78.4479E-03     87.3311E-03
            2089            2708     138.318E-03     140.362E-03
            2089            2709     126.799E-03     129.228E-03
            2090            2694     78.4479E-03     87.3311E-03
            2090            2695     69.6137E-03     78.1873E-03
            2090            2709     126.799E-03     129.228E-03
            2090            2710     115.598E-03     118.259E-03
            2091            2695     69.6137E-03     78.1873E-03
            2091            2696     61.3104E-03     69.3515E-03
            2091            2710     115.598E-03     118.259E-03
            2091            2711     104.969E-03     107.589E-03
            2092            2696     61.3104E-03     69.3515E-03
            2092            2697     53.7188E-03     61.0441E-03
            2092            2711     104.969E-03     107.589E-03
            2092            2712     95.1924E-03     97.7423E-03
            2093            2697     53.7188E-03     61.0441E-03
            2093            2698     47.1253E-03     53.4435E-03
            2093            2712     95.1924E-03     97.7423E-03
            2093            2713     86.5580E-03     88.8938E-03
            2094            2698     47.1253E-03     53.4435E-03
            2094            2699     41.7842E-03     47.3821E-03
            2094            2713     86.5580E-03     88.8938E-03
            2094            2714     79.5254E-03     82.4628E-03
            2095            2699     41.7842E-03     47.3821E-03
            2095            2700     38.7870E-03     42.9375E-03
            2095            2714     79.5254E-03     82.4628E-03
            2095            2715     71.7403E-03     80.2486E-03
            2096             154     66.9948E-03     80.1901E-03
            2096             155     38.1232E-03     40.9895E-03
            2096            2700     38.7870E-03     42.9375E-03
            2096            2715     71.7403E-03     80.2486E-03
            2097             256     248.883E-03     253.541E-03
            2097             257     240.455E-03     229.447E-03
            2097            2701     234.863E-03     235.270E-03
            2097            2716     246.523E-03     235.945E-03
            2098            2701     234.863E-03     235.270E-03
            2098            2702     213.613E-03     209.338E-03
            2098            2716     246.523E-03     235.945E-03
            2098            2717     253.894E-03     243.228E-03
            2099            2702     213.613E-03     209.338E-03
            2099            2703     199.268E-03     195.593E-03
            2099            2717     253.894E-03     243.228E-03
            2099            2718     252.414E-03     241.710E-03
            2100            2703     199.268E-03     195.593E-03
            2100            2704     186.018E-03     183.839E-03
            2100            2718     252.414E-03     241.710E-03
            2100            2719     244.948E-03     235.436E-03
            2101            2704     186.018E-03     183.839E-03
            2101            2705     173.798E-03     172.952E-03
            2101            2719     244.948E-03     235.436E-03
            2101            2720     234.262E-03     226.046E-03
            2102            2705     173.798E-03     172.952E-03
            2102            2706     161.818E-03     162.264E-03
            2102            2720     234.262E-03     226.046E-03
            2102            2721     221.426E-03     214.482E-03
            2103            2706     161.818E-03     162.264E-03
            2103            2707     150.025E-03     151.359E-03
            2103            2721     221.426E-03     214.482E-03
            2103            2722     207.338E-03     201.493E-03
            2104            2707     150.025E-03     151.359E-03
            2104            2708     138.318E-03     140.362E-03
            2104            2722     207.338E-03     201.493E-03
            2104            2723     192.572E-03     187.592E-03
            2105            2708     138.318E-03     140.362E-03
            2105            2709     126.799E-03     129.228E-03
            2105            2723     192.572E-03     187.592E-03
            2105            2724     177.581E-03     173.347E-03
            2106            2709     126.799E-03     129.228E-03
            2106            2710     115.598E-03     118.259E-03
            2106            2724     177.581E-03     173.347E-03
            2106            2725     162.856E-03     159.176E-03
            2107            2710     115.598E-03     118.259E-03
            2107            2711     104.969E-03     107.589E-03
            2107            2725     162.856E-03     159.176E-03
            2107            2726     148.709E-03     145.621E-03
            2108            2711     104.969E-03     107.589E-03
            2108            2712     95.1924E-03     97.7423E-03
            2108            2726     148.709E-03     145.621E-03
            2108            2727     135.661E-03     133.296E-03
            2109            2712     95.1924E-03     97.7423E-03
            2109            2713     86.5580E-03     88.8938E-03
            2109            2727     135.661E-03     133.296E-03
            2109            2728     123.936E-03     122.909E-03
            2110            2713     86.5580E-03     88.8938E-03
            2110            2714     79.5254E-03     82.4628E-03
            2110            2728     123.936E-03     122.909E-03
            2110            2729     113.497E-03     116.392E-03
            2111            2714     79.5254E-03     82.4628E-03
            2111            2715     71.7403E-03     80.2486E-03
            2111            2729     113.497E-03     116.392E-03
            2111            2730     105.572E-03     114.915E-03
            2112             153     102.508E-03     115.323E-03
            2112             154     66.9948E-03     80.1901E-03
            2112            2715     71.7403E-03     80.2486E-03
            2112            2730     105.572E-03     114.915E-03
            2113             257     240.455E-03     229.447E-03
            2113             258     271.704E-03     270.610E-03
            2113            2716     246.523E-03     235.945E-03
            2113            2731     270.198E-03     270.749E-03
            2114            2716     246.523E-03     235.945E-03
            2114            2717     253.894E-03     243.228E-03
            2114            2731     270.198E-03     270.749E-03
            2114            2732     269.162E-03     270.091E-03
            2115            2717     253.894E-03     243.228E-03
            2115            2718     252.414E-03     241.710E-03
            2115            2732     269.162E-03     270.091E-03
            2115            2733     266.326E-03     265.011E-03
            2116            2718     252.414E-03     241.710E-03
            2116            2719     244.948E-03     235.436E-03
            2116            2733     266.326E-03     265.011E-03
            2116            2734     257.343E-03     254.566E-03
            2117            2719     244.948E-03     235.436E-03
            2117            2720     234.262E-03     226.046E-03
            2117            2734     257.343E-03     254.566E-03
            2117            2735     244.414E-03     241.159E-03
            2118            2720     234.262E-03     226.046E-03
            2118            2721     221.426E-03     214.482E-03
            2118            2735     244.414E-03     241.159E-03
            2118            2736     229.124E-03     225.822E-03
            2119            2721     221.426E-03     214.482E-03
            2119            2722     207.338E-03     201.493E-03
            2119            2736     229.124E-03     225.822E-03
            2119            2737     212.448E-03     209.325E-03
            2120            2722     207.338E-03     201.493E-03
            2120            2723     192.572E-03     187.592E-03
            2120            2737     212.448E-03     209.325E-03
            2120            2738     195.116E-03     192.302E-03
            2121            2723     192.572E-03     187.592E-03
            2121            2724     177.581E-03     173.347E-03
            2121            2738     195.116E-03     192.302E-03
            2121            2739     177.679E-03     175.197E-03
            2122            2724     177.581E-03     173.347E-03
            2122            2725     162.856E-03     159.176E-03
            2122            2739     177.679E-03     175.197E-03
            2122            2740     160.531E-03     158.474E-03
            2123            2725     162.856E-03     159.176E-03
            2123            2726     148.709E-03     145.621E-03
            2123            2740     160.531E-03     158.474E-03
            2123            2741     144.059E-03     142.641E-03
            2124            2726     148.709E-03     145.621E-03
            2124            2727     135.661E-03     133.296E-03
            2124            2741     144.059E-03     142.641E-03
            2124            2742     128.684E-03     128.288E-03
            2125            2727     135.661E-03     133.296E-03
            2125            2728     123.936E-03     122.909E-03
            2125            2742     128.684E-03     128.288E-03
            2125            2743     114.650E-03     116.470E-03
            2126            2728     123.936E-03     122.909E-03
            2126            2729     113.497E-03     116.392E-03
            2126            2743     114.650E-03     116.470E-03
            2126            2744     103.105E-03     108.417E-03
            2127            2729     113.497E-03     116.392E-03
            2127            2730     105.572E-03     114.915E-03
            2127            2744     103.105E-03     108.417E-03
            2127            2745     97.7676E-03     101.686E-03
            2128             152     97.2497E-03     97.9433E-03
            2128             153     102.508E-03     115.323E-03
            2128            2730     105.572E-03     114.915E-03
            2128            2745     97.7676E-03     101.686E-03
            2129             258     271.704E-03     270.610E-03
            2129             259     301.905E-03     301.623E-03
            2129            2731     270.198E-03     270.749E-03
            2129            2746     295.856E-03     298.233E-03
            2130            2731     270.198E-03     270.749E-03
            2130            2732     269.162E-03     270.091E-03
            2130            2746     295.856E-03     298.233E-03
            2130            2747     286.716E-03     291.815E-03
            2131            2732     269.162E-03     270.091E-03
            2131            2733     266.326E-03     265.011E-03
            2131            2747     286.716E-03     291.815E-03
            2131            2748     279.080E-03     283.343E-03
            2132            2733     266.326E-03     265.011E-03
            2132            2734     257.343E-03     254.566E-03
            2132            2748     279.080E-03     283.343E-03
            2132            2749     267.731E-03     270.355E-03
            2133            2734     257.343E-03     254.566E-03
            2133            2735     244.414E-03     241.159E-03
            2133            2749     267.731E-03     270.355E-03
            2133            2750     252.774E-03     254.015E-03
            2134            2735     244.414E-03     241.159E-03
            2134            2736     229.124E-03     225.822E-03
            2134            2750     252.774E-03     254.015E-03
            2134            2751     235.368E-03     235.778E-03
            2135            2736     229.124E-03     225.822E-03
            2135            2737     212.448E-03     209.325E-03
            2135            2751     235.368E-03     235.778E-03
            2135            2752     216.596E-03     216.556E-03
            2136            2737     212.448E-03     209.325E-03
            2136            2738     195.116E-03     192.302E-03
            2136            2752     216.596E-03     216.556E-03
            2136            2753     197.234E-03     196.970E-03
            2137            2738     195.116E-03     192.302E-03
            2137            2739     177.679E-03     175.197E-03
            2137            2753     197.234E-03     196.970E-03
            2137            2754     177.775E-03     177.527E-03
            2138            2739     177.679E-03     175.197E-03
            2138            2740     160.531E-03     158.474E-03
            2138            2754     177.775E-03     177.527E-03
            2138            2755     158.659E-03     158.628E-03
            2139            2740     160.531E-03     158.474E-03
            2139            2741     144.059E-03     142.641E-03
            2139            2755     158.659E-03     158.628E-03
            2139            2756     140.244E-03     140.731E-03
            2140            2741     144.059E-03     142.641E-03
            2140            2742     128.684E-03     128.288E-03
            2140            2756     140.244E-03     140.731E-03
            2140            2757     122.922E-03     124.378E-03
            2141            2742     128.684E-03     128.288E-03
            2141            2743     114.650E-03     116.470E-03
            2141            2757     122.922E-03     124.378E-03
            2141            2758     107.422E-03     110.503E-03
            2142            2743     114.650E-03     116.470E-03
            2142            2744     103.105E-03     108.417E-03
            2142            2758     107.422E-03     110.503E-03
            2142            2759     95.8207E-03     98.6556E-03
            2143            2744     103.105E-03     108.417E-03
            2143            2745     97.7676E-03     101.686E-03
            2143            2759     95.8207E-03     98.6556E-03
            2143            2760     88.7980E-03     88.9767E-03
            2144             151     86.2828E-03     84.9859E-03
            2144             152     97.2497E-03     97.9433E-03
            2144            2745     97.7676E-03     101.686E-03
            2144            2760     88.7980E-03     88.9767E-03
            2145             259     301.905E-03     301.623E-03
            2145             260     326.547E-03     327.333E-03
            2145            2746     295.856E-03     298.233E-03
            2145            2761     319.067E-03     321.623E-03
            2146            2746     295.856E-03     298.233E-03
            2146            2747     286.716E-03     291.815E-03
            2146            2761     319.067E-03     321.623E-03
            2146            2762     304.805E-03     310.481E-03
            2147            2747     286.716E-03     291.815E-03
            2147            2748     279.080E-03     283.343E-03
            2147            2762     304.805E-03     310.481E-03
            2147            2763     291.277E-03     298.089E-03
            2148            2748     279.080E-03     283.343E-03
            2148            2749     267.731E-03     270.355E-03
            2148            2763     291.277E-03     298.089E-03
            2148            2764     276.489E-03     282.387E-03
            2149            2749     267.731E-03     270.355E-03
            2149            2750     252.774E-03     254.015E-03
            2149            2764     276.489E-03     282.387E-03
            2149            2765     258.969E-03     263.685E-03
            2150            2750     252.774E-03     254.015E-03
            2150            2751     235.368E-03     235.778E-03
            2150            2765     258.969E-03     263.685E-03
            2150            2766     239.536E-03     243.186E-03
            2151            2751     235.368E-03     235.778E-03
            2151            2752     216.596E-03     216.556E-03
            2151            2766     239.536E-03     243.186E-03
            2151            2767     219.027E-03     221.852E-03
            2152            2752     216.596E-03     216.556E-03
            2152            2753     197.234E-03     196.970E-03
            2152            2767     219.027E-03     221.852E-03
            2152            2768     198.026E-03     200.356E-03
            2153            2753     197.234E-03     196.970E-03
            2153            2754     177.775E-03     177.527E-03
            2153            2768     198.026E-03     200.356E-03
            2153            2769     177.091E-03     179.139E-03
            2154            2754     177.775E-03     177.527E-03
            2154            2755     158.659E-03     158.628E-03
            2154            2769     177.091E-03     179.139E-03
            2154            2770     156.491E-03     158.546E-03
            2155            2755     158.659E-03     158.628E-03
            2155            2756     140.244E-03     140.731E-03
            2155            2770     156.491E-03     158.546E-03
            2155            2771     136.620E-03     138.910E-03
            2156            2756     140.244E-03     140.731E-03
            2156            2757     122.922E-03     124.378E-03
            2156            2771     136.620E-03     138.910E-03
            2156            2772     117.899E-03     120.759E-03
            2157            2757     122.922E-03     124.378E-03
            2157            2758     107.422E-03     110.503E-03
            2157            2772     117.899E-03     120.759E-03
            2157            2773     101.439E-03     104.316E-03
            2158            2758     107.422E-03     110.503E-03
            2158            2759     95.8207E-03     98.6556E-03
            2158            2773     101.439E-03     104.316E-03
            2158            2774     88.3325E-03     90.0168E-03
            2159            2759     95.8207E-03     98.6556E-03
            2159            2760     88.7980E-03     88.9767E-03
            2159            2774     88.3325E-03     90.0168E-03
            2159            2775     80.1548E-03     79.9621E-03
            2160             150     77.5850E-03     76.3522E-03
            2160             151     86.2828E-03     84.9859E-03
            2160            2760     88.7980E-03     88.9767E-03
            2160            2775     80.1548E-03     79.9621E-03
            2161             260     326.547E-03     327.333E-03
            2161             261     350.746E-03     351.484E-03
            2161            2761     319.067E-03     321.623E-03
            2161            2776     340.428E-03     343.396E-03
            2162            2761     319.067E-03     321.623E-03
            2162            2762     304.805E-03     310.481E-03
            2162            2776     340.428E-03     343.396E-03
            2162            2777     321.184E-03     327.318E-03
            2163            2762     304.805E-03     310.481E-03
            2163            2763     291.277E-03     298.089E-03
            2163            2777     321.184E-03     327.318E-03
            2163            2778     302.958E-03     310.429E-03
            2164            2763     291.277E-03     298.089E-03
            2164            2764     276.489E-03     282.387E-03
            2164            2778     302.958E-03     310.429E-03
            2164            2779     283.544E-03     291.324E-03
            2165            2764     276.489E-03     282.387E-03
            2165            2765     258.969E-03     263.685E-03
            2165            2779     283.544E-03     291.324E-03
            2165            2780     263.017E-03     270.102E-03
            2166            2765     258.969E-03     263.685E-03
            2166            2766     239.536E-03     243.186E-03
            2166            2780     263.017E-03     270.102E-03
            2166            2781     241.464E-03     247.567E-03
            2167            2766     239.536E-03     243.186E-03
            2167            2767     219.027E-03     221.852E-03
            2167            2781     241.464E-03     247.567E-03
            2167            2782     219.313E-03     224.614E-03
            2168            2767     219.027E-03     221.852E-03
            2168            2768     198.026E-03     200.356E-03
            2168            2782     219.313E-03     224.614E-03
            2168            2783     197.165E-03     201.779E-03
            2169            2768     198.026E-03     200.356E-03
            2169            2769     177.091E-03     179.139E-03
            2169            2783     197.165E-03     201.779E-03
            2169            2784     175.137E-03     179.325E-03
            2170            2769     177.091E-03     179.139E-03
            2170            2770     156.491E-03     158.546E-03
            2170            2784     175.137E-03     179.325E-03
            2170            2785     153.576E-03     157.520E-03
            2171            2770     156.491E-03     158.546E-03
            2171            2771     136.620E-03     138.910E-03
            2171            2785     153.576E-03     157.520E-03
            2171            2786     132.690E-03     136.595E-03
            2172            2771     136.620E-03     138.910E-03
            2172            2772     117.899E-03     120.759E-03
            2172            2786     132.690E-03     136.595E-03
            2172            2787     113.054E-03     116.809E-03
            2173            2772     117.899E-03     120.759E-03
            2173            2773     101.439E-03     104.316E-03
            2173            2787     113.054E-03     116.809E-03
            2173            2788     95.3943E-03     98.4769E-03
            2174            2773     101.439E-03     104.316E-03
            2174            2774     88.3325E-03     90.0168E-03
            2174            2788     95.3943E-03     98.4769E-03
            2174            2789     81.0417E-03     82.7679E-03
            2175            2774     88.3325E-03     90.0168E-03
            2175            2775     80.1548E-03     79.9621E-03
            2175            2789     81.0417E-03     82.7679E-03
            2175            2790     71.7809E-03     70.8365E-03
            2176             149     68.6329E-03     65.8974E-03
            2176             150     77.5850E-03     76.3522E-03
            2176            2775     80.1548E-03     79.9621E-03
            2176            2790     71.7809E-03     70.8365E-03
            2177             261     350.746E-03     351.484E-03
            2177             262     371.909E-03     375.258E-03
            2177            2776     340.428E-03     343.396E-03
            2177            2791     360.266E-03     364.164E-03
            2178            2776     340.428E-03     343.396E-03
            2178            2777     321.184E-03     327.318E-03
            2178            2791     360.266E-03     364.164E-03
            2178            2792     336.722E-03     342.637E-03
            2179            2777     321.184E-03     327.318E-03
            2179            2778     302.958E-03     310.429E-03
            2179            2792     336.722E-03     342.637E-03
            2179            2793     312.648E-03     320.800E-03
            2180            2778     302.958E-03     310.429E-03
            2180            2779     283.544E-03     291.324E-03
            2180            2793     312.648E-03     320.800E-03
            2180            2794     288.713E-03     297.496E-03
            2181            2779     283.544E-03     291.324E-03
            2181            2780     263.017E-03     270.102E-03
            2181            2794     288.713E-03     297.496E-03
            2181            2795     264.727E-03     273.222E-03
            2182            2780     263.017E-03     270.102E-03
            2182            2781     241.464E-03     247.567E-03
            2182            2795     264.727E-03     273.222E-03
            2182            2796     240.846E-03     248.808E-03
            2183            2781     241.464E-03     247.567E-03
            2183            2782     219.313E-03     224.614E-03
            2183            2796     240.846E-03     248.808E-03
            2183            2797     217.526E-03     224.707E-03
            2184            2782     219.313E-03     224.614E-03
            2184            2783     197.165E-03     201.779E-03
            2184            2797     217.526E-03     224.707E-03
            2184            2798     194.448E-03     200.977E-03
            2185            2783     197.165E-03     201.779E-03
            2185            2784     175.137E-03     179.325E-03
            2185            2798     194.448E-03     200.977E-03
            2185            2799     171.820E-03     177.831E-03
            2186            2784     175.137E-03     179.325E-03
            2186            2785     153.576E-03     157.520E-03
            2186            2799     171.820E-03     177.831E-03
            2186            2800     149.648E-03     155.274E-03
            2187            2785     153.576E-03     157.520E-03
            2187            2786     132.690E-03     136.595E-03
            2187            2800     149.648E-03     155.274E-03
            2187            2801     128.192E-03     133.464E-03
            2188            2786     132.690E-03     136.595E-03
            2188            2787     113.054E-03     116.809E-03
            2188            2801     128.192E-03     133.464E-03
            2188            2802     107.793E-03     112.512E-03
            2189            2787     113.054E-03     116.809E-03
            2189            2788     95.3943E-03     98.4769E-03
            2189            2802     107.793E-03     112.512E-03
            2189            2803     89.1751E-03     92.9758E-03
            2190            2788     95.3943E-03     98.4769E-03
            2190            2789     81.0417E-03     82.7679E-03
            2190            2803     89.1751E-03     92.9758E-03
            2190            2804     73.6419E-03     75.5465E-03
            2191            2789     81.0417E-03     82.7679E-03
            2191            2790     71.7809E-03     70.8365E-03
            2191            2804     73.6419E-03     75.5465E-03
            2191            2805     63.1467E-03     62.4763E-03
            2192             148     59.4667E-03     57.5215E-03
            2192             149     68.6329E-03     65.8974E-03
            2192            2790     71.7809E-03     70.8365E-03
            2192            2805     63.1467E-03     62.4763E-03
            2193             262     371.909E-03     375.258E-03
            2193             263     395.536E-03     395.985E-03
            2193            2791     360.266E-03     364.164E-03
            2193            2806     380.421E-03     383.618E-03
            2194            2791     360.266E-03     364.164E-03
            2194            2792     336.722E-03     342.637E-03
            2194            2806     380.421E-03     383.618E-03
            2194            2807     350.040E-03     357.049E-03
            2195            2792     336.722E-03     342.637E-03
            2195            2793     312.648E-03     320.800E-03
            2195            2807     350.040E-03     357.049E-03
            2195            2808     320.227E-03     328.640E-03
            2196            2793     312.648E-03     320.800E-03
            2196            2794     288.713E-03     297.496E-03
            2196            2808     320.227E-03     328.640E-03
            2196            2809     290.951E-03     300.152E-03
            2197            2794     288.713E-03     297.496E-03
            2197            2795     264.727E-03     273.222E-03
            2197            2809     290.951E-03     300.152E-03
            2197            2810     263.293E-03     272.861E-03
            2198            2795     264.727E-03     273.222E-03
            2198            2796     240.846E-03     248.808E-03
            2198            2810     263.293E-03     272.861E-03
            2198            2811     237.954E-03     247.075E-03
            2199            2796     240.846E-03     248.808E-03
            2199            2797     217.526E-03     224.707E-03
            2199            2811     237.954E-03     247.075E-03
            2199            2812     213.604E-03     222.171E-03
            2200            2797     217.526E-03     224.707E-03
            2200            2798     194.448E-03     200.977E-03
            2200            2812     213.604E-03     222.171E-03
            2200            2813     190.107E-03     198.143E-03
            2201            2798     194.448E-03     200.977E-03
            2201            2799     171.820E-03     177.831E-03
            2201            2813     190.107E-03     198.143E-03
            2201            2814     167.168E-03     174.703E-03
            2202            2799     171.820E-03     177.831E-03
            2202            2800     149.648E-03     155.274E-03
            2202            2814     167.168E-03     174.703E-03
            2202            2815     144.752E-03     151.867E-03
            2203            2800     149.648E-03     155.274E-03
            2203            2801     128.192E-03     133.464E-03
            2203            2815     144.752E-03     151.867E-03
            2203            2816     122.953E-03     129.560E-03
            2204            2801     128.192E-03     133.464E-03
            2204            2802     107.793E-03     112.512E-03
            2204            2816     122.953E-03     129.560E-03
            2204            2817     102.043E-03     107.975E-03
            2205            2802     107.793E-03     112.512E-03
            2205            2803     89.1751E-03     92.9758E-03
            2205            2817     102.043E-03     107.975E-03
            2205            2818     82.6355E-03     87.3417E-03
            2206            2803     89.1751E-03     92.9758E-03
            2206            2804     73.6419E-03     75.5465E-03
            2206            2818     82.6355E-03     87.3417E-03
            2206            2819     65.8816E-03     68.7123E-03
            2207            2804     73.6419E-03     75.5465E-03
            2207            2805     63.1467E-03     62.4763E-03
            2207            2819     65.8816E-03     68.7123E-03
            2207            2820     54.2812E-03     53.9999E-03
            2208             147     50.1751E-03     47.8522E-03
            2208             148     59.4667E-03     57.5215E-03
            2208            2805     63.1467E-03     62.4763E-03
            2208            2820     54.2812E-03     53.9999E-03
            2209             263     395.536E-03     395.985E-03
            2209             264     416.038E-03     422.849E-03
            2209            2806     380.421E-03     383.618E-03
            2209            2821     398.573E-03     404.748E-03
            2210            2806     380.421E-03     383.618E-03
            2210            2807     350.040E-03     357.049E-03
            2210            2821     398.573E-03     404.748E-03
            2210            2822     362.068E-03     368.420E-03
            2211            2807     350.040E-03     357.049E-03
            2211            2808     320.227E-03     328.640E-03
            2211            2822     362.068E-03     368.420E-03
            2211            2823     323.362E-03     331.706E-03
            2212            2808     320.227E-03     328.640E-03
            2212            2809     290.951E-03     300.152E-03
            2212            2823     323.362E-03     331.706E-03
            2212            2824     288.300E-03     298.174E-03
            2213            2809     290.951E-03     300.152E-03
            2213            2810     263.293E-03     272.861E-03
            2213            2824     288.300E-03     298.174E-03
            2213            2825     259.199E-03     269.176E-03
            2214            2810     263.293E-03     272.861E-03
            2214            2811     237.954E-03     247.075E-03
            2214            2825     259.199E-03     269.176E-03
            2214            2826     232.716E-03     242.489E-03
            2215            2811     237.954E-03     247.075E-03
            2215            2812     213.604E-03     222.171E-03
            2215            2826     232.716E-03     242.489E-03
            2215            2827     208.036E-03     217.565E-03
            2216            2812     213.604E-03     222.171E-03
            2216            2813     190.107E-03     198.143E-03
            2216            2827     208.036E-03     217.565E-03
            2216            2828     184.442E-03     193.612E-03
            2217            2813     190.107E-03     198.143E-03
            2217            2814     167.168E-03     174.703E-03
            2217            2828     184.442E-03     193.612E-03
            2217            2829     161.485E-03     170.370E-03
            2218            2814     167.168E-03     174.703E-03
            2218            2815     144.752E-03     151.867E-03
            2218            2829     161.485E-03     170.370E-03
            2218            2830     139.068E-03     147.579E-03
            2219            2815     144.752E-03     151.867E-03
            2219            2816     122.953E-03     129.560E-03
            2219            2830     139.068E-03     147.579E-03
            2219            2831     117.126E-03     125.206E-03
            2220            2816     122.953E-03     129.560E-03
            2220            2817     102.043E-03     107.975E-03
            2220            2831     117.126E-03     125.206E-03
            2220            2832     95.8802E-03     103.232E-03
            2221            2817     102.043E-03     107.975E-03
            2221            2818     82.6355E-03     87.3417E-03
            2221            2832     95.8802E-03     103.232E-03
            2221            2833     75.7504E-03     81.9480E-03
            2222            2818     82.6355E-03     87.3417E-03
            2222            2819     65.8816E-03     68.7123E-03
            2222            2833     75.7504E-03     81.9480E-03
            2222            2834     57.8986E-03     62.0083E-03
            2223            2819     65.8816E-03     68.7123E-03
            2223            2820     54.2812E-03     53.9999E-03
            2223            2834     57.8986E-03     62.0083E-03
            2223            2835     44.8020E-03     45.5852E-03
            2224             146     39.8798E-03     38.7312E-03
            2224             147     50.1751E-03     47.8522E-03
            2224            2820     54.2812E-03     53.9999E-03
            2224            2835     44.8020E-03     45.5852E-03
            2225             264     416.038E-03     422.849E-03
            2225             265     442.910E-03     441.060E-03
            2225            2821     398.573E-03     404.748E-03
            2225            2836     419.008E-03     420.176E-03
            2226            2821     398.573E-03     404.748E-03
            2226            2822     362.068E-03     368.420E-03
            2226            2836     419.008E-03     420.176E-03
            2226            2837     366.363E-03     372.727E-03
            2227            2822     362.068E-03     368.420E-03
            2227            2823     323.362E-03     331.706E-03
            2227            2837     366.363E-03     372.727E-03
            2227            2838     317.777E-03     326.959E-03
            2228            2823     323.362E-03     331.706E-03
            2228            2824     288.300E-03     298.174E-03
            2228            2838     317.777E-03     326.959E-03
            2228            2839     282.323E-03     291.955E-03
            2229            2824     288.300E-03     298.174E-03
            2229            2825     259.199E-03     269.176E-03
            2229            2839     282.323E-03     291.955E-03
            2229            2840     252.546E-03     262.302E-03
            2230            2825     259.199E-03     269.176E-03
            2230            2826     232.716E-03     242.489E-03
            2230            2840     252.546E-03     262.302E-03
            2230            2841     225.948E-03     235.958E-03
            2231            2826     232.716E-03     242.489E-03
            2231            2827     208.036E-03     217.565E-03
            2231            2841     225.948E-03     235.958E-03
            2231            2842     201.445E-03     211.520E-03
            2232            2827     208.036E-03     217.565E-03
            2232            2828     184.442E-03     193.612E-03
            2232            2842     201.445E-03     211.520E-03
            2232            2843     177.972E-03     188.145E-03
            2233            2828     184.442E-03     193.612E-03
            2233            2829     161.485E-03     170.370E-03
            2233            2843     177.972E-03     188.145E-03
            2233            2844     155.262E-03     165.394E-03
            2234            2829     161.485E-03     170.370E-03
            2234            2830     139.068E-03     147.579E-03
            2234            2844     155.262E-03     165.394E-03
            2234            2845     132.954E-03     142.976E-03
            2235            2830     139.068E-03     147.579E-03
            2235            2831     117.126E-03     125.206E-03
            2235            2845     132.954E-03     142.976E-03
            2235            2846     111.062E-03     120.769E-03
            2236            2831     117.126E-03     125.206E-03
            2236            2832     95.8802E-03     103.232E-03
            2236            2846     111.062E-03     120.769E-03
            2236            2847     89.5778E-03     98.7593E-03
            2237            2832     95.8802E-03     103.232E-03
            2237            2833     75.7504E-03     81.9480E-03
            2237            2847     89.5778E-03     98.7593E-03
            2237            2848     68.8532E-03     77.0431E-03
            2238            2833     75.7504E-03     81.9480E-03
            2238            2834     57.8986E-03     62.0083E-03
            2238            2848     68.8532E-03     77.0431E-03
            2238            2849     49.7148E-03     56.0345E-03
            2239            2834     57.8986E-03     62.0083E-03
            2239            2835     44.8020E-03     45.5852E-03
            2239            2849     49.7148E-03     56.0345E-03
            2239            2850     34.9054E-03     37.4248E-03
            2240             145     29.1033E-03     29.0078E-03
            2240             146     39.8798E-03     38.7312E-03
            2240            2835     44.8020E-03     45.5852E-03
            2240            2850     34.9054E-03     37.4248E-03
            2241             265     442.910E-03     441.060E-03
            2241             266     466.463E-03     469.089E-03
            2241            2836     419.008E-03     420.176E-03
            2241            2851     424.679E-03     430.665E-03
            2242            2836     419.008E-03     420.176E-03
            2242            2837     366.363E-03     372.727E-03
            2242            2851     424.679E-03     430.665E-03
            2242            2852     354.575E-03     363.102E-03
            2243            2837     366.363E-03     372.727E-03
            2243            2838     317.777E-03     326.959E-03
            2243            2852     354.575E-03     363.102E-03
            2243            2853     308.374E-03     316.119E-03
            2244            2838     317.777E-03     326.959E-03
            2244            2839     282.323E-03     291.955E-03
            2244            2853     308.374E-03     316.119E-03
            2244            2854     274.281E-03     282.389E-03
            2245            2839     282.323E-03     291.955E-03
            2245            2840     252.546E-03     262.302E-03
            2245            2854     274.281E-03     282.389E-03
            2245            2855     244.781E-03     253.702E-03
            2246            2840     252.546E-03     262.302E-03
            2246            2841     225.948E-03     235.958E-03
            2246            2855     244.781E-03     253.702E-03
            2246            2856     218.827E-03     228.626E-03
            2247            2841     225.948E-03     235.958E-03
            2247            2842     201.445E-03     211.520E-03
            2247            2856     218.827E-03     228.626E-03
            2247            2857     194.522E-03     205.095E-03
            2248            2842     201.445E-03     211.520E-03
            2248            2843     177.972E-03     188.145E-03
            2248            2857     194.522E-03     205.095E-03
            2248            2858     171.450E-03     182.628E-03
            2249            2843     177.972E-03     188.145E-03
            2249            2844     155.262E-03     165.394E-03
            2249            2858     171.450E-03     182.628E-03
            2249            2859     148.978E-03     160.543E-03
            2250            2844     155.262E-03     165.394E-03
            2250            2845     132.954E-03     142.976E-03
            2250            2859     148.978E-03     160.543E-03
            2250            2860     126.965E-03     138.696E-03
            2251            2845     132.954E-03     142.976E-03
            2251            2846     111.062E-03     120.769E-03
            2251            2860     126.965E-03     138.696E-03
            2251            2861     105.200E-03     116.869E-03
            2252            2846     111.062E-03     120.769E-03
            2252            2847     89.5778E-03     98.7593E-03
            2252            2861     105.200E-03     116.869E-03
            2252            2862     83.7228E-03     95.0522E-03
            2253            2847     89.5778E-03     98.7593E-03
            2253            2848     68.8532E-03     77.0431E-03
            2253            2862     83.7228E-03     95.0522E-03
            2253            2863     62.5501E-03     73.2424E-03
            2254            2848     68.8532E-03     77.0431E-03
            2254            2849     49.7148E-03     56.0345E-03
            2254            2863     62.5501E-03     73.2424E-03
            2254            2864     42.1689E-03     51.6139E-03
            2255            2849     49.7148E-03     56.0345E-03
            2255            2850     34.9054E-03     37.4248E-03
            2255            2864     42.1689E-03     51.6139E-03
            2255            2865     24.5811E-03     30.8339E-03
            2256             144     16.8879E-03     20.8362E-03
            2256             145     29.1033E-03     29.0078E-03
            2256            2850     34.9054E-03     37.4248E-03
            2256            2865     24.5811E-03     30.8339E-03
            2257             266     466.463E-03     469.089E-03
            2257             267     443.474E-03     451.083E-03
            2257            2851     424.679E-03     430.665E-03
            2257            2866     418.282E-03     418.947E-03
            2258            2851     424.679E-03     430.665E-03
            2258            2852     354.575E-03     363.102E-03
            2258            2866     418.282E-03     418.947E-03
            2258            2867     379.394E-03     372.181E-03
            2259            2852     354.575E-03     363.102E-03
            2259            2853     308.374E-03     316.119E-03
            2259            2867     379.394E-03     372.181E-03
            2259            2868     351.043E-03     344.798E-03
            2260            2853     308.374E-03     316.119E-03
            2260            2854     274.281E-03     282.389E-03
            2260            2868     351.043E-03     344.798E-03
            2260            2869     324.246E-03     320.414E-03
            2261            2854     274.281E-03     282.389E-03
            2261            2855     244.781E-03     253.702E-03
            2261            2869     324.246E-03     320.414E-03
            2261            2870     299.303E-03     297.647E-03
            2262            2855     244.781E-03     253.702E-03
            2262            2856     218.827E-03     228.626E-03
            2262            2870     299.303E-03     297.647E-03
            2262            2871     274.727E-03     275.320E-03
            2263            2856     218.827E-03     228.626E-03
            2263            2857     194.522E-03     205.095E-03
            2263            2871     274.727E-03     275.320E-03
            2263            2872     250.712E-03     252.889E-03
            2264            2857     194.522E-03     205.095E-03
            2264            2858     171.450E-03     182.628E-03
            2264            2872     250.712E-03     252.889E-03
            2264            2873     226.864E-03     230.399E-03
            2265            2858     171.450E-03     182.628E-03
            2265            2859     148.978E-03     160.543E-03
            2265            2873     226.864E-03     230.399E-03
            2265            2874     203.393E-03     207.739E-03
            2266            2859     148.978E-03     160.543E-03
            2266            2860     126.965E-03     138.696E-03
            2266            2874     203.393E-03     207.739E-03
            2266            2875     180.288E-03     185.195E-03
            2267            2860     126.965E-03     138.696E-03
            2267            2861     105.200E-03     116.869E-03
            2267            2875     180.288E-03     185.195E-03
            2267            2876     157.864E-03     162.912E-03
            2268            2861     105.200E-03     116.869E-03
            2268            2862     83.7228E-03     95.0522E-03
            2268            2876     157.864E-03     162.912E-03
            2268            2877     136.346E-03     141.407E-03
            2269            2862     83.7228E-03     95.0522E-03
            2269            2863     62.5501E-03     73.2424E-03
            2269            2877     136.346E-03     141.407E-03
            2269            2878     116.160E-03     120.984E-03
            2270            2863     62.5501E-03     73.2424E-03
            2270            2864     42.1689E-03     51.6139E-03
            2270            2878     116.160E-03     120.984E-03
            2270            2879     97.6997E-03     103.144E-03
            2271            2864     42.1689E-03     51.6139E-03
            2271            2865     24.5811E-03     30.8339E-03
            2271            2879     97.6997E-03     103.144E-03
            2271            2880     79.3667E-03     90.1290E-03
            2272             143     69.6429E-03     84.8844E-03
            2272             144     16.8879E-03     20.8362E-03
            2272            2865     24.5811E-03     30.8339E-03
            2272            2880     79.3667E-03     90.1290E-03
            2273             267     443.474E-03     451.083E-03
            2273             268     437.638E-03     424.075E-03
            2273            2866     418.282E-03     418.947E-03
            2273            2881     434.521E-03     422.619E-03
            2274            2866     418.282E-03     418.947E-03
            2274            2867     379.394E-03     372.181E-03
            2274            2881     434.521E-03     422.619E-03
            2274            2882     424.607E-03     413.540E-03
            2275            2867     379.394E-03     372.181E-03
            2275            2868     351.043E-03     344.798E-03
            2275            2882     424.607E-03     413.540E-03
            2275            2883     408.606E-03     397.253E-03
            2276            2868     351.043E-03     344.798E-03
            2276            2869     324.246E-03     320.414E-03
            2276            2883     408.606E-03     397.253E-03
            2276            2884     388.258E-03     378.430E-03
            2277            2869     324.246E-03     320.414E-03
            2277            2870     299.303E-03     297.647E-03
            2277            2884     388.258E-03     378.430E-03
            2277            2885     365.109E-03     357.054E-03
            2278            2870     299.303E-03     297.647E-03
            2278            2871     274.727E-03     275.320E-03
            2278            2885     365.109E-03     357.054E-03
            2278            2886     340.221E-03     333.922E-03
            2279            2871     274.727E-03     275.320E-03
            2279            2872     250.712E-03     252.889E-03
            2279            2886     340.221E-03     333.922E-03
            2279            2887     314.233E-03     309.446E-03
            2280            2872     250.712E-03     252.889E-03
            2280            2873     226.864E-03     230.399E-03
            2280            2887     314.233E-03     309.446E-03
            2280            2888     287.751E-03     284.114E-03
            2281            2873     226.864E-03     230.399E-03
            2281            2874     203.393E-03     207.739E-03
            2281            2888     287.751E-03     284.114E-03
            2281            2889     261.190E-03     258.461E-03
            2282            2874     203.393E-03     207.739E-03
            2282            2875     180.288E-03     185.195E-03
            2282            2889     261.190E-03     258.461E-03
            2282            2890     235.142E-03     232.966E-03
            2283            2875     180.288E-03     185.195E-03
            2283            2876     157.864E-03     162.912E-03
            2283            2890     235.142E-03     232.966E-03
            2283            2891     210.006E-03     208.292E-03
            2284            2876     157.864E-03     162.912E-03
            2284            2877     136.346E-03     141.407E-03
            2284            2891     210.006E-03     208.292E-03
            2284            2892     186.573E-03     185.313E-03
            2285            2877     136.346E-03     141.407E-03
            2285            2878     116.160E-03     120.984E-03
            2285            2892     186.573E-03     185.313E-03
            2285            2893     165.356E-03     165.199E-03
            2286            2878     116.160E-03     120.984E-03
            2286            2879     97.6997E-03     103.144E-03
            2286            2893     165.356E-03     165.199E-03
            2286            2894     146.788E-03     150.922E-03
            2287            2879     97.6997E-03     103.144E-03
            2287            2880     79.3667E-03     90.1290E-03
            2287            2894     146.788E-03     150.922E-03
            2287            2895     132.846E-03     145.185E-03
            2288             142     127.417E-03     144.526E-03
            2288             143     69.6429E-03     84.8844E-03
            2288            2880     79.3667E-03     90.1290E-03
            2288            2895     132.846E-03     145.185E-03
            2289             268     437.638E-03     424.075E-03
            2289             269     470.457E-03     469.062E-03
            2289            2881     434.521E-03     422.619E-03
            2289            2896     463.076E-03     464.398E-03
            2290            2881     434.521E-03     422.619E-03
            2290            2882     424.607E-03     413.540E-03
            2290            2896     463.076E-03     464.398E-03
            2290            2897     447.360E-03     450.494E-03
            2291            2882     424.607E-03     413.540E-03
            2291            2883     408.606E-03     397.253E-03
            2291            2897     447.360E-03     450.494E-03
            2291            2898     428.573E-03     429.678E-03
            2292            2883     408.606E-03     397.253E-03
            2292            2884     388.258E-03     378.430E-03
            2292            2898     428.573E-03     429.678E-03
            2292            2899     405.739E-03     405.022E-03
            2293            2884     388.258E-03     378.430E-03
            2293            2885     365.109E-03     357.054E-03
            2293            2899     405.739E-03     405.022E-03
            2293            2900     379.543E-03     378.184E-03
            2294            2885     365.109E-03     357.054E-03
            2294            2886     340.221E-03     333.922E-03
            2294            2900     379.543E-03     378.184E-03
            2294            2901     351.373E-03     349.929E-03
            2295            2886     340.221E-03     333.922E-03
            2295            2887     314.233E-03     309.446E-03
            2295            2901     351.373E-03     349.929E-03
            2295            2902     322.035E-03     320.759E-03
            2296            2887     314.233E-03     309.446E-03
            2296            2888     287.751E-03     284.114E-03
            2296            2902     322.035E-03     320.759E-03
            2296            2903     292.163E-03     291.225E-03
            2297            2888     287.751E-03     284.114E-03
            2297            2889     261.190E-03     258.461E-03
            2297            2903     292.163E-03     291.225E-03
            2297            2904     262.317E-03     261.693E-03
            2298            2889     261.190E-03     258.461E-03
            2298            2890     235.142E-03     232.966E-03
            2298            2904     262.317E-03     261.693E-03
            2298            2905     232.890E-03     232.658E-03
            2299            2890     235.142E-03     232.966E-03
            2299            2891     210.006E-03     208.292E-03
            2299            2905     232.890E-03     232.658E-03
            2299            2906     204.364E-03     204.687E-03
            2300            2891     210.006E-03     208.292E-03
            2300            2892     186.573E-03     185.313E-03
            2300            2906     204.364E-03     204.687E-03
            2300            2907     177.297E-03     178.615E-03
            2301            2892     186.573E-03     185.313E-03
            2301            2893     165.356E-03     165.199E-03
            2301            2907     177.297E-03     178.615E-03
            2301            2908     152.250E-03     155.970E-03
            2302            2893     165.356E-03     165.199E-03
            2302            2894     146.788E-03     150.922E-03
            2302            2908     152.250E-03     155.970E-03
            2302            2909     130.974E-03     139.172E-03
            2303            2894     146.788E-03     150.922E-03
            2303            2895     132.846E-03     145.185E-03
            2303            2909     130.974E-03     139.172E-03
            2303            2910     119.358E-03     126.055E-03
            2304             141     116.980E-03     119.556E-03
            2304             142     127.417E-03     144.526E-03
            2304            2895     132.846E-03     145.185E-03
            2304            2910     119.358E-03     126.055E-03
            2305             269     470.457E-03     469.062E-03
            2305             270     501.716E-03     503.567E-03
            2305            2896     463.076E-03     464.398E-03
            2305            2911     490.373E-03     495.303E-03
            2306            2896     463.076E-03     464.398E-03
            2306            2897     447.360E-03     450.494E-03
            2306            2911     490.373E-03     495.303E-03
            2306            2912     469.021E-03     477.308E-03
            2307            2897     447.360E-03     450.494E-03
            2307            2898     428.573E-03     429.678E-03
            2307            2912     469.021E-03     477.308E-03
            2307            2913     446.627E-03     454.483E-03
            2308            2898     428.573E-03     429.678E-03
            2308            2899     405.739E-03     405.022E-03
            2308            2913     446.627E-03     454.483E-03
            2308            2914     420.459E-03     426.694E-03
            2309            2899     405.739E-03     405.022E-03
            2309            2900     379.543E-03     378.184E-03
            2309            2914     420.459E-03     426.694E-03
            2309            2915     391.644E-03     396.106E-03
            2310            2900     379.543E-03     378.184E-03
            2310            2901     351.373E-03     349.929E-03
            2310            2915     391.644E-03     396.106E-03
            2310            2916     360.633E-03     363.968E-03
            2311            2901     351.373E-03     349.929E-03
            2311            2902     322.035E-03     320.759E-03
            2311            2916     360.633E-03     363.968E-03
            2311            2917     328.545E-03     331.186E-03
            2312            2902     322.035E-03     320.759E-03
            2312            2903     292.163E-03     291.225E-03
            2312            2917     328.545E-03     331.186E-03
            2312            2918     296.000E-03     298.221E-03
            2313            2903     292.163E-03     291.225E-03
            2313            2904     262.317E-03     261.693E-03
            2313            2918     296.000E-03     298.221E-03
            2313            2919     263.450E-03     265.573E-03
            2314            2904     262.317E-03     261.693E-03
            2314            2905     232.890E-03     232.658E-03
            2314            2919     263.450E-03     265.573E-03
            2314            2920     231.324E-03     233.575E-03
            2315            2905     232.890E-03     232.658E-03
            2315            2906     204.364E-03     204.687E-03
            2315            2920     231.324E-03     233.575E-03
            2315            2921     199.975E-03     202.768E-03
            2316            2906     204.364E-03     204.687E-03
            2316            2907     177.297E-03     178.615E-03
            2316            2921     199.975E-03     202.768E-03
            2316            2922     169.911E-03     173.784E-03
            2317            2907     177.297E-03     178.615E-03
            2317            2908     152.250E-03     155.970E-03
            2317            2922     169.911E-03     173.784E-03
            2317            2923     142.058E-03     148.088E-03
            2318            2908     152.250E-03     155.970E-03
            2318            2909     130.974E-03     139.172E-03
            2318            2923     142.058E-03     148.088E-03
            2318            2924     119.612E-03     125.735E-03
            2319            2909     130.974E-03     139.172E-03
            2319            2910     119.358E-03     126.055E-03
            2319            2924     119.612E-03     125.735E-03
            2319            2925     105.103E-03     107.540E-03
            2320             140     99.9175E-03     99.9565E-03
            2320             141     116.980E-03     119.556E-03
            2320            2910     119.358E-03     126.055E-03
            2320            2925     105.103E-03     107.540E-03
            2321             270     501.716E-03     503.567E-03
            2321             271     527.585E-03     528.936E-03
            2321            2911     490.373E-03     495.303E-03
            2321            2926     515.025E-03     519.328E-03
            2322            2911     490.373E-03     495.303E-03
            2322            2912     469.021E-03     477.308E-03
            2322            2926     515.025E-03     519.328E-03
            2322            2927     489.035E-03     498.233E-03
            2323            2912     469.021E-03     477.308E-03
            2323            2913     446.627E-03     454.483E-03
            2323            2927     489.035E-03     498.233E-03
            2323            2928     461.792E-03     472.760E-03
            2324            2913     446.627E-03     454.483E-03
            2324            2914     420.459E-03     426.694E-03
            2324            2928     461.792E-03     472.760E-03
            2324            2929     432.508E-03     442.628E-03
            2325            2914     420.459E-03     426.694E-03
            2325            2915     391.644E-03     396.106E-03
            2325            2929     432.508E-03     442.628E-03
            2325            2930     400.508E-03     409.294E-03
            2326            2915     391.644E-03     396.106E-03
            2326            2916     360.633E-03     363.968E-03
            2326            2930     400.508E-03     409.294E-03
            2326            2931     367.055E-03     374.377E-03
            2327            2916     360.633E-03     363.968E-03
            2327            2917     328.545E-03     331.186E-03
            2327            2931     367.055E-03     374.377E-03
            2327            2932     332.707E-03     338.848E-03
            2328            2917     328.545E-03     331.186E-03
            2328            2918     296.000E-03     298.221E-03
            2328            2932     332.707E-03     338.848E-03
            2328            2933     298.056E-03     303.419E-03
            2329            2918     296.000E-03     298.221E-03
            2329            2919     263.450E-03     265.573E-03
            2329            2933     298.056E-03     303.419E-03
            2329            2934     263.553E-03     268.430E-03
            2330            2919     263.450E-03     265.573E-03
            2330            2920     231.324E-03     233.575E-03
            2330            2934     263.553E-03     268.430E-03
            2330            2935     229.406E-03     234.230E-03
            2331            2920     231.324E-03     233.575E-03
            2331            2921     199.975E-03     202.768E-03
            2331            2935     229.406E-03     234.230E-03
            2331            2936     195.988E-03     201.091E-03
            2332            2921     199.975E-03     202.768E-03
            2332            2922     169.911E-03     173.784E-03
            2332            2936     195.988E-03     201.091E-03
            2332            2937     163.693E-03     169.676E-03
            2333            2922     169.911E-03     173.784E-03
            2333            2923     142.058E-03     148.088E-03
            2333            2937     163.693E-03     169.676E-03
            2333            2938     133.949E-03     140.366E-03
            2334            2923     142.058E-03     148.088E-03
            2334            2924     119.612E-03     125.735E-03
            2334            2938     133.949E-03     140.366E-03
            2334            2939     108.721E-03     113.889E-03
            2335            2924     119.612E-03     125.735E-03
            2335            2925     105.103E-03     107.540E-03
            2335            2939     108.721E-03     113.889E-03
            2335            2940     91.6909E-03     94.0708E-03
            2336             139     85.8927E-03     86.5378E-03
            2336             140     99.9175E-03     99.9565E-03
            2336            2925     105.103E-03     107.540E-03
            2336            2940     91.6909E-03     94.0708E-03
            2337             271     527.585E-03     528.936E-03
            2337             272     552.060E-03     554.111E-03
            2337            2926     515.025E-03     519.328E-03
            2337            2941     536.774E-03     541.779E-03
            2338            2926     515.025E-03     519.328E-03
            2338            2927     489.035E-03     498.233E-03
            2338            2941     536.774E-03     541.779E-03
            2338            2942     506.349E-03     515.820E-03
            2339            2927     489.035E-03     498.233E-03
            2339            2928     461.792E-03     472.760E-03
            2339            2942     506.349E-03     515.820E-03
            2339            2943     474.833E-03     486.549E-03
            2340            2928     461.792E-03     472.760E-03
            2340            2929     432.508E-03     442.628E-03
            2340            2943     474.833E-03     486.549E-03
            2340            2944     441.099E-03     453.432E-03
            2341            2929     432.508E-03     442.628E-03
            2341            2930     400.508E-03     409.294E-03
            2341            2944     441.099E-03     453.432E-03
            2341            2945     406.058E-03     417.540E-03
            2342            2930     400.508E-03     409.294E-03
            2342            2931     367.055E-03     374.377E-03
            2342            2945     406.058E-03     417.540E-03
            2342            2946     370.135E-03     380.312E-03
            2343            2931     367.055E-03     374.377E-03
            2343            2932     332.707E-03     338.848E-03
            2343            2946     370.135E-03     380.312E-03
            2343            2947     333.897E-03     342.883E-03
            2344            2932     332.707E-03     338.848E-03
            2344            2933     298.056E-03     303.419E-03
            2344            2947     333.897E-03     342.883E-03
            2344            2948     297.824E-03     305.795E-03
            2345            2933     298.056E-03     303.419E-03
            2345            2934     263.553E-03     268.430E-03
            2345            2948     297.824E-03     305.795E-03
            2345            2949     261.954E-03     269.293E-03
            2346            2934     263.553E-03     268.430E-03
            2346            2935     229.406E-03     234.230E-03
            2346            2949     261.954E-03     269.293E-03
            2346            2950     226.544E-03     233.569E-03
            2347            2935     229.406E-03     234.230E-03
            2347            2936     195.988E-03     201.091E-03
            2347            2950     226.544E-03     233.569E-03
            2347            2951     191.711E-03     198.834E-03
            2348            2936     195.988E-03     201.091E-03
            2348            2937     163.693E-03     169.676E-03
            2348            2951     191.711E-03     198.834E-03
            2348            2952     158.018E-03     165.300E-03
            2349            2937     163.693E-03     169.676E-03
            2349            2938     133.949E-03     140.366E-03
            2349            2952     158.018E-03     165.300E-03
            2349            2953     126.293E-03     133.270E-03
            2350            2938     133.949E-03     140.366E-03
            2350            2939     108.721E-03     113.889E-03
            2350            2953     126.293E-03     133.270E-03
            2350            2954     98.5835E-03     104.322E-03
            2351            2939     108.721E-03     113.889E-03
            2351            2940     91.6909E-03     94.0708E-03
            2351            2954     98.5835E-03     104.322E-03
            2351            2955     79.0134E-03     80.8143E-03
            2352             138     71.9010E-03     70.7137E-03
            2352             139     85.8927E-03     86.5378E-03
            2352            2940     91.6909E-03     94.0708E-03
            2352            2955     79.0134E-03     80.8143E-03
            2353             272     552.060E-03     554.111E-03
            2353             273     573.319E-03     577.981E-03
            2353            2941     536.774E-03     541.779E-03
            2353            2956     556.660E-03     562.594E-03
            2354            2941     536.774E-03     541.779E-03
            2354            2942     506.349E-03     515.820E-03
            2354            2956     556.660E-03     562.594E-03
            2354            2957     521.899E-03     531.151E-03
            2355            2942     506.349E-03     515.820E-03
            2355            2943     474.833E-03     486.549E-03
            2355            2957     521.899E-03     531.151E-03
            2355            2958     484.554E-03     496.956E-03
            2356            2943     474.833E-03     486.549E-03
            2356            2944     441.099E-03     453.432E-03
            2356            2958     484.554E-03     496.956E-03
            2356            2959     446.309E-03     459.654E-03
            2357            2944     441.099E-03     453.432E-03
            2357            2945     406.058E-03     417.540E-03
            2357            2959     446.309E-03     459.654E-03
            2357            2960     407.789E-03     420.701E-03
            2358            2945     406.058E-03     417.540E-03
            2358            2946     370.135E-03     380.312E-03
            2358            2960     407.789E-03     420.701E-03
            2358            2961     369.504E-03     381.575E-03
            2359            2946     370.135E-03     380.312E-03
            2359            2947     333.897E-03     342.883E-03
            2359            2961     369.504E-03     381.575E-03
            2359            2962     332.061E-03     342.976E-03
            2360            2947     333.897E-03     342.883E-03
            2360            2948     297.824E-03     305.795E-03
            2360            2962     332.061E-03     342.976E-03
            2360            2963     295.016E-03     304.967E-03
            2361            2948     297.824E-03     305.795E-03
            2361            2949     261.954E-03     269.293E-03
            2361            2963     295.016E-03     304.967E-03
            2361            2964     258.493E-03     267.736E-03
            2362            2949     261.954E-03     269.293E-03
            2362            2950     226.544E-03     233.569E-03
            2362            2964     258.493E-03     267.736E-03
            2362            2965     222.391E-03     231.201E-03
            2363            2950     226.544E-03     233.569E-03
            2363            2951     191.711E-03     198.834E-03
            2363            2965     222.391E-03     231.201E-03
            2363            2966     186.855E-03     195.470E-03
            2364            2951     191.711E-03     198.834E-03
            2364            2952     158.018E-03     165.300E-03
            2364            2966     186.855E-03     195.470E-03
            2364            2967     152.135E-03     160.552E-03
            2365            2952     158.018E-03     165.300E-03
            2365            2953     126.293E-03     133.270E-03
            2365            2967     152.135E-03     160.552E-03
            2365            2968     118.932E-03     126.899E-03
            2366            2953     126.293E-03     133.270E-03
            2366            2954     98.5835E-03     104.322E-03
            2366            2968     118.932E-03     126.899E-03
            2366            2969     88.9103E-03     95.2434E-03
            2367            2954     98.5835E-03     104.322E-03
            2367            2955     79.0134E-03     80.8143E-03
            2367            2969     88.9103E-03     95.2434E-03
            2367            2970     66.3622E-03     69.0980E-03
            2368             137     57.7672E-03     58.1928E-03
            2368             138     71.9010E-03     70.7137E-03
            2368            2955     79.0134E-03     80.8143E-03
            2368            2970     66.3622E-03     69.0980E-03
            2369             273     573.319E-03     577.981E-03
            2369             274     596.875E-03     597.865E-03
            2369            2956     556.660E-03     562.594E-03
            2369            2971     576.532E-03     581.462E-03
            2370            2956     556.660E-03     562.594E-03
            2370            2957     521.899E-03     531.151E-03
            2370            2971     576.532E-03     581.462E-03
            2370            2972     534.304E-03     544.840E-03
            2371            2957     521.899E-03     531.151E-03
            2371            2958     484.554E-03     496.956E-03
            2371            2972     534.304E-03     544.840E-03
            2371            2973     490.845E-03     503.428E-03
            2372            2958     484.554E-03     496.956E-03
            2372            2959     446.309E-03     459.654E-03
            2372            2973     490.845E-03     503.428E-03
            2372            2974     447.087E-03     460.539E-03
            2373            2959     446.309E-03     459.654E-03
            2373            2960     407.789E-03     420.701E-03
            2373            2974     447.087E-03     460.539E-03
            2373            2975     404.885E-03     418.589E-03
            2374            2960     407.789E-03     420.701E-03
            2374            2961     369.504E-03     381.575E-03
            2374            2975     404.885E-03     418.589E-03
            2374            2976     365.435E-03     378.334E-03
            2375            2961     369.504E-03     381.575E-03
            2375            2962     332.061E-03     342.976E-03
            2375            2976     365.435E-03     378.334E-03
            2375            2977     327.140E-03     339.170E-03
            2376            2962     332.061E-03     342.976E-03
            2376            2963     295.016E-03     304.967E-03
            2376            2977     327.140E-03     339.170E-03
            2376            2978     289.873E-03     301.132E-03
            2377            2963     295.016E-03     304.967E-03
            2377            2964     258.493E-03     267.736E-03
            2377            2978     289.873E-03     301.132E-03
            2377            2979     253.207E-03     263.811E-03
            2378            2964     258.493E-03     267.736E-03
            2378            2965     222.391E-03     231.201E-03
            2378            2979     253.207E-03     263.811E-03
            2378            2980     217.002E-03     227.190E-03
            2379            2965     222.391E-03     231.201E-03
            2379            2966     186.855E-03     195.470E-03
            2379            2980     217.002E-03     227.190E-03
            2379            2981     181.256E-03     191.054E-03
            2380            2966     186.855E-03     195.470E-03
            2380            2967     152.135E-03     160.552E-03
            2380            2981     181.256E-03     191.054E-03
            2380            2982     146.031E-03     155.555E-03
            2381            2967     152.135E-03     160.552E-03
            2381            2968     118.932E-03     126.899E-03
            2381            2982     146.031E-03     155.555E-03
            2381            2983     111.770E-03     120.764E-03
            2382            2968     118.932E-03     126.899E-03
            2382            2969     88.9103E-03     95.2434E-03
            2382            2983     111.770E-03     120.764E-03
            2382            2984     79.6831E-03     87.3414E-03
            2383            2969     88.9103E-03     95.2434E-03
            2383            2970     66.3622E-03     69.0980E-03
            2383            2984     79.6831E-03     87.3414E-03
            2383            2985     54.0021E-03     57.7592E-03
            2384             136     43.5687E-03     44.3454E-03
            2384             137     57.7672E-03     58.1928E-03
            2384            2970     66.3622E-03     69.0980E-03
            2384            2985     54.0021E-03     57.7592E-03
            2385             274     596.875E-03     597.865E-03
            2385             275     616.347E-03     625.251E-03
            2385            2971     576.532E-03     581.462E-03
            2385            2986     593.340E-03     602.048E-03
            2386            2971     576.532E-03     581.462E-03
            2386            2972     534.304E-03     544.840E-03
            2386            2986     593.340E-03     602.048E-03
            2386            2987     544.457E-03     554.001E-03
            2387            2972     534.304E-03     544.840E-03
            2387            2973     490.845E-03     503.428E-03
            2387            2987     544.457E-03     554.001E-03
            2387            2988     491.098E-03     503.052E-03
            2388            2973     490.845E-03     503.428E-03
            2388            2974     447.087E-03     460.539E-03
            2388            2988     491.098E-03     503.052E-03
            2388            2989     441.203E-03     454.745E-03
            2389            2974     447.087E-03     460.539E-03
            2389            2975     404.885E-03     418.589E-03
            2389            2989     441.203E-03     454.745E-03
            2389            2990     398.146E-03     411.458E-03
            2390            2975     404.885E-03     418.589E-03
            2390            2976     365.435E-03     378.334E-03
            2390            2990     398.146E-03     411.458E-03
            2390            2991     357.922E-03     370.792E-03
            2391            2976     365.435E-03     378.334E-03
            2391            2977     327.140E-03     339.170E-03
            2391            2991     357.922E-03     370.792E-03
            2391            2992     319.767E-03     332.211E-03
            2392            2977     327.140E-03     339.170E-03
            2392            2978     289.873E-03     301.132E-03
            2392            2992     319.767E-03     332.211E-03
            2392            2993     282.798E-03     294.753E-03
            2393            2978     289.873E-03     301.132E-03
            2393            2979     253.207E-03     263.811E-03
            2393            2993     282.798E-03     294.753E-03
            2393            2994     246.487E-03     258.126E-03
            2394            2979     253.207E-03     263.811E-03
            2394            2980     217.002E-03     227.190E-03
            2394            2994     246.487E-03     258.126E-03
            2394            2995     210.664E-03     221.938E-03
            2395            2980     217.002E-03     227.190E-03
            2395            2981     181.256E-03     191.054E-03
            2395            2995     210.664E-03     221.938E-03
            2395            2996     175.128E-03     186.124E-03
            2396            2981     181.256E-03     191.054E-03
            2396            2982     146.031E-03     155.555E-03
            2396            2996     175.128E-03     186.124E-03
            2396            2997     139.973E-03     150.481E-03
            2397            2982     146.031E-03     155.555E-03
            2397            2983     111.770E-03     120.764E-03
            2397            2997     139.973E-03     150.481E-03
            2397            2998     105.180E-03     115.254E-03
            2398            2983     111.770E-03     120.764E-03
            2398            2984     79.6831E-03     87.3414E-03
            2398            2998     105.180E-03     115.254E-03
            2398            2999     71.3710E-03     80.8394E-03
            2399            2984     79.6831E-03     87.3414E-03
            2399            2985     54.0021E-03     57.7592E-03
            2399            2999     71.3710E-03     80.8394E-03
            2399            3000     41.9527E-03     48.1276E-03
            2400             135     29.0723E-03     32.4544E-03
            2400             136     43.5687E-03     44.3454E-03
            2400            2985     54.0021E-03     57.7592E-03
            2400            3000     41.9527E-03     48.1276E-03
            2401             275     616.347E-03     625.251E-03
            2401             276     642.410E-03     640.117E-03
            2401            2986     593.340E-03     602.048E-03
            2401            3001     612.286E-03     614.149E-03
            2402            2986     593.340E-03     602.048E-03
            2402            2987     544.457E-03     554.001E-03
            2402            3001     612.286E-03     614.149E-03
            2402            3002     544.714E-03     553.272E-03
            2403            2987     544.457E-03     554.001E-03
            2403            2988     491.098E-03     503.052E-03
            2403            3002     544.714E-03     553.272E-03
            2403            3003     480.269E-03     491.896E-03
            2404            2988     491.098E-03     503.052E-03
            2404            2989     441.203E-03     454.745E-03
            2404            3003     480.269E-03     491.896E-03
            2404            3004     430.921E-03     442.705E-03
            2405            2989     441.203E-03     454.745E-03
            2405            2990     398.146E-03     411.458E-03
            2405            3004     430.921E-03     442.705E-03
            2405            3005     387.766E-03     399.577E-03
            2406            2990     398.146E-03     411.458E-03
            2406            2991     357.922E-03     370.792E-03
            2406            3005     387.766E-03     399.577E-03
            2406            3006     348.129E-03     360.227E-03
            2407            2991     357.922E-03     370.792E-03
            2407            2992     319.767E-03     332.211E-03
            2407            3006     348.129E-03     360.227E-03
            2407            3007     310.768E-03     322.994E-03
            2408            2992     319.767E-03     332.211E-03
            2408            2993     282.798E-03     294.753E-03
            2408            3007     310.768E-03     322.994E-03
            2408            3008     274.495E-03     286.935E-03
            2409            2993     282.798E-03     294.753E-03
            2409            2994     246.487E-03     258.126E-03
            2409            3008     274.495E-03     286.935E-03
            2409            3009     239.014E-03     251.501E-03
            2410            2994     246.487E-03     258.126E-03
            2410            2995     210.664E-03     221.938E-03
            2410            3009     239.014E-03     251.501E-03
            2410            3010     203.879E-03     216.358E-03
            2411            2995     210.664E-03     221.938E-03
            2411            2996     175.128E-03     186.124E-03
            2411            3010     203.879E-03     216.358E-03
            2411            3011     169.058E-03     181.290E-03
            2412            2996     175.128E-03     186.124E-03
            2412            2997     139.973E-03     150.481E-03
            2412            3011     169.058E-03     181.290E-03
            2412            3012     134.381E-03     146.240E-03
            2413            2997     139.973E-03     150.481E-03
            2413            2998     105.180E-03     115.254E-03
            2413            3012     134.381E-03     146.240E-03
            2413            3013     99.9848E-03     111.062E-03
            2414            2998     105.180E-03     115.254E-03
            2414            2999     71.3710E-03     80.8394E-03
            2414            3013     99.9848E-03     111.062E-03
            2414            3014     65.6384E-03     76.2206E-03
            2415            2999     71.3710E-03     80.8394E-03
            2415            3000     41.9527E-03     48.1276E-03
            2415            3014     65.6384E-03     76.2206E-03
            2415            3015     32.2147E-03     42.8438E-03
            2416             134     15.9967E-03     26.5941E-03
            2416             135     29.0723E-03     32.4544E-03
            2416            3000     41.9527E-03     48.1276E-03
            2416            3015     32.2147E-03     42.8438E-03
            2417             276     642.410E-03     640.117E-03
            2417             277     664.379E-03     664.586E-03
            2417            3001     612.286E-03     614.149E-03
            2417            3016     613.093E-03     617.811E-03
            2418            3001     612.286E-03     614.149E-03
            2418            3002     544.714E-03     553.272E-03
            2418            3016     613.093E-03     617.811E-03
            2418            3017     525.434E-03     533.549E-03
            2419            3002     544.714E-03     553.272E-03
            2419            3003     480.269E-03     491.896E-03
            2419            3017     525.434E-03     533.549E-03
            2419            3018     464.783E-03     471.920E-03
            2420            3003     480.269E-03     491.896E-03
            2420            3004     430.921E-03     442.705E-03
            2420            3018     464.783E-03     471.920E-03
            2420            3019     417.791E-03     425.700E-03
            2421            3004     430.921E-03     442.705E-03
            2421            3005     387.766E-03     399.577E-03
            2421            3019     417.791E-03     425.700E-03
            2421            3020     375.731E-03     385.003E-03
            2422            3005     387.766E-03     399.577E-03
            2422            3006     348.129E-03     360.227E-03
            2422            3020     375.731E-03     385.003E-03
            2422            3021     337.566E-03     348.278E-03
            2423            3006     348.129E-03     360.227E-03
            2423            3007     310.768E-03     322.994E-03
            2423            3021     337.566E-03     348.278E-03
            2423            3022     301.127E-03     313.111E-03
            2424            3007     310.768E-03     322.994E-03
            2424            3008     274.495E-03     286.935E-03
            2424            3022     301.127E-03     313.111E-03
            2424            3023     266.017E-03     278.993E-03
            2425            3008     274.495E-03     286.935E-03
            2425            3009     239.014E-03     251.501E-03
            2425            3023     266.017E-03     278.993E-03
            2425            3024     231.517E-03     245.163E-03
            2426            3009     239.014E-03     251.501E-03
            2426            3010     203.879E-03     216.358E-03
            2426            3024     231.517E-03     245.163E-03
            2426            3025     197.505E-03     211.465E-03
            2427            3010     203.879E-03     216.358E-03
            2427            3011     169.058E-03     181.290E-03
            2427            3025     197.505E-03     211.465E-03
            2427            3026     163.728E-03     177.656E-03
            2428            3011     169.058E-03     181.290E-03
            2428            3012     134.381E-03     146.240E-03
            2428            3026     163.728E-03     177.656E-03
            2428            3027     130.252E-03     143.710E-03
            2429            3012     134.381E-03     146.240E-03
            2429            3013     99.9848E-03     111.062E-03
            2429            3027     130.252E-03     143.710E-03
            2429            3028     97.0187E-03     109.578E-03
            2430            3013     99.9848E-03     111.062E-03
            2430            3014     65.6384E-03     76.2206E-03
            2430            3028     97.0187E-03     109.578E-03
            2430            3029     64.4859E-03     75.3499E-03
            2431            3014     65.6384E-03     76.2206E-03
            2431            3015     32.2147E-03     42.8438E-03
            2431            3029     64.4859E-03     75.3499E-03
            2431            3030     32.3586E-03     43.2121E-03
            2432             133     16.2317E-03     28.2347E-03
            2432             134     15.9967E-03     26.5941E-03
            2432            3015     32.2147E-03     42.8438E-03
            2432            3030     32.3586E-03     43.2121E-03
            2433             277     664.379E-03     664.586E-03
            2433             278     637.633E-03     648.340E-03
            2433            3016     613.093E-03     617.811E-03
            2433            3031     601.769E-03     602.805E-03
            2434            3016     613.093E-03     617.811E-03
            2434            3017     525.434E-03     533.549E-03
            2434            3031     601.769E-03     602.805E-03
            2434            3032     546.323E-03     536.254E-03
            2435            3017     525.434E-03     533.549E-03
            2435            3018     464.783E-03     471.920E-03
            2435            3032     546.323E-03     536.254E-03
            2435            3033     505.052E-03     496.504E-03
            2436            3018     464.783E-03     471.920E-03
            2436            3019     417.791E-03     425.700E-03
            2436            3033     505.052E-03     496.504E-03
            2436            3034     465.611E-03     460.652E-03
            2437            3019     417.791E-03     425.700E-03
            2437            3020     375.731E-03     385.003E-03
            2437            3034     465.611E-03     460.652E-03
            2437            3035     428.794E-03     426.923E-03
            2438            3020     375.731E-03     385.003E-03
            2438            3021     337.566E-03     348.278E-03
            2438            3035     428.794E-03     426.923E-03
            2438            3036     392.204E-03     393.514E-03
            2439            3021     337.566E-03     348.278E-03
            2439            3022     301.127E-03     313.111E-03
            2439            3036     392.204E-03     393.514E-03
            2439            3037     356.513E-03     359.987E-03
            2440            3022     301.127E-03     313.111E-03
            2440            3023     266.017E-03     278.993E-03
            2440            3037     356.513E-03     359.987E-03
            2440            3038     320.890E-03     326.167E-03
            2441            3023     266.017E-03     278.993E-03
            2441            3024     231.517E-03     245.163E-03
            2441            3038     320.890E-03     326.167E-03
            2441            3039     285.813E-03     292.125E-03
            2442            3024     231.517E-03     245.163E-03
            2442            3025     197.505E-03     211.465E-03
            2442            3039     285.813E-03     292.125E-03
            2442            3040     251.143E-03     258.093E-03
            2443            3025     197.505E-03     211.465E-03
            2443            3026     163.728E-03     177.656E-03
            2443            3040     251.143E-03     258.093E-03
            2443            3041     217.338E-03     224.325E-03
            2444            3026     163.728E-03     177.656E-03
            2444            3027     130.252E-03     143.710E-03
            2444            3041     217.338E-03     224.325E-03
            2444            3042     184.767E-03     191.462E-03
            2445            3027     130.252E-03     143.710E-03
            2445            3028     97.0187E-03     109.578E-03
            2445            3042     184.767E-03     191.462E-03
            2445            3043     154.101E-03     159.962E-03
            2446            3028     97.0187E-03     109.578E-03
            2446            3029     64.4859E-03     75.3499E-03
            2446            3043     154.101E-03     159.962E-03
            2446            3044     126.317E-03     131.960E-03
            2447            3029     64.4859E-03     75.3499E-03
            2447            3030     32.3586E-03     43.2121E-03
            2447            3044     126.317E-03     131.960E-03
            2447            3045     99.8347E-03     111.325E-03
            2448             132     86.2882E-03     103.370E-03
            2448             133     16.2317E-03     28.2347E-03
            2448            3030     32.3586E-03     43.2121E-03
            2448            3045     99.8347E-03     111.325E-03
            2449             278     637.633E-03     648.340E-03
            2449             279     634.692E-03     619.335E-03
            2449            3031     601.769E-03     602.805E-03
            2449            3046     622.841E-03     610.011E-03
            2450            3031     601.769E-03     602.805E-03
            2450            3032     546.323E-03     536.254E-03
            2450            3046     622.841E-03     610.011E-03
            2450            3047     596.048E-03     584.971E-03
            2451            3032     546.323E-03     536.254E-03
            2451            3033     505.052E-03     496.504E-03
            2451            3047     596.048E-03     584.971E-03
            2451            3048     565.829E-03     554.579E-03
            2452            3033     505.052E-03     496.504E-03
            2452            3034     465.611E-03     460.652E-03
            2452            3048     565.829E-03     554.579E-03
            2452            3049     532.746E-03     523.339E-03
            2453            3034     465.611E-03     460.652E-03
            2453            3035     428.794E-03     426.923E-03
            2453            3049     532.746E-03     523.339E-03
            2453            3050     496.794E-03     489.847E-03
            2454            3035     428.794E-03     426.923E-03
            2454            3036     392.204E-03     393.514E-03
            2454            3050     496.794E-03     489.847E-03
            2454            3051     459.590E-03     454.809E-03
            2455            3036     392.204E-03     393.514E-03
            2455            3037     356.513E-03     359.987E-03
            2455            3051     459.590E-03     454.809E-03
            2455            3052     421.241E-03     418.289E-03
            2456            3037     356.513E-03     359.987E-03
            2456            3038     320.890E-03     326.167E-03
            2456            3052     421.241E-03     418.289E-03
            2456            3053     382.586E-03     381.008E-03
            2457            3038     320.890E-03     326.167E-03
            2457            3039     285.813E-03     292.125E-03
            2457            3053     382.586E-03     381.008E-03
            2457            3054     343.952E-03     343.274E-03
            2458            3039     285.813E-03     292.125E-03
            2458            3040     251.143E-03     258.093E-03
            2458            3054     343.952E-03     343.274E-03
            2458            3055     305.944E-03     305.819E-03
            2459            3040     251.143E-03     258.093E-03
            2459            3041     217.338E-03     224.325E-03
            2459            3055     305.944E-03     305.819E-03
            2459            3056     269.106E-03     269.217E-03
            2460            3041     217.338E-03     224.325E-03
            2460            3042     184.767E-03     191.462E-03
            2460            3056     269.106E-03     269.217E-03
            2460            3057     234.327E-03     234.619E-03
            2461            3042     184.767E-03     191.462E-03
            2461            3043     154.101E-03     159.962E-03
            2461            3057     234.327E-03     234.619E-03
            2461            3058     202.512E-03     203.543E-03
            2462            3043     154.101E-03     159.962E-03
            2462            3044     126.317E-03     131.960E-03
            2462            3058     202.512E-03     203.543E-03
            2462            3059     174.654E-03     179.890E-03
            2463            3044     126.317E-03     131.960E-03
            2463            3045     99.8347E-03     111.325E-03
            2463            3059     174.654E-03     179.890E-03
            2463            3060     153.662E-03     168.389E-03
            2464             131     145.392E-03     166.053E-03
            2464             132     86.2882E-03     103.370E-03
            2464            3045     99.8347E-03     111.325E-03
            2464            3060     153.662E-03     168.389E-03
            2465             279     634.692E-03     619.335E-03
            2465             280     670.104E-03     667.969E-03
            2465            3046     622.841E-03     610.011E-03
            2465            3061     656.195E-03     658.665E-03
            2466            3046     622.841E-03     610.011E-03
            2466            3047     596.048E-03     584.971E-03
            2466            3061     656.195E-03     658.665E-03
            2466            3062     625.755E-03     631.873E-03
            2467            3047     596.048E-03     584.971E-03
            2467            3048     565.829E-03     554.579E-03
            2467            3062     625.755E-03     631.873E-03
            2467            3063     591.306E-03     595.374E-03
            2468            3048     565.829E-03     554.579E-03
            2468            3049     532.746E-03     523.339E-03
            2468            3063     591.306E-03     595.374E-03
            2468            3064     554.138E-03     556.330E-03
            2469            3049     532.746E-03     523.339E-03
            2469            3050     496.794E-03     489.847E-03
            2469            3064     554.138E-03     556.330E-03
            2469            3065     514.369E-03     515.589E-03
            2470            3050     496.794E-03     489.847E-03
            2470            3051     459.590E-03     454.809E-03
            2470            3065     514.369E-03     515.589E-03
            2470            3066     472.741E-03     473.854E-03
            2471            3051     459.590E-03     454.809E-03
            2471            3052     421.241E-03     418.289E-03
            2471            3066     472.741E-03     473.854E-03
            2471            3067     430.302E-03     431.547E-03
            2472            3052     421.241E-03     418.289E-03
            2472            3053     382.586E-03     381.008E-03
            2472            3067     430.302E-03     431.547E-03
            2472            3068     387.532E-03     389.019E-03
            2473            3053     382.586E-03     381.008E-03
            2473            3054     343.952E-03     343.274E-03
            2473            3068     387.532E-03     389.019E-03
            2473            3069     344.915E-03     346.710E-03
            2474            3054     343.952E-03     343.274E-03
            2474            3055     305.944E-03     305.819E-03
            2474            3069     344.915E-03     346.710E-03
            2474            3070     302.917E-03     304.946E-03
            2475            3055     305.944E-03     305.819E-03
            2475            3056     269.106E-03     269.217E-03
            2475            3070     302.917E-03     304.946E-03
            2475            3071     261.883E-03     264.378E-03
            2476            3056     269.106E-03     269.217E-03
            2476            3057     234.327E-03     234.619E-03
            2476            3071     261.883E-03     264.378E-03
            2476            3072     222.563E-03     225.868E-03
            2477            3057     234.327E-03     234.619E-03
            2477            3058     202.512E-03     203.543E-03
            2477            3072     222.563E-03     225.868E-03
            2477            3073     185.603E-03     191.258E-03
            2478            3058     202.512E-03     203.543E-03
            2478            3059     174.654E-03     179.890E-03
            2478            3073     185.603E-03     191.258E-03
            2478            3074     153.328E-03     164.151E-03
            2479            3059     174.654E-03     179.890E-03
            2479            3060     153.662E-03     168.389E-03
            2479            3074     153.328E-03     164.151E-03
            2479            3075     133.973E-03     143.133E-03
            2480             130     129.042E-03     133.256E-03
            2480             131     145.392E-03     166.053E-03
            2480            3060     153.662E-03     168.389E-03
            2480            3075     133.973E-03     143.133E-03
            2481             280     670.104E-03     667.969E-03
            2481             281     701.164E-03     706.831E-03
            2481            3061     656.195E-03     658.665E-03
            2481            3076     684.848E-03     693.148E-03
            2482            3061     656.195E-03     658.665E-03
            2482            3062     625.755E-03     631.873E-03
            2482            3076     684.848E-03     693.148E-03
            2482            3077     650.970E-03     663.074E-03
            2483            3062     625.755E-03     631.873E-03
            2483            3063     591.306E-03     595.374E-03
            2483            3077     650.970E-03     663.074E-03
            2483            3078     613.092E-03     625.688E-03
            2484            3063     591.306E-03     595.374E-03
            2484            3064     554.138E-03     556.330E-03
            2484            3078     613.092E-03     625.688E-03
            2484            3079     571.811E-03     582.338E-03
            2485            3064     554.138E-03     556.330E-03
            2485            3065     514.369E-03     515.589E-03
            2485            3079     571.811E-03     582.338E-03
            2485            3080     528.317E-03     536.716E-03
            2486            3065     514.369E-03     515.589E-03
            2486            3066     472.741E-03     473.854E-03
            2486            3080     528.317E-03     536.716E-03
            2486            3081     483.164E-03     490.031E-03
            2487            3066     472.741E-03     473.854E-03
            2487            3067     430.302E-03     431.547E-03
            2487            3081     483.164E-03     490.031E-03
            2487            3082     437.418E-03     443.187E-03
            2488            3067     430.302E-03     431.547E-03
            2488            3068     387.532E-03     389.019E-03
            2488            3082     437.418E-03     443.187E-03
            2488            3083     391.436E-03     396.612E-03
            2489            3068     387.532E-03     389.019E-03
            2489            3069     344.915E-03     346.710E-03
            2489            3083     391.436E-03     396.612E-03
            2489            3084     345.792E-03     350.628E-03
            2490            3069     344.915E-03     346.710E-03
            2490            3070     302.917E-03     304.946E-03
            2490            3084     345.792E-03     350.628E-03
            2490            3085     300.585E-03     305.471E-03
            2491            3070     302.917E-03     304.946E-03
            2491            3071     261.883E-03     264.378E-03
            2491            3085     300.585E-03     305.471E-03
            2491            3086     256.271E-03     261.584E-03
            2492            3071     261.883E-03     264.378E-03
            2492            3072     222.563E-03     225.868E-03
            2492            3086     256.271E-03     261.584E-03
            2492            3087     213.164E-03     219.597E-03
            2493            3072     222.563E-03     225.868E-03
            2493            3073     185.603E-03     191.258E-03
            2493            3087     213.164E-03     219.597E-03
            2493            3088     172.318E-03     181.212E-03
            2494            3073     185.603E-03     191.258E-03
            2494            3074     153.328E-03     164.151E-03
            2494            3088     172.318E-03     181.212E-03
            2494            3089     137.553E-03     146.932E-03
            2495            3074     153.328E-03     164.151E-03
            2495            3075     133.973E-03     143.133E-03
            2495            3089     137.553E-03     146.932E-03
            2495            3090     113.691E-03     118.560E-03
            2496             129     104.963E-03     106.503E-03
            2496             130     129.042E-03     133.256E-03
            2496            3075     133.973E-03     143.133E-03
            2496            3090     113.691E-03     118.560E-03
            2497             281     701.164E-03     706.831E-03
            2497             282     730.325E-03     730.586E-03
            2497            3076     684.848E-03     693.148E-03
            2497            3091     710.858E-03     717.305E-03
            2498            3076     684.848E-03     693.148E-03
            2498            3077     650.970E-03     663.074E-03
            2498            3091     710.858E-03     717.305E-03
            2498            3092     671.273E-03     685.704E-03
            2499            3077     650.970E-03     663.074E-03
            2499            3078     613.092E-03     625.688E-03
            2499            3092     671.273E-03     685.704E-03
            2499            3093     629.847E-03     645.803E-03
            2500            3078     613.092E-03     625.688E-03
            2500            3079     571.811E-03     582.338E-03
            2500            3093     629.847E-03     645.803E-03
            2500            3094     584.676E-03     600.045E-03
            2501            3079     571.811E-03     582.338E-03
            2501            3080     528.317E-03     536.716E-03
            2501            3094     584.676E-03     600.045E-03
            2501            3095     537.398E-03     550.952E-03
            2502            3080     528.317E-03     536.716E-03
            2502            3081     483.164E-03     490.031E-03
            2502            3095     537.398E-03     550.952E-03
            2502            3096     489.471E-03     500.842E-03
            2503            3081     483.164E-03     490.031E-03
            2503            3082     437.418E-03     443.187E-03
            2503            3096     489.471E-03     500.842E-03
            2503            3097     441.030E-03     450.869E-03
            2504            3082     437.418E-03     443.187E-03
            2504            3083     391.436E-03     396.612E-03
            2504            3097     441.030E-03     450.869E-03
            2504            3098     392.989E-03     401.586E-03
            2505            3083     391.436E-03     396.612E-03
            2505            3084     345.792E-03     350.628E-03
            2505            3098     392.989E-03     401.586E-03
            2505            3099     345.137E-03     353.062E-03
            2506            3084     345.792E-03     350.628E-03
            2506            3085     300.585E-03     305.471E-03
            2506            3099     345.137E-03     353.062E-03
            2506            3100     297.843E-03     305.560E-03
            2507            3085     300.585E-03     305.471E-03
            2507            3086     256.271E-03     261.584E-03
            2507            3100     297.843E-03     305.560E-03
            2507            3101     251.140E-03     259.166E-03
            2508            3086     256.271E-03     261.584E-03
            2508            3087     213.164E-03     219.597E-03
            2508            3101     251.140E-03     259.166E-03
            2508            3102     205.408E-03     214.452E-03
            2509            3087     213.164E-03     219.597E-03
            2509            3088     172.318E-03     181.212E-03
            2509            3102     205.408E-03     214.452E-03
            2509            3103     161.867E-03     171.869E-03
            2510            3088     172.318E-03     181.212E-03
            2510            3089     137.553E-03     146.932E-03
            2510            3103     161.867E-03     171.869E-03
            2510            3104     123.077E-03     132.007E-03
            2511            3089     137.553E-03     146.932E-03
            2511            3090     113.691E-03     118.560E-03
            2511            3104     123.077E-03     132.007E-03
            2511            3105     94.8428E-03     99.9839E-03
            2512             128     84.4397E-03     87.0458E-03
            2512             129     104.963E-03     106.503E-03
            2512            3090     113.691E-03     118.560E-03
            2512            3105     94.8428E-03     99.9839E-03
            2513             282     730.325E-03     730.586E-03
            2513             283     751.218E-03     758.767E-03
            2513            3091     710.858E-03     717.305E-03
            2513            3106     731.443E-03     740.389E-03
            2514            3091     710.858E-03     717.305E-03
            2514            3092     671.273E-03     685.704E-03
            2514            3106     731.443E-03     740.389E-03
            2514            3107     689.019E-03     702.360E-03
            2515            3092     671.273E-03     685.704E-03
            2515            3093     629.847E-03     645.803E-03
            2515            3107     689.019E-03     702.360E-03
            2515            3108     641.310E-03     658.952E-03
            2516            3093     629.847E-03     645.803E-03
            2516            3094     584.676E-03     600.045E-03
            2516            3108     641.310E-03     658.952E-03
            2516            3109     591.751E-03     609.567E-03
            2517            3094     584.676E-03     600.045E-03
            2517            3095     537.398E-03     550.952E-03
            2517            3109     591.751E-03     609.567E-03
            2517            3110     541.219E-03     557.475E-03
            2518            3095     537.398E-03     550.952E-03
            2518            3096     489.471E-03     500.842E-03
            2518            3110     541.219E-03     557.475E-03
            2518            3111     490.491E-03     505.095E-03
            2519            3096     489.471E-03     500.842E-03
            2519            3097     441.030E-03     450.869E-03
            2519            3111     490.491E-03     505.095E-03
            2519            3112     440.770E-03     453.474E-03
            2520            3097     441.030E-03     450.869E-03
            2520            3098     392.989E-03     401.586E-03
            2520            3112     440.770E-03     453.474E-03
            2520            3113     391.281E-03     402.680E-03
            2521            3098     392.989E-03     401.586E-03
            2521            3099     345.137E-03     353.062E-03
            2521            3113     391.281E-03     402.680E-03
            2521            3114     342.407E-03     352.928E-03
            2522            3099     345.137E-03     353.062E-03
            2522            3100     297.843E-03     305.560E-03
            2522            3114     342.407E-03     352.928E-03
            2522            3115     293.898E-03     304.023E-03
            2523            3100     297.843E-03     305.560E-03
            2523            3101     251.140E-03     259.166E-03
            2523            3115     293.898E-03     304.023E-03
            2523            3116     245.860E-03     256.150E-03
            2524            3101     251.140E-03     259.166E-03
            2524            3102     205.408E-03     214.452E-03
            2524            3116     245.860E-03     256.150E-03
            2524            3117     198.566E-03     209.395E-03
            2525            3102     205.408E-03     214.452E-03
            2525            3103     161.867E-03     171.869E-03
            2525            3117     198.566E-03     209.395E-03
            2525            3118     152.782E-03     163.647E-03
            2526            3103     161.867E-03     171.869E-03
            2526            3104     123.077E-03     132.007E-03
            2526            3118     152.782E-03     163.647E-03
            2526            3119     110.186E-03     120.571E-03
            2527            3104     123.077E-03     132.007E-03
            2527            3105     94.8428E-03     99.9839E-03
            2527            3119     110.186E-03     120.571E-03
            2527            3120     77.0507E-03     82.7843E-03
            2528             127     64.0824E-03     65.4530E-03
            2528             128     84.4397E-03     87.0458E-03
            2528            3105     94.8428E-03     99.9839E-03
            2528            3120     77.0507E-03     82.7843E-03
            2529             283     751.218E-03     758.767E-03
            2529             284     777.441E-03     777.846E-03
            2529            3106     731.443E-03     740.389E-03
            2529            3121     752.733E-03     759.541E-03
            2530            3106     731.443E-03     740.389E-03
            2530            3107     689.019E-03     702.360E-03
            2530            3121     752.733E-03     759.541E-03
            2530            3122     701.387E-03     716.658E-03
            2531            3107     689.019E-03     702.360E-03
            2531            3108     641.310E-03     658.952E-03
            2531            3122     701.387E-03     716.658E-03
            2531            3123     647.856E-03     665.410E-03
            2532            3108     641.310E-03     658.952E-03
            2532            3109     591.751E-03     609.567E-03
            2532            3123     647.856E-03     665.410E-03
            2532            3124     592.524E-03     610.752E-03
            2533            3109     591.751E-03     609.567E-03
            2533            3110     541.219E-03     557.475E-03
            2533            3124     592.524E-03     610.752E-03
            2533            3125     538.317E-03     555.994E-03
            2534            3110     541.219E-03     557.475E-03
            2534            3111     490.491E-03     505.095E-03
            2534            3125     538.317E-03     555.994E-03
            2534            3126     486.772E-03     502.726E-03
            2535            3111     490.491E-03     505.095E-03
            2535            3112     440.770E-03     453.474E-03
            2535            3126     486.772E-03     502.726E-03
            2535            3127     436.107E-03     450.598E-03
            2536            3112     440.770E-03     453.474E-03
            2536            3113     391.281E-03     402.680E-03
            2536            3127     436.107E-03     450.598E-03
            2536            3128     386.487E-03     399.760E-03
            2537            3113     391.281E-03     402.680E-03
            2537            3114     342.407E-03     352.928E-03
            2537            3128     386.487E-03     399.760E-03
            2537            3129     337.322E-03     349.773E-03
            2538            3114     342.407E-03     352.928E-03
            2538            3115     293.898E-03     304.023E-03
            2538            3129     337.322E-03     349.773E-03
            2538            3130     288.570E-03     300.624E-03
            2539            3115     293.898E-03     304.023E-03
            2539            3116     245.860E-03     256.150E-03
            2539            3130     288.570E-03     300.624E-03
            2539            3131     240.164E-03     252.117E-03
            2540            3116     245.860E-03     256.150E-03
            2540            3117     198.566E-03     209.395E-03
            2540            3131     240.164E-03     252.117E-03
            2540            3132     192.137E-03     204.193E-03
            2541            3117     198.566E-03     209.395E-03
            2541            3118     152.782E-03     163.647E-03
            2541            3132     192.137E-03     204.193E-03
            2541            3133     144.758E-03     157.258E-03
            2542            3118     152.782E-03     163.647E-03
            2542            3119     110.186E-03     120.571E-03
            2542            3133     144.758E-03     157.258E-03
            2542            3134     99.4604E-03     110.943E-03
            2543            3119     110.186E-03     120.571E-03
            2543            3120     77.0507E-03     82.7843E-03
            2543            3134     99.4604E-03     110.943E-03
            2543            3135     60.4646E-03     68.5506E-03
            2544             126     43.3301E-03     49.3238E-03
            2544             127     64.0824E-03     65.4530E-03
            2544            3120     77.0507E-03     82.7843E-03
            2544            3135     60.4646E-03     68.5506E-03
            2545             284     777.441E-03     777.846E-03
            2545             285     795.481E-03     806.908E-03
            2545            3121     752.733E-03     759.541E-03
            2545            3136     768.783E-03     780.306E-03
            2546            3121     752.733E-03     759.541E-03
            2546            3122     701.387E-03     716.658E-03
            2546            3136     768.783E-03     780.306E-03
            2546            3137     710.887E-03     724.261E-03
            2547            3122     701.387E-03     716.658E-03
            2547            3123     647.856E-03     665.410E-03
            2547            3137     710.887E-03     724.261E-03
            2547            3138     646.178E-03     662.765E-03
            2548            3123     647.856E-03     665.410E-03
            2548            3124     592.524E-03     610.752E-03
            2548            3138     646.178E-03     662.765E-03
            2548            3139     584.671E-03     602.510E-03
            2549            3124     592.524E-03     610.752E-03
            2549            3125     538.317E-03     555.994E-03
            2549            3139     584.671E-03     602.510E-03
            2549            3140     530.050E-03     547.075E-03
            2550            3125     538.317E-03     555.994E-03
            2550            3126     486.772E-03     502.726E-03
            2550            3140     530.050E-03     547.075E-03
            2550            3141     478.043E-03     494.027E-03
            2551            3126     486.772E-03     502.726E-03
            2551            3127     436.107E-03     450.598E-03
            2551            3141     478.043E-03     494.027E-03
            2551            3142     427.945E-03     443.039E-03
            2552            3127     436.107E-03     450.598E-03
            2552            3128     386.487E-03     399.760E-03
            2552            3142     427.945E-03     443.039E-03
            2552            3143     378.833E-03     393.176E-03
            2553            3128     386.487E-03     399.760E-03
            2553            3129     337.322E-03     349.773E-03
            2553            3143     378.833E-03     393.176E-03
            2553            3144     330.279E-03     344.155E-03
            2554            3129     337.322E-03     349.773E-03
            2554            3130     288.570E-03     300.624E-03
            2554            3144     330.279E-03     344.155E-03
            2554            3145     282.077E-03     295.629E-03
            2555            3130     288.570E-03     300.624E-03
            2555            3131     240.164E-03     252.117E-03
            2555            3145     282.077E-03     295.629E-03
            2555            3146     234.076E-03     247.433E-03
            2556            3131     240.164E-03     252.117E-03
            2556            3132     192.137E-03     204.193E-03
            2556            3146     234.076E-03     247.433E-03
            2556            3147     186.268E-03     199.507E-03
            2557            3132     192.137E-03     204.193E-03
            2557            3133     144.758E-03     157.258E-03
            2557            3147     186.268E-03     199.507E-03
            2557            3148     138.586E-03     151.881E-03
            2558            3133     144.758E-03     157.258E-03
            2558            3134     99.4604E-03     110.943E-03
            2558            3148     138.586E-03     151.881E-03
            2558            3149     91.1103E-03     105.184E-03
            2559            3134     99.4604E-03     110.943E-03
            2559            3135     60.4646E-03     68.5506E-03
            2559            3149     91.1103E-03     105.184E-03
            2559            3150     47.1420E-03     58.4653E-03
            2560             125     26.8196E-03     34.7454E-03
            2560             126     43.3301E-03     49.3238E-03
            2560            3135     60.4646E-03     68.5506E-03
            2560            3150     47.1420E-03     58.4653E-03
            2561             285     795.481E-03     806.908E-03
            2561             286     821.701E-03     818.694E-03
            2561            3136     768.783E-03     780.306E-03
            2561            3151     786.782E-03     789.598E-03
            2562            3136     768.783E-03     780.306E-03
            2562            3137     710.887E-03     724.261E-03
            2562            3151     786.782E-03     789.598E-03
            2562            3152     707.904E-03     719.350E-03
            2563            3137     710.887E-03     724.261E-03
            2563            3138     646.178E-03     662.765E-03
            2563            3152     707.904E-03     719.350E-03
            2563            3153     631.285E-03     646.116E-03
            2564            3138     646.178E-03     662.765E-03
            2564            3139     584.671E-03     602.510E-03
            2564            3153     631.285E-03     646.116E-03
            2564            3154     570.861E-03     585.733E-03
            2565            3139     584.671E-03     602.510E-03
            2565            3140     530.050E-03     547.075E-03
            2565            3154     570.861E-03     585.733E-03
            2565            3155     516.751E-03     531.373E-03
            2566            3140     530.050E-03     547.075E-03
            2566            3141     478.043E-03     494.027E-03
            2566            3155     516.751E-03     531.373E-03
            2566            3156     465.885E-03     480.713E-03
            2567            3141     478.043E-03     494.027E-03
            2567            3142     427.945E-03     443.039E-03
            2567            3156     465.885E-03     480.713E-03
            2567            3157     417.140E-03     431.997E-03
            2568            3142     427.945E-03     443.039E-03
            2568            3143     378.833E-03     393.176E-03
            2568            3157     417.140E-03     431.997E-03
            2568            3158     369.249E-03     384.274E-03
            2569            3143     378.833E-03     393.176E-03
            2569            3144     330.279E-03     344.155E-03
            2569            3158     369.249E-03     384.274E-03
            2569            3159     321.999E-03     337.081E-03
            2570            3144     330.279E-03     344.155E-03
            2570            3145     282.077E-03     295.629E-03
            2570            3159     321.999E-03     337.081E-03
            2570            3160     274.995E-03     290.035E-03
            2571            3145     282.077E-03     295.629E-03
            2571            3146     234.076E-03     247.433E-03
            2571            3160     274.995E-03     290.035E-03
            2571            3161     228.190E-03     243.062E-03
            2572            3146     234.076E-03     247.433E-03
            2572            3147     186.268E-03     199.507E-03
            2572            3161     228.190E-03     243.062E-03
            2572            3162     181.532E-03     196.011E-03
            2573            3147     186.268E-03     199.507E-03
            2573            3148     138.586E-03     151.881E-03
            2573            3162     181.532E-03     196.011E-03
            2573            3163     135.002E-03     148.917E-03
            2574            3148     138.586E-03     151.881E-03
            2574            3149     91.1103E-03     105.184E-03
            2574            3163     135.002E-03     148.917E-03
            2574            3164     88.2298E-03     102.693E-03
            2575            3149     91.1103E-03     105.184E-03
            2575            3150     47.1420E-03     58.4653E-03
            2575            3164     88.2298E-03     102.693E-03
            2575            3165     42.6499E-03     58.6792E-03
            2576             124     20.5831E-03     37.3309E-03
            2576             125     26.8196E-03     34.7454E-03
            2576            3150     47.1420E-03     58.4653E-03
            2576            3165     42.6499E-03     58.6792E-03
            2577             286     821.701E-03     818.694E-03
            2577             287     842.256E-03     840.358E-03
            2577            3151     786.782E-03     789.598E-03
            2577            3166     783.704E-03     787.319E-03
            2578            3151     786.782E-03     789.598E-03
            2578            3152     707.904E-03     719.350E-03
            2578            3166     783.704E-03     787.319E-03
            2578            3167     682.387E-03     690.509E-03
            2579            3152     707.904E-03     719.350E-03
            2579            3153     631.285E-03     646.116E-03
            2579            3167     682.387E-03     690.509E-03
            2579            3168     610.472E-03     617.925E-03
            2580            3153     631.285E-03     646.116E-03
            2580            3154     570.861E-03     585.733E-03
            2580            3168     610.472E-03     617.925E-03
            2580            3169     553.249E-03     562.098E-03
            2581            3154     570.861E-03     585.733E-03
            2581            3155     516.751E-03     531.373E-03
            2581            3169     553.249E-03     562.098E-03
            2581            3170     500.728E-03     511.709E-03
            2582            3155     516.751E-03     531.373E-03
            2582            3156     465.885E-03     480.713E-03
            2582            3170     500.728E-03     511.709E-03
            2582            3171     452.155E-03     465.093E-03
            2583            3156     465.885E-03     480.713E-03
            2583            3157     417.140E-03     431.997E-03
            2583            3171     452.155E-03     465.093E-03
            2583            3172     404.986E-03     419.606E-03
            2584            3157     417.140E-03     431.997E-03
            2584            3158     369.249E-03     384.274E-03
            2584            3172     404.986E-03     419.606E-03
            2584            3173     359.025E-03     374.878E-03
            2585            3158     369.249E-03     384.274E-03
            2585            3159     321.999E-03     337.081E-03
            2585            3173     359.025E-03     374.878E-03
            2585            3174     313.489E-03     330.103E-03
            2586            3159     321.999E-03     337.081E-03
            2586            3160     274.995E-03     290.035E-03
            2586            3174     313.489E-03     330.103E-03
            2586            3175     268.353E-03     285.317E-03
            2587            3160     274.995E-03     290.035E-03
            2587            3161     228.190E-03     243.062E-03
            2587            3175     268.353E-03     285.317E-03
            2587            3176     223.471E-03     240.254E-03
            2588            3161     228.190E-03     243.062E-03
            2588            3162     181.532E-03     196.011E-03
            2588            3176     223.471E-03     240.254E-03
            2588            3177     178.962E-03     195.074E-03
            2589            3162     181.532E-03     196.011E-03
            2589            3163     135.002E-03     148.917E-03
            2589            3177     178.962E-03     195.074E-03
            2589            3178     135.086E-03     149.886E-03
            2590            3163     135.002E-03     148.917E-03
            2590            3164     88.2298E-03     102.693E-03
            2590            3178     135.086E-03     149.886E-03
            2590            3179     92.6377E-03     105.350E-03
            2591            3164     88.2298E-03     102.693E-03
            2591            3165     42.6499E-03     58.6792E-03
            2591            3179     92.6377E-03     105.350E-03
            2591            3180     52.8606E-03     66.9285E-03
            2592             123     33.8013E-03     50.4638E-03
            2592             124     20.5831E-03     37.3309E-03
            2592            3165     42.6499E-03     58.6792E-03
            2592            3180     52.8606E-03     66.9285E-03
            2593             287     842.256E-03     840.358E-03
            2593             288     810.716E-03     826.344E-03
            2593            3166     783.704E-03     787.319E-03
            2593            3181     767.135E-03     771.646E-03
            2594            3166     783.704E-03     787.319E-03
            2594            3167     682.387E-03     690.509E-03
            2594            3181     767.135E-03     771.646E-03
            2594            3182     700.485E-03     691.984E-03
            2595            3167     682.387E-03     690.509E-03
            2595            3168     610.472E-03     617.925E-03
            2595            3182     700.485E-03     691.984E-03
            2595            3183     649.708E-03     643.648E-03
            2596            3168     610.472E-03     617.925E-03
            2596            3169     553.249E-03     562.098E-03
            2596            3183     649.708E-03     643.648E-03
            2596            3184     598.907E-03     597.425E-03
            2597            3169     553.249E-03     562.098E-03
            2597            3170     500.728E-03     511.709E-03
            2597            3184     598.907E-03     597.425E-03
            2597            3185     550.751E-03     552.364E-03
            2598            3170     500.728E-03     511.709E-03
            2598            3171     452.155E-03     465.093E-03
            2598            3185     550.751E-03     552.364E-03
            2598            3186     502.322E-03     506.697E-03
            2599            3171     452.155E-03     465.093E-03
            2599            3172     404.986E-03     419.606E-03
            2599            3186     502.322E-03     506.697E-03
            2599            3187     454.710E-03     460.541E-03
            2600            3172     404.986E-03     419.606E-03
            2600            3173     359.025E-03     374.878E-03
            2600            3187     454.710E-03     460.541E-03
            2600            3188     407.020E-03     414.097E-03
            2601            3173     359.025E-03     374.878E-03
            2601            3174     313.489E-03     330.103E-03
            2601            3188     407.020E-03     414.097E-03
            2601            3189     359.676E-03     367.242E-03
            2602            3174     313.489E-03     330.103E-03
            2602            3175     268.353E-03     285.317E-03
            2602            3189     359.676E-03     367.242E-03
            2602            3190     312.483E-03     320.477E-03
            2603            3175     268.353E-03     285.317E-03
            2603            3176     223.471E-03     240.254E-03
            2603            3190     312.483E-03     320.477E-03
            2603            3191     265.942E-03     273.865E-03
            2604            3176     223.471E-03     240.254E-03
            2604            3177     178.962E-03     195.074E-03
            2604            3191     265.942E-03     273.865E-03
            2604            3192     220.515E-03     228.130E-03
            2605            3177     178.962E-03     195.074E-03
            2605            3178     135.086E-03     149.886E-03
            2605            3192     220.515E-03     228.130E-03
            2605            3193     177.197E-03     183.745E-03
            2606            3178     135.086E-03     149.886E-03
            2606            3179     92.6377E-03     105.350E-03
            2606            3193     177.197E-03     183.745E-03
            2606            3194     137.999E-03     143.606E-03
            2607            3179     92.6377E-03     105.350E-03
            2607            3180     52.8606E-03     66.9285E-03
            2607            3194     137.999E-03     143.606E-03
            2607            3195     103.416E-03     113.498E-03
            2608             122     86.8958E-03     101.919E-03
            2608             123     33.8013E-03     50.4638E-03
            2608            3180     52.8606E-03     66.9285E-03
            2608            3195     103.416E-03     113.498E-03
            2609             288     810.716E-03     826.344E-03
            2609             289     807.052E-03     797.339E-03
            2609            3181     767.135E-03     771.646E-03
            2609            3196     791.246E-03     783.845E-03
            2610            3181     767.135E-03     771.646E-03
            2610            3182     700.485E-03     691.984E-03
            2610            3196     791.246E-03     783.845E-03
            2610            3197     754.380E-03     749.268E-03
            2611            3182     700.485E-03     691.984E-03
            2611            3183     649.708E-03     643.648E-03
            2611            3197     754.380E-03     749.268E-03
            2611            3198     711.190E-03     707.055E-03
            2612            3183     649.708E-03     643.648E-03
            2612            3184     598.907E-03     597.425E-03
            2612            3198     711.190E-03     707.055E-03
            2612            3199     664.472E-03     661.595E-03
            2613            3184     598.907E-03     597.425E-03
            2613            3185     550.751E-03     552.364E-03
            2613            3199     664.472E-03     661.595E-03
            2613            3200     614.018E-03     612.543E-03
            2614            3185     550.751E-03     552.364E-03
            2614            3186     502.322E-03     506.697E-03
            2614            3200     614.018E-03     612.543E-03
            2614            3201     562.526E-03     562.103E-03
            2615            3186     502.322E-03     506.697E-03
            2615            3187     454.710E-03     460.541E-03
            2615            3201     562.526E-03     562.103E-03
            2615            3202     510.681E-03     510.550E-03
            2616            3187     454.710E-03     460.541E-03
            2616            3188     407.020E-03     414.097E-03
            2616            3202     510.681E-03     510.550E-03
            2616            3203     458.512E-03     458.661E-03
            2617            3188     407.020E-03     414.097E-03
            2617            3189     359.676E-03     367.242E-03
            2617            3203     458.512E-03     458.661E-03
            2617            3204     406.484E-03     406.624E-03
            2618            3189     359.676E-03     367.242E-03
            2618            3190     312.483E-03     320.477E-03
            2618            3204     406.484E-03     406.624E-03
            2618            3205     354.720E-03     354.931E-03
            2619            3190     312.483E-03     320.477E-03
            2619            3191     265.942E-03     273.865E-03
            2619            3205     354.720E-03     354.931E-03
            2619            3206     303.727E-03     303.917E-03
            2620            3191     265.942E-03     273.865E-03
            2620            3192     220.515E-03     228.130E-03
            2620            3206     303.727E-03     303.917E-03
            2620            3207     254.231E-03     254.538E-03
            2621            3192     220.515E-03     228.130E-03
            2621            3193     177.197E-03     183.745E-03
            2621            3207     254.231E-03     254.538E-03
            2621            3208     207.322E-03     207.939E-03
            2622            3193     177.197E-03     183.745E-03
            2622            3194     137.999E-03     143.606E-03
            2622            3208     207.322E-03     207.939E-03
            2622            3209     164.986E-03     168.113E-03
            2623            3194     137.999E-03     143.606E-03
            2623            3195     103.416E-03     113.498E-03
            2623            3209     164.986E-03     168.113E-03
            2623            3210     131.802E-03     143.466E-03
            2624             121     118.233E-03     136.121E-03
            2624             122     86.8958E-03     101.919E-03
            2624            3195     103.416E-03     113.498E-03
            2624            3210     131.802E-03     143.466E-03
            2625             289     807.052E-03     797.339E-03
            2625             290     848.168E-03     845.846E-03
            2625            3196     791.246E-03     783.845E-03
            2625            3211     829.632E-03     836.372E-03
            2626            3196     791.246E-03     783.845E-03
            2626            3197     754.380E-03     749.268E-03
            2626            3211     829.632E-03     836.372E-03
            2626            3212     785.204E-03     799.953E-03
            2627            3197     754.380E-03     749.268E-03
            2627            3198     711.190E-03     707.055E-03
            2627            3212     785.204E-03     799.953E-03
            2627            3213     733.288E-03     744.333E-03
            2628            3198     711.190E-03     707.055E-03
            2628            3199     664.472E-03     661.595E-03
            2628            3213     733.288E-03     744.333E-03
            2628            3214     678.260E-03     686.161E-03
            2629            3199     664.472E-03     661.595E-03
            2629            3200     614.018E-03     612.543E-03
            2629            3214     678.260E-03     686.161E-03
            2629            3215     621.655E-03     628.147E-03
            2630            3200     614.018E-03     612.543E-03
            2630            3201     562.526E-03     562.103E-03
            2630            3215     621.655E-03     628.147E-03
            2630            3216     565.896E-03     571.527E-03
            2631            3201     562.526E-03     562.103E-03
            2631            3202     510.681E-03     510.550E-03
            2631            3216     565.896E-03     571.527E-03
            2631            3217     510.133E-03     515.555E-03
            2632            3202     510.681E-03     510.550E-03
            2632            3203     458.512E-03     458.661E-03
            2632            3217     510.133E-03     515.555E-03
            2632            3218     454.891E-03     460.168E-03
            2633            3203     458.512E-03     458.661E-03
            2633            3204     406.484E-03     406.624E-03
            2633            3218     454.891E-03     460.168E-03
            2633            3219     399.965E-03     405.219E-03
            2634            3204     406.484E-03     406.624E-03
            2634            3205     354.720E-03     354.931E-03
            2634            3219     399.965E-03     405.219E-03
            2634            3220     345.594E-03     350.687E-03
            2635            3205     354.720E-03     354.931E-03
            2635            3206     303.727E-03     303.917E-03
            2635            3220     345.594E-03     350.687E-03
            2635            3221     291.796E-03     296.809E-03
            2636            3206     303.727E-03     303.917E-03
            2636            3207     254.231E-03     254.538E-03
            2636            3221     291.796E-03     296.809E-03
            2636            3222     239.006E-03     244.057E-03
            2637            3207     254.231E-03     254.538E-03
            2637            3208     207.322E-03     207.939E-03
            2637            3222     239.006E-03     244.057E-03
            2637            3223     187.620E-03     193.776E-03
            2638            3208     207.322E-03     207.939E-03
            2638            3209     164.986E-03     168.113E-03
            2638            3223     187.620E-03     193.776E-03
            2638            3224     139.530E-03     149.530E-03
            2639            3209     164.986E-03     168.113E-03
            2639            3210     131.802E-03     143.466E-03
            2639            3224     139.530E-03     149.530E-03
            2639            3225     104.494E-03     113.081E-03
            2640             120     92.2352E-03     96.5685E-03
            2640             121     118.233E-03     136.121E-03
            2640            3210     131.802E-03     143.466E-03
            2640            3225     104.494E-03     113.081E-03
            2641             290     848.168E-03     845.846E-03
            2641             291     876.310E-03     895.797E-03
            2641            3211     829.632E-03     836.372E-03
            2641            3226     854.589E-03     874.340E-03
            2642            3211     829.632E-03     836.372E-03
            2642            3212     785.204E-03     799.953E-03
            2642            3226     854.589E-03     874.340E-03
            2642            3227     805.199E-03     824.947E-03
            2643            3212     785.204E-03     799.953E-03
            2643            3213     733.288E-03     744.333E-03
            2643            3227     805.199E-03     824.947E-03
            2643            3228     743.213E-03     762.291E-03
            2644            3213     733.288E-03     744.333E-03
            2644            3214     678.260E-03     686.161E-03
            2644            3228     743.213E-03     762.291E-03
            2644            3229     680.228E-03     696.572E-03
            2645            3214     678.260E-03     686.161E-03
            2645            3215     621.655E-03     628.147E-03
            2645            3229     680.228E-03     696.572E-03
            2645            3230     622.119E-03     635.263E-03
            2646            3215     621.655E-03     628.147E-03
            2646            3216     565.896E-03     571.527E-03
            2646            3230     622.119E-03     635.263E-03
            2646            3231     564.094E-03     575.712E-03
            2647            3216     565.896E-03     571.527E-03
            2647            3217     510.133E-03     515.555E-03
            2647            3231     564.094E-03     575.712E-03
            2647            3232     506.921E-03     517.872E-03
            2648            3217     510.133E-03     515.555E-03
            2648            3218     454.891E-03     460.168E-03
            2648            3232     506.921E-03     517.872E-03
            2648            3233     450.094E-03     460.810E-03
            2649            3218     454.891E-03     460.168E-03
            2649            3219     399.965E-03     405.219E-03
            2649            3233     450.094E-03     460.810E-03
            2649            3234     393.735E-03     404.308E-03
            2650            3219     399.965E-03     405.219E-03
            2650            3220     345.594E-03     350.687E-03
            2650            3234     393.735E-03     404.308E-03
            2650            3235     337.726E-03     348.198E-03
            2651            3220     345.594E-03     350.687E-03
            2651            3221     291.796E-03     296.809E-03
            2651            3235     337.726E-03     348.198E-03
            2651            3236     282.195E-03     292.546E-03
            2652            3221     291.796E-03     296.809E-03
            2652            3222     239.006E-03     244.057E-03
            2652            3236     282.195E-03     292.546E-03
            2652            3237     227.068E-03     237.464E-03
            2653            3222     239.006E-03     244.057E-03
            2653            3223     187.620E-03     193.776E-03
            2653            3237     227.068E-03     237.464E-03
            2653            3238     172.469E-03     184.146E-03
            2654            3223     187.620E-03     193.776E-03
            2654            3224     139.530E-03     149.530E-03
            2654            3238     172.469E-03     184.146E-03
            2654            3239     120.363E-03     133.711E-03
            2655            3224     139.530E-03     149.530E-03
            2655            3225     104.494E-03     113.081E-03
            2655            3239     120.363E-03     133.711E-03
            2655            3240     77.6165E-03     85.7077E-03
            2656             119     59.8611E-03     62.3203E-03
            2656             120     92.2352E-03     96.5685E-03
            2656            3225     104.494E-03     113.081E-03
            2656            3240     77.6165E-03     85.7077E-03
            2657             291     876.310E-03     895.797E-03
            2657             292     910.823E-03     907.625E-03
            2657            3226     854.589E-03     874.340E-03
            2657            3241     879.655E-03     887.032E-03
            2658            3226     854.589E-03     874.340E-03
            2658            3227     805.199E-03     824.947E-03
            2658            3241     879.655E-03     887.032E-03
            2658            3242     806.462E-03     827.191E-03
            2659            3227     805.199E-03     824.947E-03
            2659            3228     743.213E-03     762.291E-03
            2659            3242     806.462E-03     827.191E-03
            2659            3243     733.298E-03     755.350E-03
            2660            3228     743.213E-03     762.291E-03
            2660            3229     680.228E-03     696.572E-03
            2660            3243     733.298E-03     755.350E-03
            2660            3244     672.421E-03     691.910E-03
            2661            3229     680.228E-03     696.572E-03
            2661            3230     622.119E-03     635.263E-03
            2661            3244     672.421E-03     691.910E-03
            2661            3245     613.988E-03     631.561E-03
            2662            3230     622.119E-03     635.263E-03
            2662            3231     564.094E-03     575.712E-03
            2662            3245     613.988E-03     631.561E-03
            2662            3246     556.800E-03     573.479E-03
            2663            3231     564.094E-03     575.712E-03
            2663            3232     506.921E-03     517.872E-03
            2663            3246     556.800E-03     573.479E-03
            2663            3247     500.012E-03     516.327E-03
            2664            3232     506.921E-03     517.872E-03
            2664            3233     450.094E-03     460.810E-03
            2664            3247     500.012E-03     516.327E-03
            2664            3248     443.422E-03     459.638E-03
            2665            3233     450.094E-03     460.810E-03
            2665            3234     393.735E-03     404.308E-03
            2665            3248     443.422E-03     459.638E-03
            2665            3249     387.010E-03     403.201E-03
            2666            3234     393.735E-03     404.308E-03
            2666            3235     337.726E-03     348.198E-03
            2666            3249     387.010E-03     403.201E-03
            2666            3250     330.758E-03     346.882E-03
            2667            3235     337.726E-03     348.198E-03
            2667            3236     282.195E-03     292.546E-03
            2667            3250     330.758E-03     346.882E-03
            2667            3251     274.627E-03     290.666E-03
            2668            3236     282.195E-03     292.546E-03
            2668            3237     227.068E-03     237.464E-03
            2668            3251     274.627E-03     290.666E-03
            2668            3252     218.634E-03     234.717E-03
            2669            3237     227.068E-03     237.464E-03
            2669            3238     172.469E-03     184.146E-03
            2669            3252     218.634E-03     234.717E-03
            2669            3253     162.909E-03     179.121E-03
            2670            3238     172.469E-03     184.146E-03
            2670            3239     120.363E-03     133.711E-03
            2670            3253     162.909E-03     179.121E-03
            2670            3254     108.011E-03     123.511E-03
            2671            3239     120.363E-03     133.711E-03
            2671            3240     77.6165E-03     85.7077E-03
            2671            3254     108.011E-03     123.511E-03
            2671            3255     55.6418E-03     72.5759E-03
            2672             118     30.4383E-03     49.3899E-03
            2672             119     59.8611E-03     62.3203E-03
            2672            3240     77.6165E-03     85.7077E-03
            2672            3255     55.6418E-03     72.5759E-03
            2673             292     910.823E-03     907.625E-03
            2673             293     932.457E-03     934.607E-03
            2673            3241     879.655E-03     887.032E-03
            2673            3256     877.347E-03     886.292E-03
            2674            3241     879.655E-03     887.032E-03
            2674            3242     806.462E-03     827.191E-03
            2674            3256     877.347E-03     886.292E-03
            2674            3257     781.794E-03     798.126E-03
            2675            3242     806.462E-03     827.191E-03
            2675            3243     733.298E-03     755.350E-03
            2675            3257     781.794E-03     798.126E-03
            2675            3258     712.823E-03     730.591E-03
            2676            3243     733.298E-03     755.350E-03
            2676            3244     672.421E-03     691.910E-03
            2676            3258     712.823E-03     730.591E-03
            2676            3259     655.479E-03     674.621E-03
            2677            3244     672.421E-03     691.910E-03
            2677            3245     613.988E-03     631.561E-03
            2677            3259     655.479E-03     674.621E-03
            2677            3260     599.416E-03     619.952E-03
            2678            3245     613.988E-03     631.561E-03
            2678            3246     556.800E-03     573.479E-03
            2678            3260     599.416E-03     619.952E-03
            2678            3261     544.862E-03     566.173E-03
            2679            3246     556.800E-03     573.479E-03
            2679            3247     500.012E-03     516.327E-03
            2679            3261     544.862E-03     566.173E-03
            2679            3262     490.154E-03     511.794E-03
            2680            3247     500.012E-03     516.327E-03
            2680            3248     443.422E-03     459.638E-03
            2680            3262     490.154E-03     511.794E-03
            2680            3263     435.341E-03     457.198E-03
            2681            3248     443.422E-03     459.638E-03
            2681            3249     387.010E-03     403.201E-03
            2681            3263     435.341E-03     457.198E-03
            2681            3264     380.246E-03     402.146E-03
            2682            3249     387.010E-03     403.201E-03
            2682            3250     330.758E-03     346.882E-03
            2682            3264     380.246E-03     402.146E-03
            2682            3265     324.961E-03     346.936E-03
            2683            3250     330.758E-03     346.882E-03
            2683            3251     274.627E-03     290.666E-03
            2683            3265     324.961E-03     346.936E-03
            2683            3266     269.529E-03     291.461E-03
            2684            3251     274.627E-03     290.666E-03
            2684            3252     218.634E-03     234.717E-03
            2684            3266     269.529E-03     291.461E-03
            2684            3267     214.160E-03     235.976E-03
            2685            3252     218.634E-03     234.717E-03
            2685            3253     162.909E-03     179.121E-03
            2685            3267     214.160E-03     235.976E-03
            2685            3268     159.230E-03     179.948E-03
            2686            3253     162.909E-03     179.121E-03
            2686            3254     108.011E-03     123.511E-03
            2686            3268     159.230E-03     179.948E-03
            2686            3269     105.126E-03     123.911E-03
            2687            3254     108.011E-03     123.511E-03
            2687            3255     55.6418E-03     72.5759E-03
            2687            3269     105.126E-03     123.911E-03
            2687            3270     52.3680E-03     70.4584E-03
            2688             117     26.3213E-03     44.7971E-03
            2688             118     30.4383E-03     49.3899E-03
            2688            3255     55.6418E-03     72.5759E-03
            2688            3270     52.3680E-03     70.4584E-03
            2689              11     905.831E-03     928.425E-03
            2689             293     932.457E-03     934.607E-03
            2689             481     862.821E-03     872.558E-03
            2689            3256     877.347E-03     886.292E-03
            2690             480     796.893E-03     793.420E-03
            2690             481     862.821E-03     872.558E-03
            2690            3256     877.347E-03     886.292E-03
            2690            3257     781.794E-03     798.126E-03
            2691             479     744.108E-03     745.387E-03
            2691             480     796.893E-03     793.420E-03
            2691            3257     781.794E-03     798.126E-03
            2691            3258     712.823E-03     730.591E-03
            2692             478     689.398E-03     695.824E-03
            2692             479     744.108E-03     745.387E-03
            2692            3258     712.823E-03     730.591E-03
            2692            3259     655.479E-03     674.621E-03
            2693             477     635.830E-03     644.360E-03
            2693             478     689.398E-03     695.824E-03
            2693            3259     655.479E-03     674.621E-03
            2693            3260     599.416E-03     619.952E-03
            2694             476     580.721E-03     590.965E-03
            2694             477     635.830E-03     644.360E-03
            2694            3260     599.416E-03     619.952E-03
            2694            3261     544.862E-03     566.173E-03
            2695             475     525.933E-03     536.401E-03
            2695             476     580.721E-03     590.965E-03
            2695            3261     544.862E-03     566.173E-03
            2695            3262     490.154E-03     511.794E-03
            2696             474     470.098E-03     480.809E-03
            2696             475     525.933E-03     536.401E-03
            2696            3262     490.154E-03     511.794E-03
            2696            3263     435.341E-03     457.198E-03
            2697             473     414.208E-03     424.903E-03
            2697             474     470.098E-03     480.809E-03
            2697            3263     435.341E-03     457.198E-03
            2697            3264     380.246E-03     402.146E-03
            2698             472     357.928E-03     368.768E-03
            2698             473     414.208E-03     424.903E-03
            2698            3264     380.246E-03     402.146E-03
            2698            3265     324.961E-03     346.936E-03
            2699             471     302.039E-03     312.975E-03
            2699             472     357.928E-03     368.768E-03
            2699            3265     324.961E-03     346.936E-03
            2699            3266     269.529E-03     291.461E-03
            2700             470     246.782E-03     257.731E-03
            2700             471     302.039E-03     312.975E-03
            2700            3266     269.529E-03     291.461E-03
            2700            3267     214.160E-03     235.976E-03
            2701             469     193.377E-03     203.784E-03
            2701             470     246.782E-03     257.731E-03
            2701            3267     214.160E-03     235.976E-03
            2701            3268     159.230E-03     179.948E-03
            2702             468     143.669E-03     153.019E-03
            2702             469     193.377E-03     203.784E-03
            2702            3268     159.230E-03     179.948E-03
            2702            3269     105.126E-03     123.911E-03
            2703             467     99.0823E-03     110.722E-03
            2703             468     143.669E-03     153.019E-03
            2703            3269     105.126E-03     123.911E-03
            2703            3270     52.3680E-03     70.4584E-03
            2704               4     77.9853E-03     92.6833E-03
            2704             117     26.3213E-03     44.7971E-03
            2704             467     99.0823E-03     110.722E-03
            2704            3270     52.3680E-03     70.4584E-03
            2809              11     905.831E-03     928.425E-03
            2809             481     862.821E-03     872.558E-03
            2809             527     914.191E-03     899.175E-03
            2809            3348     892.977E-03     886.346E-03
            2810             480     796.893E-03     793.420E-03
            2810             481     862.821E-03     872.558E-03
            2810            3348     892.977E-03     886.346E-03
            2810            3349     847.570E-03     847.745E-03
            2811             479     744.108E-03     745.387E-03
            2811             480     796.893E-03     793.420E-03
            2811            3349     847.570E-03     847.745E-03
            2811            3350     797.814E-03     795.752E-03
            2812             478     689.398E-03     695.824E-03
            2812             479     744.108E-03     745.387E-03
            2812            3350     797.814E-03     795.752E-03
            2812            3351     741.720E-03     740.741E-03
            2813             477     635.830E-03     644.360E-03
            2813             478     689.398E-03     695.824E-03
            2813            3351     741.720E-03     740.741E-03
            2813            3352     682.829E-03     683.106E-03
            2814             476     580.721E-03     590.965E-03
            2814             477     635.830E-03     644.360E-03
            2814            3352     682.829E-03     683.106E-03
            2814            3353     624.396E-03     624.613E-03
            2815             475     525.933E-03     536.401E-03
            2815             476     580.721E-03     590.965E-03
            2815            3353     624.396E-03     624.613E-03
            2815            3354     565.006E-03     565.507E-03
            2816             474     470.098E-03     480.809E-03
            2816             475     525.933E-03     536.401E-03
            2816            3354     565.006E-03     565.507E-03
            2816            3355     505.812E-03     506.218E-03
            2817             473     414.208E-03     424.903E-03
            2817             474     470.098E-03     480.809E-03
            2817            3355     505.812E-03     506.218E-03
            2817            3356     446.408E-03     446.819E-03
            2818             472     357.928E-03     368.768E-03
            2818             473     414.208E-03     424.903E-03
            2818            3356     446.408E-03     446.819E-03
            2818            3357     387.359E-03     387.770E-03
            2819             471     302.039E-03     312.975E-03
            2819             472     357.928E-03     368.768E-03
            2819            3357     387.359E-03     387.770E-03
            2819            3358     328.875E-03     329.265E-03
            2820             470     246.782E-03     257.731E-03
            2820             471     302.039E-03     312.975E-03
            2820            3358     328.875E-03     329.265E-03
            2820            3359     271.689E-03     272.108E-03
            2821             469     193.377E-03     203.784E-03
            2821             470     246.782E-03     257.731E-03
            2821            3359     271.689E-03     272.108E-03
            2821            3360     216.625E-03     217.440E-03
            2822             468     143.669E-03     153.019E-03
            2822             469     193.377E-03     203.784E-03
            2822            3360     216.625E-03     217.440E-03
            2822            3361     166.194E-03     168.722E-03
            2823             467     99.0823E-03     110.722E-03
            2823             468     143.669E-03     153.019E-03
            2823            3361     166.194E-03     168.722E-03
            2823            3362     125.420E-03     135.599E-03
            2824               4     77.9853E-03     92.6833E-03
            2824             466     108.238E-03     124.657E-03
            2824             467     99.0823E-03     110.722E-03
            2824            3362     125.420E-03     135.599E-03
            2825             526     947.890E-03     960.029E-03
            2825             527     914.191E-03     899.175E-03
            2825            3348     892.977E-03     886.346E-03
            2825            3363     929.379E-03     943.865E-03
            2826            3348     892.977E-03     886.346E-03
            2826            3349     847.570E-03     847.745E-03
            2826            3363     929.379E-03     943.865E-03
            2826            3364     879.278E-03     894.873E-03
            2827            3349     847.570E-03     847.745E-03
            2827            3350     797.814E-03     795.752E-03
            2827            3364     879.278E-03     894.873E-03
            2827            3365     813.418E-03     826.647E-03
            2828            3350     797.814E-03     795.752E-03
            2828            3351     741.720E-03     740.741E-03
            2828            3365     813.418E-03     826.647E-03
            2828            3366     748.302E-03     758.630E-03
            2829            3351     741.720E-03     740.741E-03
            2829            3352     682.829E-03     683.106E-03
            2829            3366     748.302E-03     758.630E-03
            2829            3367     685.645E-03     694.130E-03
            2830            3352     682.829E-03     683.106E-03
            2830            3353     624.396E-03     624.613E-03
            2830            3367     685.645E-03     694.130E-03
            2830            3368     622.825E-03     630.977E-03
            2831            3353     624.396E-03     624.613E-03
            2831            3354     565.006E-03     565.507E-03
            2831            3368     622.825E-03     630.977E-03
            2831            3369     560.710E-03     568.716E-03
            2832            3354     565.006E-03     565.507E-03
            2832            3355     505.812E-03     506.218E-03
            2832            3369     560.710E-03     568.716E-03
            2832            3370     498.835E-03     506.909E-03
            2833            3355     505.812E-03     506.218E-03
            2833            3356     446.408E-03     446.819E-03
            2833            3370     498.835E-03     506.909E-03
            2833            3371     437.361E-03     445.402E-03
            2834            3356     446.408E-03     446.819E-03
            2834            3357     387.359E-03     387.770E-03
            2834            3371     437.361E-03     445.402E-03
            2834            3372     376.253E-03     384.160E-03
            2835            3357     387.359E-03     387.770E-03
            2835            3358     328.875E-03     329.265E-03
            2835            3372     376.253E-03     384.160E-03
            2835            3373     315.592E-03     323.322E-03
            2836            3358     328.875E-03     329.265E-03
            2836            3359     271.689E-03     272.108E-03
            2836            3373     315.592E-03     323.322E-03
            2836            3374     255.757E-03     263.142E-03
            2837            3359     271.689E-03     272.108E-03
            2837            3360     216.625E-03     217.440E-03
            2837            3374     255.757E-03     263.142E-03
            2837            3375     196.949E-03     204.504E-03
            2838            3360     216.625E-03     217.440E-03
            2838            3361     166.194E-03     168.722E-03
            2838            3375     196.949E-03     204.504E-03
            2838            3376     139.888E-03     151.302E-03
            2839            3361     166.194E-03     168.722E-03
            2839            3362     125.420E-03     135.599E-03
            2839            3376     139.888E-03     151.302E-03
            2839            3377     95.3845E-03     105.317E-03
            2840             465     78.7116E-03     83.7891E-03
            2840             466     108.238E-03     124.657E-03
            2840            3362     125.420E-03     135.599E-03
            2840            3377     95.3845E-03     105.317E-03
            2841             525     985.425E-03     991.056E-03
            2841             526     947.890E-03     960.029E-03
            2841            3363     929.379E-03     943.865E-03
            2841            3378     956.498E-03     969.587E-03
            2842            3363     929.379E-03     943.865E-03
            2842            3364     879.278E-03     894.873E-03
            2842            3378     956.498E-03     969.587E-03
            2842            3379     885.643E-03     907.427E-03
            2843            3364     879.278E-03     894.873E-03
            2843            3365     813.418E-03     826.647E-03
            2843            3379     885.643E-03     907.427E-03
            2843            3380     809.283E-03     830.995E-03
            2844            3365     813.418E-03     826.647E-03
            2844            3366     748.302E-03     758.630E-03
            2844            3380     809.283E-03     830.995E-03
            2844            3381     743.605E-03     762.001E-03
            2845            3366     748.302E-03     758.630E-03
            2845            3367     685.645E-03     694.130E-03
            2845            3381     743.605E-03     762.001E-03
            2845            3382     680.242E-03     696.485E-03
            2846            3367     685.645E-03     694.130E-03
            2846            3368     622.825E-03     630.977E-03
            2846            3382     680.242E-03     696.485E-03
            2846            3383     616.896E-03     632.851E-03
            2847            3368     622.825E-03     630.977E-03
            2847            3369     560.710E-03     568.716E-03
            2847            3383     616.896E-03     632.851E-03
            2847            3384     554.208E-03     570.019E-03
            2848            3369     560.710E-03     568.716E-03
            2848            3370     498.835E-03     506.909E-03
            2848            3384     554.208E-03     570.019E-03
            2848            3385     491.637E-03     507.512E-03
            2849            3370     498.835E-03     506.909E-03
            2849            3371     437.361E-03     445.402E-03
            2849            3385     491.637E-03     507.512E-03
            2849            3386     429.401E-03     445.304E-03
            2850            3371     437.361E-03     445.402E-03
            2850            3372     376.253E-03     384.160E-03
            2850            3386     429.401E-03     445.304E-03
            2850            3387     367.348E-03     383.150E-03
            2851            3372     376.253E-03     384.160E-03
            2851            3373     315.592E-03     323.322E-03
            2851            3387     367.348E-03     383.150E-03
            2851            3388     305.579E-03     321.215E-03
            2852            3373     315.592E-03     323.322E-03
            2852            3374     255.757E-03     263.142E-03
            2852            3388     305.579E-03     321.215E-03
            2852            3389     244.018E-03     259.409E-03
            2853            3374     255.757E-03     263.142E-03
            2853            3375     196.949E-03     204.504E-03
            2853            3389     244.018E-03     259.409E-03
            2853            3390     182.836E-03     198.420E-03
            2854            3375     196.949E-03     204.504E-03
            2854            3376     139.888E-03     151.302E-03
            2854            3390     182.836E-03     198.420E-03
            2854            3391     122.732E-03     139.210E-03
            2855            3376     139.888E-03     151.302E-03
            2855            3377     95.3845E-03     105.317E-03
            2855            3391     122.732E-03     139.210E-03
            2855            3392     67.8434E-03     81.4637E-03
            2856             464     42.5978E-03     52.8017E-03
            2856             465     78.7116E-03     83.7891E-03
            2856            3377     95.3845E-03     105.317E-03
            2856            3392     67.8434E-03     81.4637E-03
            2857             524         1.01353         1.01347
            2857             525     985.425E-03     991.056E-03
            2857            3378     956.498E-03     969.587E-03
            2857            3393     956.777E-03     968.127E-03
            2858            3378     956.498E-03     969.587E-03
            2858            3379     885.643E-03     907.427E-03
            2858            3393     956.777E-03     968.127E-03
            2858            3394     859.659E-03     882.090E-03
            2859            3379     885.643E-03     907.427E-03
            2859            3380     809.283E-03     830.995E-03
            2859            3394     859.659E-03     882.090E-03
            2859            3395     789.985E-03     811.753E-03
            2860            3380     809.283E-03     830.995E-03
            2860            3381     743.605E-03     762.001E-03
            2860            3395     789.985E-03     811.753E-03
            2860            3396     728.445E-03     751.074E-03
            2861            3381     743.605E-03     762.001E-03
            2861            3382     680.242E-03     696.485E-03
            2861            3396     728.445E-03     751.074E-03
            2861            3397     666.830E-03     690.435E-03
            2862            3382     680.242E-03     696.485E-03
            2862            3383     616.896E-03     632.851E-03
            2862            3397     666.830E-03     690.435E-03
            2862            3398     606.477E-03     630.068E-03
            2863            3383     616.896E-03     632.851E-03
            2863            3384     554.208E-03     570.019E-03
            2863            3398     606.477E-03     630.068E-03
            2863            3399     545.224E-03     569.033E-03
            2864            3384     554.208E-03     570.019E-03
            2864            3385     491.637E-03     507.512E-03
            2864            3399     545.224E-03     569.033E-03
            2864            3400     484.038E-03     507.833E-03
            2865            3385     491.637E-03     507.512E-03
            2865            3386     429.401E-03     445.304E-03
            2865            3400     484.038E-03     507.833E-03
            2865            3401     422.439E-03     446.237E-03
            2866            3386     429.401E-03     445.304E-03
            2866            3387     367.348E-03     383.150E-03
            2866            3401     422.439E-03     446.237E-03
            2866            3402     360.754E-03     384.639E-03
            2867            3387     367.348E-03     383.150E-03
            2867            3388     305.579E-03     321.215E-03
            2867            3402     360.754E-03     384.639E-03
            2867            3403     298.988E-03     322.848E-03
            2868            3388     305.579E-03     321.215E-03
            2868            3389     244.018E-03     259.409E-03
            2868            3403     298.988E-03     322.848E-03
            2868            3404     237.220E-03     261.094E-03
            2869            3389     244.018E-03     259.409E-03
            2869            3390     182.836E-03     198.420E-03
            2869            3404     237.220E-03     261.094E-03
            2869            3405     175.642E-03     199.456E-03
            2870            3390     182.836E-03     198.420E-03
            2870            3391     122.732E-03     139.210E-03
            2870            3405     175.642E-03     199.456E-03
            2870            3406     115.657E-03     136.643E-03
            2871            3391     122.732E-03     139.210E-03
            2871            3392     67.8434E-03     81.4637E-03
            2871            3406     115.657E-03     136.643E-03
            2871            3407     57.1070E-03     76.6306E-03
            2872             463     27.9592E-03     48.6852E-03
            2872             464     42.5978E-03     52.8017E-03
            2872            3392     67.8434E-03     81.4637E-03
            2872            3407     57.1070E-03     76.6306E-03
            2873             523     978.107E-03         1.00828
            2873             524         1.01353         1.01347
            2873            3393     956.777E-03     968.127E-03
            2873            3408     928.886E-03     950.892E-03
            2874            3393     956.777E-03     968.127E-03
            2874            3394     859.659E-03     882.090E-03
            2874            3408     928.886E-03     950.892E-03
            2874            3409     849.760E-03     863.339E-03
            2875            3394     859.659E-03     882.090E-03
            2875            3395     789.985E-03     811.753E-03
            2875            3409     849.760E-03     863.339E-03
            2875            3410     787.374E-03     803.355E-03
            2876            3395     789.985E-03     811.753E-03
            2876            3396     728.445E-03     751.074E-03
            2876            3410     787.374E-03     803.355E-03
            2876            3411     725.896E-03     744.425E-03
            2877            3396     728.445E-03     751.074E-03
            2877            3397     666.830E-03     690.435E-03
            2877            3411     725.896E-03     744.425E-03
            2877            3412     666.023E-03     685.298E-03
            2878            3397     666.830E-03     690.435E-03
            2878            3398     606.477E-03     630.068E-03
            2878            3412     666.023E-03     685.298E-03
            2878            3413     605.426E-03     625.329E-03
            2879            3398     606.477E-03     630.068E-03
            2879            3399     545.224E-03     569.033E-03
            2879            3413     605.426E-03     625.329E-03
            2879            3414     544.954E-03     564.796E-03
            2880            3399     545.224E-03     569.033E-03
            2880            3400     484.038E-03     507.833E-03
            2880            3414     544.954E-03     564.796E-03
            2880            3415     483.862E-03     503.764E-03
            2881            3400     484.038E-03     507.833E-03
            2881            3401     422.439E-03     446.237E-03
            2881            3415     483.862E-03     503.764E-03
            2881            3416     422.670E-03     442.534E-03
            2882            3401     422.439E-03     446.237E-03
            2882            3402     360.754E-03     384.639E-03
            2882            3416     422.670E-03     442.534E-03
            2882            3417     361.168E-03     381.094E-03
            2883            3402     360.754E-03     384.639E-03
            2883            3403     298.988E-03     322.848E-03
            2883            3417     361.168E-03     381.094E-03
            2883            3418     299.583E-03     319.627E-03
            2884            3403     298.988E-03     322.848E-03
            2884            3404     237.220E-03     261.094E-03
            2884            3418     299.583E-03     319.627E-03
            2884            3419     237.988E-03     258.083E-03
            2885            3404     237.220E-03     261.094E-03
            2885            3405     175.642E-03     199.456E-03
            2885            3419     237.988E-03     258.083E-03
            2885            3420     176.660E-03     196.340E-03
            2886            3405     175.642E-03     199.456E-03
            2886            3406     115.657E-03     136.643E-03
            2886            3420     176.660E-03     196.340E-03
            2886            3421     115.837E-03     134.349E-03
            2887            3406     115.657E-03     136.643E-03
            2887            3407     57.1070E-03     76.6306E-03
            2887            3421     115.837E-03     134.349E-03
            2887            3422     57.1475E-03     73.1200E-03
            2888             462     28.6124E-03     42.8781E-03
            2888             463     27.9592E-03     48.6852E-03
            2888            3407     57.1070E-03     76.6306E-03
            2888            3422     57.1475E-03     73.1200E-03
            2889              20     998.640E-03         1.03300
            2889             522     938.830E-03     964.706E-03
            2889             523     978.107E-03         1.00828
            2889            3408     928.886E-03     950.892E-03
            2890             521     846.230E-03     861.931E-03
            2890             522     938.830E-03     964.706E-03
            2890            3408     928.886E-03     950.892E-03
            2890            3409     849.760E-03     863.339E-03
            2891             520     779.176E-03     796.433E-03
            2891             521     846.230E-03     861.931E-03
            2891            3409     849.760E-03     863.339E-03
            2891            3410     787.374E-03     803.355E-03
            2892             519     715.459E-03     735.739E-03
            2892             520     779.176E-03     796.433E-03
            2892            3410     787.374E-03     803.355E-03
            2892            3411     725.896E-03     744.425E-03
            2893             518     655.168E-03     676.907E-03
            2893             519     715.459E-03     735.739E-03
            2893            3411     725.896E-03     744.425E-03
            2893            3412     666.023E-03     685.298E-03
            2894             517     594.951E-03     617.877E-03
            2894             518     655.168E-03     676.907E-03
            2894            3412     666.023E-03     685.298E-03
            2894            3413     605.426E-03     625.329E-03
            2895             516     535.191E-03     558.332E-03
            2895             517     594.951E-03     617.877E-03
            2895            3413     605.426E-03     625.329E-03
            2895            3414     544.954E-03     564.796E-03
            2896             515     474.979E-03     498.423E-03
            2896             516     535.191E-03     558.332E-03
            2896            3414     544.954E-03     564.796E-03
            2896            3415     483.862E-03     503.764E-03
            2897             514     414.694E-03     438.110E-03
            2897             515     474.979E-03     498.423E-03
            2897            3415     483.862E-03     503.764E-03
            2897            3416     422.670E-03     442.534E-03
            2898             513     354.017E-03     377.618E-03
            2898             514     414.694E-03     438.110E-03
            2898            3416     422.670E-03     442.534E-03
            2898            3417     361.168E-03     381.094E-03
            2899             512     293.334E-03     316.914E-03
            2899             513     354.017E-03     377.618E-03
            2899            3417     361.168E-03     381.094E-03
            2899            3418     299.583E-03     319.627E-03
            2900             511     232.504E-03     255.958E-03
            2900             512     293.334E-03     316.914E-03
            2900            3418     299.583E-03     319.627E-03
            2900            3419     237.988E-03     258.083E-03
            2901             510     171.897E-03     194.736E-03
            2901             511     232.504E-03     255.958E-03
            2901            3419     237.988E-03     258.083E-03
            2901            3420     176.660E-03     196.340E-03
            2902             509     111.670E-03     132.920E-03
            2902             510     171.897E-03     194.736E-03
            2902            3420     176.660E-03     196.340E-03
            2902            3421     115.837E-03     134.349E-03
            2903             508     52.4875E-03     70.0380E-03
            2903             509     111.670E-03     132.920E-03
            2903            3421     115.837E-03     134.349E-03
            2903            3422     57.1475E-03     73.1200E-03
            2904              18     23.2935E-03     38.4191E-03
            2904             462     28.6124E-03     42.8781E-03
            2904             508     52.4875E-03     70.0380E-03
            2904            3422     57.1475E-03     73.1200E-03
            4322              23     830.135E-03     849.581E-03
            4322             597     843.139E-03     858.469E-03
            4322             739     792.455E-03     804.281E-03
            4322            4567     790.038E-03     812.874E-03
            4323             739     792.455E-03     804.281E-03
            4323             740     737.988E-03     740.834E-03
            4323            4567     790.038E-03     812.874E-03
            4323            4568     703.281E-03     733.374E-03
            4324             740     737.988E-03     740.834E-03
            4324             741     696.219E-03     703.132E-03
            4324            4568     703.281E-03     733.374E-03
            4324            4569     645.253E-03     675.401E-03
            4325             741     696.219E-03     703.132E-03
            4325             742     649.172E-03     660.588E-03
            4325            4569     645.253E-03     675.401E-03
            4325            4570     595.540E-03     625.202E-03
            4326             742     649.172E-03     660.588E-03
            4326             743     601.440E-03     614.503E-03
            4326            4570     595.540E-03     625.202E-03
            4326            4571     545.030E-03     574.865E-03
            4327             743     601.440E-03     614.503E-03
            4327             744     551.070E-03     565.472E-03
            4327            4571     545.030E-03     574.865E-03
            4327            4572     494.902E-03     524.876E-03
            4328             744     551.070E-03     565.472E-03
            4328             745     500.215E-03     514.792E-03
            4328            4572     494.902E-03     524.876E-03
            4328            4573     444.605E-03     474.441E-03
            4329             745     500.215E-03     514.792E-03
            4329             746     448.596E-03     463.647E-03
            4329            4573     444.605E-03     474.441E-03
            4329            4574     394.355E-03     424.344E-03
            4330             746     448.596E-03     463.647E-03
            4330             747     397.060E-03     412.031E-03
            4330            4574     394.355E-03     424.344E-03
            4330            4575     344.270E-03     374.104E-03
            4331             747     397.060E-03     412.031E-03
            4331             748     345.570E-03     360.890E-03
            4331            4575     344.270E-03     374.104E-03
            4331            4576     294.325E-03     324.180E-03
            4332             748     345.570E-03     360.890E-03
            4332             749     294.847E-03     310.249E-03
            4332            4576     294.325E-03     324.180E-03
            4332            4577     244.709E-03     274.444E-03
            4333             749     294.847E-03     310.249E-03
            4333             750     245.188E-03     261.258E-03
            4333            4577     244.709E-03     274.444E-03
            4333            4578     195.727E-03     225.121E-03
            4334             750     245.188E-03     261.258E-03
            4334             751     198.310E-03     214.185E-03
            4334            4578     195.727E-03     225.121E-03
            4334            4579     148.106E-03     176.754E-03
            4335             751     198.310E-03     214.185E-03
            4335             752     155.923E-03     171.143E-03
            4335            4579     148.106E-03     176.754E-03
            4335            4580     103.878E-03     129.943E-03
            4336             752     155.923E-03     171.143E-03
            4336             753     119.514E-03     138.163E-03
            4336            4580     103.878E-03     129.943E-03
            4336            4581     71.2835E-03     83.9030E-03
            4337              22     102.974E-03     125.422E-03
            4337             753     119.514E-03     138.163E-03
            4337             754     59.4369E-03     61.0234E-03
            4337            4581     71.2835E-03     83.9030E-03
            4338             597     843.139E-03     858.469E-03
            4338             598     789.525E-03     782.888E-03
            4338            4567     790.038E-03     812.874E-03
            4338            4582     772.365E-03     775.634E-03
            4339            4567     790.038E-03     812.874E-03
            4339            4568     703.281E-03     733.374E-03
            4339            4582     772.365E-03     775.634E-03
            4339            4583     721.753E-03     735.373E-03
            4340            4568     703.281E-03     733.374E-03
            4340            4569     645.253E-03     675.401E-03
            4340            4583     721.753E-03     735.373E-03
            4340            4584     663.039E-03     674.996E-03
            4341            4569     645.253E-03     675.401E-03
            4341            4570     595.540E-03     625.202E-03
            4341            4584     663.039E-03     674.996E-03
            4341            4585     611.851E-03     622.005E-03
            4342            4570     595.540E-03     625.202E-03
            4342            4571     545.030E-03     574.865E-03
            4342            4585     611.851E-03     622.005E-03
            4342            4586     560.697E-03     570.400E-03
            4343            4571     545.030E-03     574.865E-03
            4343            4572     494.902E-03     524.876E-03
            4343            4586     560.697E-03     570.400E-03
            4343            4587     510.057E-03     519.664E-03
            4344            4572     494.902E-03     524.876E-03
            4344            4573     444.605E-03     474.441E-03
            4344            4587     510.057E-03     519.664E-03
            4344            4588     459.840E-03     469.624E-03
            4345            4573     444.605E-03     474.441E-03
            4345            4574     394.355E-03     424.344E-03
            4345            4588     459.840E-03     469.624E-03
            4345            4589     410.043E-03     419.716E-03
            4346            4574     394.355E-03     424.344E-03
            4346            4575     344.270E-03     374.104E-03
            4346            4589     410.043E-03     419.716E-03
            4346            4590     360.536E-03     370.268E-03
            4347            4575     344.270E-03     374.104E-03
            4347            4576     294.325E-03     324.180E-03
            4347            4590     360.536E-03     370.268E-03
            4347            4591     311.553E-03     321.161E-03
            4348            4576     294.325E-03     324.180E-03
            4348            4577     244.709E-03     274.444E-03
            4348            4591     311.553E-03     321.161E-03
            4348            4592     263.212E-03     272.718E-03
            4349            4577     244.709E-03     274.444E-03
            4349            4578     195.727E-03     225.121E-03
            4349            4592     263.212E-03     272.718E-03
            4349            4593     216.268E-03     225.163E-03
            4350            4578     195.727E-03     225.121E-03
            4350            4579     148.106E-03     176.754E-03
            4350            4593     216.268E-03     225.163E-03
            4350            4594     170.956E-03     179.655E-03
            4351            4579     148.106E-03     176.754E-03
            4351            4580     103.878E-03     129.943E-03
            4351            4594     170.956E-03     179.655E-03
            4351            4595     130.154E-03     139.014E-03
            4352            4580     103.878E-03     129.943E-03
            4352            4581     71.2835E-03     83.9030E-03
            4352            4595     130.154E-03     139.014E-03
            4352            4596     103.180E-03     104.682E-03
            4353             754     59.4369E-03     61.0234E-03
            4353             755     94.7697E-03     88.8765E-03
            4353            4581     71.2835E-03     83.9030E-03
            4353            4596     103.180E-03     104.682E-03
            4354             598     789.525E-03     782.888E-03
            4354             599     719.397E-03     716.343E-03
            4354            4582     772.365E-03     775.634E-03
            4354            4597     721.706E-03     715.557E-03
            4355            4582     772.365E-03     775.634E-03
            4355            4583     721.753E-03     735.373E-03
            4355            4597     721.706E-03     715.557E-03
            4355            4598     708.217E-03     697.245E-03
            4356            4583     721.753E-03     735.373E-03
            4356            4584     663.039E-03     674.996E-03
            4356            4598     708.217E-03     697.245E-03
            4356            4599     667.194E-03     656.408E-03
            4357            4584     663.039E-03     674.996E-03
            4357            4585     611.851E-03     622.005E-03
            4357            4599     667.194E-03     656.408E-03
            4357            4600     619.022E-03     609.011E-03
            4358            4585     611.851E-03     622.005E-03
            4358            4586     560.697E-03     570.400E-03
            4358            4600     619.022E-03     609.011E-03
            4358            4601     571.351E-03     561.011E-03
            4359            4586     560.697E-03     570.400E-03
            4359            4587     510.057E-03     519.664E-03
            4359            4601     571.351E-03     561.011E-03
            4359            4602     522.851E-03     512.869E-03
            4360            4587     510.057E-03     519.664E-03
            4360            4588     459.840E-03     469.624E-03
            4360            4602     522.851E-03     512.869E-03
            4360            4603     474.661E-03     464.570E-03
            4361            4588     459.840E-03     469.624E-03
            4361            4589     410.043E-03     419.716E-03
            4361            4603     474.661E-03     464.570E-03
            4361            4604     426.281E-03     416.373E-03
            4362            4589     410.043E-03     419.716E-03
            4362            4590     360.536E-03     370.268E-03
            4362            4604     426.281E-03     416.373E-03
            4362            4605     378.297E-03     368.440E-03
            4363            4590     360.536E-03     370.268E-03
            4363            4591     311.553E-03     321.161E-03
            4363            4605     378.297E-03     368.440E-03
            4363            4606     330.743E-03     321.136E-03
            4364            4591     311.553E-03     321.161E-03
            4364            4592     263.212E-03     272.718E-03
            4364            4606     330.743E-03     321.136E-03
            4364            4607     284.216E-03     274.790E-03
            4365            4592     263.212E-03     272.718E-03
            4365            4593     216.268E-03     225.163E-03
            4365            4607     284.216E-03     274.790E-03
            4365            4608     239.143E-03     230.330E-03
            4366            4593     216.268E-03     225.163E-03
            4366            4594     170.956E-03     179.655E-03
            4366            4608     239.143E-03     230.330E-03
            4366            4609     196.708E-03     188.704E-03
            4367            4594     170.956E-03     179.655E-03
            4367            4595     130.154E-03     139.014E-03
            4367            4609     196.708E-03     188.704E-03
            4367            4610     158.963E-03     153.663E-03
            4368            4595     130.154E-03     139.014E-03
            4368            4596     103.180E-03     104.682E-03
            4368            4610     158.963E-03     153.663E-03
            4368            4611     129.647E-03     132.556E-03
            4369             755     94.7697E-03     88.8765E-03
            4369             756     117.724E-03     126.479E-03
            4369            4596     103.180E-03     104.682E-03
            4369            4611     129.647E-03     132.556E-03
            4370             599     719.397E-03     716.343E-03
            4370             600     732.198E-03     748.015E-03
            4370            4597     721.706E-03     715.557E-03
            4370            4612     693.684E-03     700.364E-03
            4371            4597     721.706E-03     715.557E-03
            4371            4598     708.217E-03     697.245E-03
            4371            4612     693.684E-03     700.364E-03
            4371            4613     633.403E-03     627.928E-03
            4372            4598     708.217E-03     697.245E-03
            4372            4599     667.194E-03     656.408E-03
            4372            4613     633.403E-03     627.928E-03
            4372            4614     585.568E-03     579.969E-03
            4373            4599     667.194E-03     656.408E-03
            4373            4600     619.022E-03     609.011E-03
            4373            4614     585.568E-03     579.969E-03
            4373            4615     536.485E-03     532.671E-03
            4374            4600     619.022E-03     609.011E-03
            4374            4601     571.351E-03     561.011E-03
            4374            4615     536.485E-03     532.671E-03
            4374            4616     490.458E-03     488.072E-03
            4375            4601     571.351E-03     561.011E-03
            4375            4602     522.851E-03     512.869E-03
            4375            4616     490.458E-03     488.072E-03
            4375            4617     446.092E-03     445.388E-03
            4376            4602     522.851E-03     512.869E-03
            4376            4603     474.661E-03     464.570E-03
            4376            4617     446.092E-03     445.388E-03
            4376            4618     402.864E-03     402.834E-03
            4377            4603     474.661E-03     464.570E-03
            4377            4604     426.281E-03     416.373E-03
            4377            4618     402.864E-03     402.834E-03
            4377            4619     360.037E-03     361.090E-03
            4378            4604     426.281E-03     416.373E-03
            4378            4605     378.297E-03     368.440E-03
            4378            4619     360.037E-03     361.090E-03
            4378            4620     317.844E-03     319.264E-03
            4379            4605     378.297E-03     368.440E-03
            4379            4606     330.743E-03     321.136E-03
            4379            4620     317.844E-03     319.264E-03
            4379            4621     275.986E-03     277.968E-03
            4380            4606     330.743E-03     321.136E-03
            4380            4607     284.216E-03     274.790E-03
            4380            4621     275.986E-03     277.968E-03
            4380            4622     234.851E-03     237.041E-03
            4381            4607     284.216E-03     274.790E-03
            4381            4608     239.143E-03     230.330E-03
            4381            4622     234.851E-03     237.041E-03
            4381            4623     194.559E-03     197.167E-03
            4382            4608     239.143E-03     230.330E-03
            4382            4609     196.708E-03     188.704E-03
            4382            4623     194.559E-03     197.167E-03
            4382            4624     155.910E-03     158.788E-03
            4383            4609     196.708E-03     188.704E-03
            4383            4610     158.963E-03     153.663E-03
            4383            4624     155.910E-03     158.788E-03
            4383            4625     119.880E-03     124.138E-03
            4384            4610     158.963E-03     153.663E-03
            4384            4611     129.647E-03     132.556E-03
            4384            4625     119.880E-03     124.138E-03
            4384            4626     86.8385E-03     95.8599E-03
            4385             756     117.724E-03     126.479E-03
            4385             757     70.9522E-03     83.6683E-03
            4385            4611     129.647E-03     132.556E-03
            4385            4626     86.8385E-03     95.8599E-03
            4386             600     732.198E-03     748.015E-03
            4386             601     770.245E-03     774.542E-03
            4386            4612     693.684E-03     700.364E-03
            4386            4627     702.461E-03     712.395E-03
            4387            4612     693.684E-03     700.364E-03
            4387            4613     633.403E-03     627.928E-03
            4387            4627     702.461E-03     712.395E-03
            4387            4628     588.932E-03     603.466E-03
            4388            4613     633.403E-03     627.928E-03
            4388            4614     585.568E-03     579.969E-03
            4388            4628     588.932E-03     603.466E-03
            4388            4629     514.579E-03     528.327E-03
            4389            4614     585.568E-03     579.969E-03
            4389            4615     536.485E-03     532.671E-03
            4389            4629     514.579E-03     528.327E-03
            4389            4630     459.799E-03     474.523E-03
            4390            4615     536.485E-03     532.671E-03
            4390            4616     490.458E-03     488.072E-03
            4390            4630     459.799E-03     474.523E-03
            4390            4631     412.038E-03     428.394E-03
            4391            4616     490.458E-03     488.072E-03
            4391            4617     446.092E-03     445.388E-03
            4391            4631     412.038E-03     428.394E-03
            4391            4632     369.688E-03     387.578E-03
            4392            4617     446.092E-03     445.388E-03
            4392            4618     402.864E-03     402.834E-03
            4392            4632     369.688E-03     387.578E-03
            4392            4633     329.570E-03     348.751E-03
            4393            4618     402.864E-03     402.834E-03
            4393            4619     360.037E-03     361.090E-03
            4393            4633     329.570E-03     348.751E-03
            4393            4634     291.134E-03     311.255E-03
            4394            4619     360.037E-03     361.090E-03
            4394            4620     317.844E-03     319.264E-03
            4394            4634     291.134E-03     311.255E-03
            4394            4635     253.378E-03     274.048E-03
            4395            4620     317.844E-03     319.264E-03
            4395            4621     275.986E-03     277.968E-03
            4395            4635     253.378E-03     274.048E-03
            4395            4636     216.147E-03     237.034E-03
            4396            4621     275.986E-03     277.968E-03
            4396            4622     234.851E-03     237.041E-03
            4396            4636     216.147E-03     237.034E-03
            4396            4637     179.203E-03     199.862E-03
            4397            4622     234.851E-03     237.041E-03
            4397            4623     194.559E-03     197.167E-03
            4397            4637     179.203E-03     199.862E-03
            4397            4638     142.580E-03     162.618E-03
            4398            4623     194.559E-03     197.167E-03
            4398            4624     155.910E-03     158.788E-03
            4398            4638     142.580E-03     162.618E-03
            4398            4639     106.503E-03     125.257E-03
            4399            4624     155.910E-03     158.788E-03
            4399            4625     119.880E-03     124.138E-03
            4399            4639     106.503E-03     125.257E-03
            4399            4640     71.6213E-03     88.0895E-03
            4400            4625     119.880E-03     124.138E-03
            4400            4626     86.8385E-03     95.8599E-03
            4400            4640     71.6213E-03     88.0895E-03
            4400            4641     41.4596E-03     52.2243E-03
            4401             757     70.9522E-03     83.6683E-03
            4401             758     28.3404E-03     34.8492E-03
            4401            4626     86.8385E-03     95.8599E-03
            4401            4641     41.4596E-03     52.2243E-03
            4402             601     770.245E-03     774.542E-03
            4402             602     730.522E-03     727.234E-03
            4402            4627     702.461E-03     712.395E-03
            4402            4642     692.351E-03     694.535E-03
            4403            4627     702.461E-03     712.395E-03
            4403            4628     588.932E-03     603.466E-03
            4403            4642     692.351E-03     694.535E-03
            4403            4643     607.971E-03     619.383E-03
            4404            4628     588.932E-03     603.466E-03
            4404            4629     514.579E-03     528.327E-03
            4404            4643     607.971E-03     619.383E-03
            4404            4644     530.043E-03     546.378E-03
            4405            4629     514.579E-03     528.327E-03
            4405            4630     459.799E-03     474.523E-03
            4405            4644     530.043E-03     546.378E-03
            4405            4645     473.273E-03     490.450E-03
            4406            4630     459.799E-03     474.523E-03
            4406            4631     412.038E-03     428.394E-03
            4406            4645     473.273E-03     490.450E-03
            4406            4646     425.285E-03     442.546E-03
            4407            4631     412.038E-03     428.394E-03
            4407            4632     369.688E-03     387.578E-03
            4407            4646     425.285E-03     442.546E-03
            4407            4647     381.895E-03     399.451E-03
            4408            4632     369.688E-03     387.578E-03
            4408            4633     329.570E-03     348.751E-03
            4408            4647     381.895E-03     399.451E-03
            4408            4648     341.439E-03     358.958E-03
            4409            4633     329.570E-03     348.751E-03
            4409            4634     291.134E-03     311.255E-03
            4409            4648     341.439E-03     358.958E-03
            4409            4649     302.251E-03     319.830E-03
            4410            4634     291.134E-03     311.255E-03
            4410            4635     253.378E-03     274.048E-03
            4410            4649     302.251E-03     319.830E-03
            4410            4650     264.016E-03     281.484E-03
            4411            4635     253.378E-03     274.048E-03
            4411            4636     216.147E-03     237.034E-03
            4411            4650     264.016E-03     281.484E-03
            4411            4651     226.244E-03     243.481E-03
            4412            4636     216.147E-03     237.034E-03
            4412            4637     179.203E-03     199.862E-03
            4412            4651     226.244E-03     243.481E-03
            4412            4652     189.012E-03     205.778E-03
            4413            4637     179.203E-03     199.862E-03
            4413            4638     142.580E-03     162.618E-03
            4413            4652     189.012E-03     205.778E-03
            4413            4653     152.441E-03     168.236E-03
            4414            4638     142.580E-03     162.618E-03
            4414            4639     106.503E-03     125.257E-03
            4414            4653     152.441E-03     168.236E-03
            4414            4654     117.057E-03     131.218E-03
            4415            4639     106.503E-03     125.257E-03
            4415            4640     71.6213E-03     88.0895E-03
            4415            4654     117.057E-03     131.218E-03
            4415            4655     84.4442E-03     95.2260E-03
            4416            4640     71.6213E-03     88.0895E-03
            4416            4641     41.4596E-03     52.2243E-03
            4416            4655     84.4442E-03     95.2260E-03
            4416            4656     59.0170E-03     63.2381E-03
            4417             758     28.3404E-03     34.8492E-03
            4417             759     48.8788E-03     48.9215E-03
            4417            4641     41.4596E-03     52.2243E-03
            4417            4656     59.0170E-03     63.2381E-03
            4418             602     730.522E-03     727.234E-03
            4418             603     685.134E-03     696.579E-03
            4418            4642     692.351E-03     694.535E-03
            4418            4657     657.956E-03     668.551E-03
            4419            4642     692.351E-03     694.535E-03
            4419            4643     607.971E-03     619.383E-03
            4419            4657     657.956E-03     668.551E-03
            4419            4658     600.643E-03     612.115E-03
            4420            4643     607.971E-03     619.383E-03
            4420            4644     530.043E-03     546.378E-03
            4420            4658     600.643E-03     612.115E-03
            4420            4659     539.156E-03     554.291E-03
            4421            4644     530.043E-03     546.378E-03
            4421            4645     473.273E-03     490.450E-03
            4421            4659     539.156E-03     554.291E-03
            4421            4660     483.261E-03     500.663E-03
            4422            4645     473.273E-03     490.450E-03
            4422            4646     425.285E-03     442.546E-03
            4422            4660     483.261E-03     500.663E-03
            4422            4661     436.434E-03     453.641E-03
            4423            4646     425.285E-03     442.546E-03
            4423            4647     381.895E-03     399.451E-03
            4423            4661     436.434E-03     453.641E-03
            4423            4662     393.215E-03     409.699E-03
            4424            4647     381.895E-03     399.451E-03
            4424            4648     341.439E-03     358.958E-03
            4424            4662     393.215E-03     409.699E-03
            4424            4663     352.410E-03     368.210E-03
            4425            4648     341.439E-03     358.958E-03
            4425            4649     302.251E-03     319.830E-03
            4425            4663     352.410E-03     368.210E-03
            4425            4664     312.958E-03     328.023E-03
            4426            4649     302.251E-03     319.830E-03
            4426            4650     264.016E-03     281.484E-03
            4426            4664     312.958E-03     328.023E-03
            4426            4665     274.285E-03     288.834E-03
            4427            4650     264.016E-03     281.484E-03
            4427            4651     226.244E-03     243.481E-03
            4427            4665     274.285E-03     288.834E-03
            4427            4666     236.334E-03     250.340E-03
            4428            4651     226.244E-03     243.481E-03
            4428            4652     189.012E-03     205.778E-03
            4428            4666     236.334E-03     250.340E-03
            4428            4667     199.085E-03     212.429E-03
            4429            4652     189.012E-03     205.778E-03
            4429            4653     152.441E-03     168.236E-03
            4429            4667     199.085E-03     212.429E-03
            4429            4668     162.956E-03     175.295E-03
            4430            4653     152.441E-03     168.236E-03
            4430            4654     117.057E-03     131.218E-03
            4430            4668     162.956E-03     175.295E-03
            4430            4669     128.786E-03     139.113E-03
            4431            4654     117.057E-03     131.218E-03
            4431            4655     84.4442E-03     95.2260E-03
            4431            4669     128.786E-03     139.113E-03
            4431            4670     98.4171E-03     105.359E-03
            4432            4655     84.4442E-03     95.2260E-03
            4432            4656     59.0170E-03     63.2381E-03
            4432            4670     98.4171E-03     105.359E-03
            4432            4671     76.3960E-03     77.2733E-03
            4433             759     48.8788E-03     48.9215E-03
            4433             760     68.3115E-03     65.1181E-03
            4433            4656     59.0170E-03     63.2381E-03
            4433            4671     76.3960E-03     77.2733E-03
            4434             603     685.134E-03     696.579E-03
            4434             604     650.667E-03     650.851E-03
            4434            4657     657.956E-03     668.551E-03
            4434            4672     627.190E-03     632.788E-03
            4435            4657     657.956E-03     668.551E-03
            4435            4658     600.643E-03     612.115E-03
            4435            4672     627.190E-03     632.788E-03
            4435            4673     580.127E-03     593.025E-03
            4436            4658     600.643E-03     612.115E-03
            4436            4659     539.156E-03     554.291E-03
            4436            4673     580.127E-03     593.025E-03
            4436            4674     533.892E-03     549.021E-03
            4437            4659     539.156E-03     554.291E-03
            4437            4660     483.261E-03     500.663E-03
            4437            4674     533.892E-03     549.021E-03
            4437            4675     487.631E-03     503.624E-03
            4438            4660     483.261E-03     500.663E-03
            4438            4661     436.434E-03     453.641E-03
            4438            4675     487.631E-03     503.624E-03
            4438            4676     443.161E-03     459.057E-03
            4439            4661     436.434E-03     453.641E-03
            4439            4662     393.215E-03     409.699E-03
            4439            4676     443.161E-03     459.057E-03
            4439            4677     401.762E-03     416.325E-03
            4440            4662     393.215E-03     409.699E-03
            4440            4663     352.410E-03     368.210E-03
            4440            4677     401.762E-03     416.325E-03
            4440            4678     361.361E-03     374.678E-03
            4441            4663     352.410E-03     368.210E-03
            4441            4664     312.958E-03     328.023E-03
            4441            4678     361.361E-03     374.678E-03
            4441            4679     322.047E-03     334.331E-03
            4442            4664     312.958E-03     328.023E-03
            4442            4665     274.285E-03     288.834E-03
            4442            4679     322.047E-03     334.331E-03
            4442            4680     283.436E-03     294.902E-03
            4443            4665     274.285E-03     288.834E-03
            4443            4666     236.334E-03     250.340E-03
            4443            4680     283.436E-03     294.902E-03
            4443            4681     245.573E-03     256.486E-03
            4444            4666     236.334E-03     250.340E-03
            4444            4667     199.085E-03     212.429E-03
            4444            4681     245.573E-03     256.486E-03
            4444            4682     208.716E-03     219.059E-03
            4445            4667     199.085E-03     212.429E-03
            4445            4668     162.956E-03     175.295E-03
            4445            4682     208.716E-03     219.059E-03
            4445            4683     173.342E-03     182.758E-03
            4446            4668     162.956E-03     175.295E-03
            4446            4669     128.786E-03     139.113E-03
            4446            4683     173.342E-03     182.758E-03
            4446            4684     140.558E-03     148.350E-03
            4447            4669     128.786E-03     139.113E-03
            4447            4670     98.4171E-03     105.359E-03
            4447            4684     140.558E-03     148.350E-03
            4447            4685     112.502E-03     116.899E-03
            4448            4670     98.4171E-03     105.359E-03
            4448            4671     76.3960E-03     77.2733E-03
            4448            4685     112.502E-03     116.899E-03
            4448            4686     93.0163E-03     92.4160E-03
            4449             760     68.3115E-03     65.1181E-03
            4449             761     86.0237E-03     82.7920E-03
            4449            4671     76.3960E-03     77.2733E-03
            4449            4686     93.0163E-03     92.4160E-03
            4450             604     650.667E-03     650.851E-03
            4450             605     609.542E-03     615.421E-03
            4450            4672     627.190E-03     632.788E-03
            4450            4687     592.245E-03     599.394E-03
            4451            4672     627.190E-03     632.788E-03
            4451            4673     580.127E-03     593.025E-03
            4451            4687     592.245E-03     599.394E-03
            4451            4688     557.370E-03     568.354E-03
            4452            4673     580.127E-03     593.025E-03
            4452            4674     533.892E-03     549.021E-03
            4452            4688     557.370E-03     568.354E-03
            4452            4689     520.986E-03     535.526E-03
            4453            4674     533.892E-03     549.021E-03
            4453            4675     487.631E-03     503.624E-03
            4453            4689     520.986E-03     535.526E-03
            4453            4690     483.760E-03     498.307E-03
            4454            4675     487.631E-03     503.624E-03
            4454            4676     443.161E-03     459.057E-03
            4454            4690     483.760E-03     498.307E-03
            4454            4691     445.331E-03     458.368E-03
            4455            4676     443.161E-03     459.057E-03
            4455            4677     401.762E-03     416.325E-03
            4455            4691     445.331E-03     458.368E-03
            4455            4692     406.069E-03     417.632E-03
            4456            4677     401.762E-03     416.325E-03
            4456            4678     361.361E-03     374.678E-03
            4456            4692     406.069E-03     417.632E-03
            4456            4693     367.307E-03     377.275E-03
            4457            4678     361.361E-03     374.678E-03
            4457            4679     322.047E-03     334.331E-03
            4457            4693     367.307E-03     377.275E-03
            4457            4694     328.679E-03     337.535E-03
            4458            4679     322.047E-03     334.331E-03
            4458            4680     283.436E-03     294.902E-03
            4458            4694     328.679E-03     337.535E-03
            4458            4695     290.738E-03     298.829E-03
            4459            4680     283.436E-03     294.902E-03
            4459            4681     245.573E-03     256.486E-03
            4459            4695     290.738E-03     298.829E-03
            4459            4696     253.530E-03     261.168E-03
            4460            4681     245.573E-03     256.486E-03
            4460            4682     208.716E-03     219.059E-03
            4460            4696     253.530E-03     261.168E-03
            4460            4697     217.449E-03     224.940E-03
            4461            4682     208.716E-03     219.059E-03
            4461            4683     173.342E-03     182.758E-03
            4461            4697     217.449E-03     224.940E-03
            4461            4698     183.246E-03     190.388E-03
            4462            4683     173.342E-03     182.758E-03
            4462            4684     140.558E-03     148.350E-03
            4462            4698     183.246E-03     190.388E-03
            4462            4699     152.097E-03     157.996E-03
            4463            4684     140.558E-03     148.350E-03
            4463            4685     112.502E-03     116.899E-03
            4463            4699     152.097E-03     157.996E-03
            4463            4700     126.292E-03     129.701E-03
            4464            4685     112.502E-03     116.899E-03
            4464            4686     93.0163E-03     92.4160E-03
            4464            4700     126.292E-03     129.701E-03
            4464            4701     109.294E-03     107.729E-03
            4465             761     86.0237E-03     82.7920E-03
            4465             762     103.459E-03     98.5252E-03
            4465            4686     93.0163E-03     92.4160E-03
            4465            4701     109.294E-03     107.729E-03
            4466             605     609.542E-03     615.421E-03
            4466             606     572.794E-03     572.726E-03
            4466            4687     592.245E-03     599.394E-03
            4466            4702     557.888E-03     562.877E-03
            4467            4687     592.245E-03     599.394E-03
            4467            4688     557.370E-03     568.354E-03
            4467            4702     557.888E-03     562.877E-03
            4467            4703     530.339E-03     541.833E-03
            4468            4688     557.370E-03     568.354E-03
            4468            4689     520.986E-03     535.526E-03
            4468            4703     530.339E-03     541.833E-03
            4468            4704     504.389E-03     516.843E-03
            4469            4689     520.986E-03     535.526E-03
            4469            4690     483.760E-03     498.307E-03
            4469            4704     504.389E-03     516.843E-03
            4469            4705     474.999E-03     486.224E-03
            4470            4690     483.760E-03     498.307E-03
            4470            4691     445.331E-03     458.368E-03
            4470            4705     474.999E-03     486.224E-03
            4470            4706     441.851E-03     450.941E-03
            4471            4691     445.331E-03     458.368E-03
            4471            4692     406.069E-03     417.632E-03
            4471            4706     441.851E-03     450.941E-03
            4471            4707     406.254E-03     413.328E-03
            4472            4692     406.069E-03     417.632E-03
            4472            4693     367.307E-03     377.275E-03
            4472            4707     406.254E-03     413.328E-03
            4472            4708     369.363E-03     375.140E-03
            4473            4693     367.307E-03     377.275E-03
            4473            4694     328.679E-03     337.535E-03
            4473            4708     369.363E-03     375.140E-03
            4473            4709     332.482E-03     337.255E-03
            4474            4694     328.679E-03     337.535E-03
            4474            4695     290.738E-03     298.829E-03
            4474            4709     332.482E-03     337.255E-03
            4474            4710     295.818E-03     300.098E-03
            4475            4695     290.738E-03     298.829E-03
            4475            4696     253.530E-03     261.168E-03
            4475            4710     295.818E-03     300.098E-03
            4475            4711     260.020E-03     264.165E-03
            4476            4696     253.530E-03     261.168E-03
            4476            4697     217.449E-03     224.940E-03
            4476            4711     260.020E-03     264.165E-03
            4476            4712     225.387E-03     229.779E-03
            4477            4697     217.449E-03     224.940E-03
            4477            4698     183.246E-03     190.388E-03
            4477            4712     225.387E-03     229.779E-03
            4477            4713     192.645E-03     197.793E-03
            4478            4698     183.246E-03     190.388E-03
            4478            4699     152.097E-03     157.996E-03
            4478            4713     192.645E-03     197.793E-03
            4478            4714     163.508E-03     168.561E-03
            4479            4699     152.097E-03     157.996E-03
            4479            4700     126.292E-03     129.701E-03
            4479            4714     163.508E-03     168.561E-03
            4479            4715     139.978E-03     142.855E-03
            4480            4700     126.292E-03     129.701E-03
            4480            4701     109.294E-03     107.729E-03
            4480            4715     139.978E-03     142.855E-03
            4480            4716     125.023E-03     124.447E-03
            4481             762     103.459E-03     98.5252E-03
            4481             763     120.224E-03     117.742E-03
            4481            4701     109.294E-03     107.729E-03
            4481            4716     125.023E-03     124.447E-03
            4482             606     572.794E-03     572.726E-03
            4482             607     529.278E-03     531.063E-03
            4482            4702     557.888E-03     562.877E-03
            4482            4717     519.071E-03     524.285E-03
            4483            4702     557.888E-03     562.877E-03
            4483            4703     530.339E-03     541.833E-03
            4483            4717     519.071E-03     524.285E-03
            4483            4718     501.674E-03     511.017E-03
            4484            4703     530.339E-03     541.833E-03
            4484            4704     504.389E-03     516.843E-03
            4484            4718     501.674E-03     511.017E-03
            4484            4719     485.070E-03     493.489E-03
            4485            4704     504.389E-03     516.843E-03
            4485            4705     474.999E-03     486.224E-03
            4485            4719     485.070E-03     493.489E-03
            4485            4720     462.618E-03     467.861E-03
            4486            4705     474.999E-03     486.224E-03
            4486            4706     441.851E-03     450.941E-03
            4486            4720     462.618E-03     467.861E-03
            4486            4721     433.933E-03     436.930E-03
            4487            4706     441.851E-03     450.941E-03
            4487            4707     406.254E-03     413.328E-03
            4487            4721     433.933E-03     436.930E-03
            4487            4722     401.750E-03     403.328E-03
            4488            4707     406.254E-03     413.328E-03
            4488            4708     369.363E-03     375.140E-03
            4488            4722     401.750E-03     403.328E-03
            4488            4723     367.827E-03     368.501E-03
            4489            4708     369.363E-03     375.140E-03
            4489            4709     332.482E-03     337.255E-03
            4489            4723     367.827E-03     368.501E-03
            4489            4724     333.214E-03     333.535E-03
            4490            4709     332.482E-03     337.255E-03
            4490            4710     295.818E-03     300.098E-03
            4490            4724     333.214E-03     333.535E-03
            4490            4725     298.900E-03     299.075E-03
            4491            4710     295.818E-03     300.098E-03
            4491            4711     260.020E-03     264.165E-03
            4491            4725     298.900E-03     299.075E-03
            4491            4726     265.226E-03     265.668E-03
            4492            4711     260.020E-03     264.165E-03
            4492            4712     225.387E-03     229.779E-03
            4492            4726     265.226E-03     265.668E-03
            4492            4727     232.897E-03     233.984E-03
            4493            4712     225.387E-03     229.779E-03
            4493            4713     192.645E-03     197.793E-03
            4493            4727     232.897E-03     233.984E-03
            4493            4728     202.364E-03     204.836E-03
            4494            4713     192.645E-03     197.793E-03
            4494            4714     163.508E-03     168.561E-03
            4494            4728     202.364E-03     204.836E-03
            4494            4729     174.879E-03     179.826E-03
            4495            4714     163.508E-03     168.561E-03
            4495            4715     139.978E-03     142.855E-03
            4495            4729     174.879E-03     179.826E-03
            4495            4730     153.911E-03     158.419E-03
            4496            4715     139.978E-03     142.855E-03
            4496            4716     125.023E-03     124.447E-03
            4496            4730     153.911E-03     158.419E-03
            4496            4731     141.056E-03     140.994E-03
            4497             763     120.224E-03     117.742E-03
            4497             764     136.476E-03     133.774E-03
            4497            4716     125.023E-03     124.447E-03
            4497            4731     141.056E-03     140.994E-03
            4498             607     529.278E-03     531.063E-03
            4498             608     479.925E-03     477.940E-03
            4498            4717     519.071E-03     524.285E-03
            4498            4732     476.402E-03     477.882E-03
            4499            4717     519.071E-03     524.285E-03
            4499            4718     501.674E-03     511.017E-03
            4499            4732     476.402E-03     477.882E-03
            4499            4733     472.533E-03     474.934E-03
            4500            4718     501.674E-03     511.017E-03
            4500            4719     485.070E-03     493.489E-03
            4500            4733     472.533E-03     474.934E-03
            4500            4734     464.825E-03     463.162E-03
            4501            4719     485.070E-03     493.489E-03
            4501            4720     462.618E-03     467.861E-03
            4501            4734     464.825E-03     463.162E-03
            4501            4735     446.389E-03     442.541E-03
            4502            4720     462.618E-03     467.861E-03
            4502            4721     433.933E-03     436.930E-03
            4502            4735     446.389E-03     442.541E-03
            4502            4736     421.831E-03     417.022E-03
            4503            4721     433.933E-03     436.930E-03
            4503            4722     401.750E-03     403.328E-03
            4503            4736     421.831E-03     417.022E-03
            4503            4737     393.351E-03     388.467E-03
            4504            4722     401.750E-03     403.328E-03
            4504            4723     367.827E-03     368.501E-03
            4504            4737     393.351E-03     388.467E-03
            4504            4738     362.917E-03     358.319E-03
            4505            4723     367.827E-03     368.501E-03
            4505            4724     333.214E-03     333.535E-03
            4505            4738     362.917E-03     358.319E-03
            4505            4739     331.701E-03     327.467E-03
            4506            4724     333.214E-03     333.535E-03
            4506            4725     298.900E-03     299.075E-03
            4506            4739     331.701E-03     327.467E-03
            4506            4740     300.464E-03     296.747E-03
            4507            4725     298.900E-03     299.075E-03
            4507            4726     265.226E-03     265.668E-03
            4507            4740     300.464E-03     296.747E-03
            4507            4741     269.959E-03     266.754E-03
            4508            4726     265.226E-03     265.668E-03
            4508            4727     232.897E-03     233.984E-03
            4508            4741     269.959E-03     266.754E-03
            4508            4742     240.619E-03     238.340E-03
            4509            4727     232.897E-03     233.984E-03
            4509            4728     202.364E-03     204.836E-03
            4509            4742     240.619E-03     238.340E-03
            4509            4743     213.241E-03     212.422E-03
            4510            4728     202.364E-03     204.836E-03
            4510            4729     174.879E-03     179.826E-03
            4510            4743     213.241E-03     212.422E-03
            4510            4744     188.187E-03     190.789E-03
            4511            4729     174.879E-03     179.826E-03
            4511            4730     153.911E-03     158.419E-03
            4511            4744     188.187E-03     190.789E-03
            4511            4745     167.451E-03     175.701E-03
            4512            4730     153.911E-03     158.419E-03
            4512            4731     141.056E-03     140.994E-03
            4512            4745     167.451E-03     175.701E-03
            4512            4746     157.361E-03     163.433E-03
            4513             764     136.476E-03     133.774E-03
            4513             765     156.033E-03     156.877E-03
            4513            4731     141.056E-03     140.994E-03
            4513            4746     157.361E-03     163.433E-03
            4514             608     479.925E-03     477.940E-03
            4514             609     426.856E-03     408.824E-03
            4514            4732     476.402E-03     477.882E-03
            4514            4747     436.530E-03     419.013E-03
            4515            4732     476.402E-03     477.882E-03
            4515            4733     472.533E-03     474.934E-03
            4515            4747     436.530E-03     419.013E-03
            4515            4748     446.735E-03     429.140E-03
            4516            4733     472.533E-03     474.934E-03
            4516            4734     464.825E-03     463.162E-03
            4516            4748     446.735E-03     429.140E-03
            4516            4749     441.635E-03     424.239E-03
            4517            4734     464.825E-03     463.162E-03
            4517            4735     446.389E-03     442.541E-03
            4517            4749     441.635E-03     424.239E-03
            4517            4750     426.728E-03     411.221E-03
            4518            4735     446.389E-03     442.541E-03
            4518            4736     421.831E-03     417.022E-03
            4518            4750     426.728E-03     411.221E-03
            4518            4751     406.125E-03     392.946E-03
            4519            4736     421.831E-03     417.022E-03
            4519            4737     393.351E-03     388.467E-03
            4519            4751     406.125E-03     392.946E-03
            4519            4752     382.203E-03     371.065E-03
            4520            4737     393.351E-03     388.467E-03
            4520            4738     362.917E-03     358.319E-03
            4520            4752     382.203E-03     371.065E-03
            4520            4753     356.181E-03     346.759E-03
            4521            4738     362.917E-03     358.319E-03
            4521            4739     331.701E-03     327.467E-03
            4521            4753     356.181E-03     346.759E-03
            4521            4754     329.185E-03     321.151E-03
            4522            4739     331.701E-03     327.467E-03
            4522            4740     300.464E-03     296.747E-03
            4522            4754     329.185E-03     321.151E-03
            4522            4755     301.962E-03     294.965E-03
            4523            4740     300.464E-03     296.747E-03
            4523            4741     269.959E-03     266.754E-03
            4523            4755     301.962E-03     294.965E-03
            4523            4756     275.235E-03     269.110E-03
            4524            4741     269.959E-03     266.754E-03
            4524            4742     240.619E-03     238.340E-03
            4524            4756     275.235E-03     269.110E-03
            4524            4757     249.621E-03     244.319E-03
            4525            4742     240.619E-03     238.340E-03
            4525            4743     213.241E-03     212.422E-03
            4525            4757     249.621E-03     244.319E-03
            4525            4758     225.911E-03     221.728E-03
            4526            4743     213.241E-03     212.422E-03
            4526            4744     188.187E-03     190.789E-03
            4526            4758     225.911E-03     221.728E-03
            4526            4759     204.624E-03     202.513E-03
            4527            4744     188.187E-03     190.789E-03
            4527            4745     167.451E-03     175.701E-03
            4527            4759     204.624E-03     202.513E-03
            4527            4760     185.800E-03     189.984E-03
            4528            4745     167.451E-03     175.701E-03
            4528            4746     157.361E-03     163.433E-03
            4528            4760     185.800E-03     189.984E-03
            4528            4761     171.577E-03     186.412E-03
            4529             765     156.033E-03     156.877E-03
            4529             766     166.064E-03     186.711E-03
            4529            4746     157.361E-03     163.433E-03
            4529            4761     171.577E-03     186.412E-03
            4530             609     426.856E-03     408.824E-03
            4530             610     441.999E-03     450.653E-03
            4530            4747     436.530E-03     419.013E-03
            4530            4762     416.615E-03     417.855E-03
            4531            4747     436.530E-03     419.013E-03
            4531            4748     446.735E-03     429.140E-03
            4531            4762     416.615E-03     417.855E-03
            4531            4763     378.098E-03     370.892E-03
            4532            4748     446.735E-03     429.140E-03
            4532            4749     441.635E-03     424.239E-03
            4532            4763     378.098E-03     370.892E-03
            4532            4764     351.402E-03     345.070E-03
            4533            4749     441.635E-03     424.239E-03
            4533            4750     426.728E-03     411.221E-03
            4533            4764     351.402E-03     345.070E-03
            4533            4765     326.481E-03     322.676E-03
            4534            4750     426.728E-03     411.221E-03
            4534            4751     406.125E-03     392.946E-03
            4534            4765     326.481E-03     322.676E-03
            4534            4766     303.657E-03     301.983E-03
            4535            4751     406.125E-03     392.946E-03
            4535            4752     382.203E-03     371.065E-03
            4535            4766     303.657E-03     301.983E-03
            4535            4767     281.234E-03     281.705E-03
            4536            4752     382.203E-03     371.065E-03
            4536            4753     356.181E-03     346.759E-03
            4536            4767     281.234E-03     281.705E-03
            4536            4768     259.483E-03     261.408E-03
            4537            4753     356.181E-03     346.759E-03
            4537            4754     329.185E-03     321.151E-03
            4537            4768     259.483E-03     261.408E-03
            4537            4769     237.977E-03     241.047E-03
            4538            4754     329.185E-03     321.151E-03
            4538            4755     301.962E-03     294.965E-03
            4538            4769     237.977E-03     241.047E-03
            4538            4770     216.974E-03     220.689E-03
            4539            4755     301.962E-03     294.965E-03
            4539            4756     275.235E-03     269.110E-03
            4539            4770     216.974E-03     220.689E-03
            4539            4771     196.629E-03     200.739E-03
            4540            4756     275.235E-03     269.110E-03
            4540            4757     249.621E-03     244.319E-03
            4540            4771     196.629E-03     200.739E-03
            4540            4772     177.287E-03     181.370E-03
            4541            4757     249.621E-03     244.319E-03
            4541            4758     225.911E-03     221.728E-03
            4541            4772     177.287E-03     181.370E-03
            4541            4773     159.489E-03     163.558E-03
            4542            4758     225.911E-03     221.728E-03
            4542            4759     204.624E-03     202.513E-03
            4542            4773     159.489E-03     163.558E-03
            4542            4774     143.705E-03     147.459E-03
            4543            4759     204.624E-03     202.513E-03
            4543            4760     185.800E-03     189.984E-03
            4543            4774     143.705E-03     147.459E-03
            4543            4775     130.802E-03     135.645E-03
            4544            4760     185.800E-03     189.984E-03
            4544            4761     171.577E-03     186.412E-03
            4544            4775     130.802E-03     135.645E-03
            4544            4776     117.200E-03     131.095E-03
            4545             766     166.064E-03     186.711E-03
            4545             767     109.228E-03     130.682E-03
            4545            4761     171.577E-03     186.412E-03
            4545            4776     117.200E-03     131.095E-03
            4546             610     441.999E-03     450.653E-03
            4546             611     475.718E-03     483.794E-03
            4546            4762     416.615E-03     417.855E-03
            4546            4777     420.293E-03     432.182E-03
            4547            4762     416.615E-03     417.855E-03
            4547            4763     378.098E-03     370.892E-03
            4547            4777     420.293E-03     432.182E-03
            4547            4778     330.475E-03     345.143E-03
            4548            4763     378.098E-03     370.892E-03
            4548            4764     351.402E-03     345.070E-03
            4548            4778     330.475E-03     345.143E-03
            4548            4779     276.772E-03     290.288E-03
            4549            4764     351.402E-03     345.070E-03
            4549            4765     326.481E-03     322.676E-03
            4549            4779     276.772E-03     290.288E-03
            4549            4780     241.206E-03     254.584E-03
            4550            4765     326.481E-03     322.676E-03
            4550            4766     303.657E-03     301.983E-03
            4550            4780     241.206E-03     254.584E-03
            4550            4781     212.942E-03     226.706E-03
            4551            4766     303.657E-03     301.983E-03
            4551            4767     281.234E-03     281.705E-03
            4551            4781     212.942E-03     226.706E-03
            4551            4782     190.167E-03     204.370E-03
            4552            4767     281.234E-03     281.705E-03
            4552            4768     259.483E-03     261.408E-03
            4552            4782     190.167E-03     204.370E-03
            4552            4783     170.102E-03     184.604E-03
            4553            4768     259.483E-03     261.408E-03
            4553            4769     237.977E-03     241.047E-03
            4553            4783     170.102E-03     184.604E-03
            4553            4784     152.062E-03     166.693E-03
            4554            4769     237.977E-03     241.047E-03
            4554            4770     216.974E-03     220.689E-03
            4554            4784     152.062E-03     166.693E-03
            4554            4785     135.195E-03     149.670E-03
            4555            4770     216.974E-03     220.689E-03
            4555            4771     196.629E-03     200.739E-03
            4555            4785     135.195E-03     149.670E-03
            4555            4786     119.387E-03     133.442E-03
            4556            4771     196.629E-03     200.739E-03
            4556            4772     177.287E-03     181.370E-03
            4556            4786     119.387E-03     133.442E-03
            4556            4787     104.527E-03     117.844E-03
            4557            4772     177.287E-03     181.370E-03
            4557            4773     159.489E-03     163.558E-03
            4557            4787     104.527E-03     117.844E-03
            4557            4788     90.9328E-03     103.171E-03
            4558            4773     159.489E-03     163.558E-03
            4558            4774     143.705E-03     147.459E-03
            4558            4788     90.9328E-03     103.171E-03
            4558            4789     78.9894E-03     89.7810E-03
            4559            4774     143.705E-03     147.459E-03
            4559            4775     130.802E-03     135.645E-03
            4559            4789     78.9894E-03     89.7810E-03
            4559            4790     69.3106E-03     78.9733E-03
            4560            4775     130.802E-03     135.645E-03
            4560            4776     117.200E-03     131.095E-03
            4560            4790     69.3106E-03     78.9733E-03
            4560            4791     63.7405E-03     71.0288E-03
            4561             767     109.228E-03     130.682E-03
            4561             768     62.3204E-03     67.6582E-03
            4561            4776     117.200E-03     131.095E-03
            4561            4791     63.7405E-03     71.0288E-03
            4562             611     475.718E-03     483.794E-03
            4562             612     434.838E-03     432.116E-03
            4562            4777     420.293E-03     432.182E-03
            4562            4792     403.843E-03     404.575E-03
            4563            4777     420.293E-03     432.182E-03
            4563            4778     330.475E-03     345.143E-03
            4563            4792     403.843E-03     404.575E-03
            4563            4793     338.936E-03     346.095E-03
            4564            4778     330.475E-03     345.143E-03
            4564            4779     276.772E-03     290.288E-03
            4564            4793     338.936E-03     346.095E-03
            4564            4794     283.712E-03     295.018E-03
            4565            4779     276.772E-03     290.288E-03
            4565            4780     241.206E-03     254.584E-03
            4565            4794     283.712E-03     295.018E-03
            4565            4795     247.653E-03     260.008E-03
            4566            4780     241.206E-03     254.584E-03
            4566            4781     212.942E-03     226.706E-03
            4566            4795     247.653E-03     260.008E-03
            4566            4796     220.290E-03     232.832E-03
            4567            4781     212.942E-03     226.706E-03
            4567            4782     190.167E-03     204.370E-03
            4567            4796     220.290E-03     232.832E-03
            4567            4797     197.595E-03     210.349E-03
            4568            4782     190.167E-03     204.370E-03
            4568            4783     170.102E-03     184.604E-03
            4568            4797     197.595E-03     210.349E-03
            4568            4798     178.077E-03     190.657E-03
            4569            4783     170.102E-03     184.604E-03
            4569            4784     152.062E-03     166.693E-03
            4569            4798     178.077E-03     190.657E-03
            4569            4799     160.181E-03     172.530E-03
            4570            4784     152.062E-03     166.693E-03
            4570            4785     135.195E-03     149.670E-03
            4570            4799     160.181E-03     172.530E-03
            4570            4800     143.618E-03     155.517E-03
            4571            4785     135.195E-03     149.670E-03
            4571            4786     119.387E-03     133.442E-03
            4571            4800     143.618E-03     155.517E-03
            4571            4801     128.004E-03     139.266E-03
            4572            4786     119.387E-03     133.442E-03
            4572            4787     104.527E-03     117.844E-03
            4572            4801     128.004E-03     139.266E-03
            4572            4802     113.503E-03     123.873E-03
            4573            4787     104.527E-03     117.844E-03
            4573            4788     90.9328E-03     103.171E-03
            4573            4802     113.503E-03     123.873E-03
            4573            4803     100.364E-03     109.437E-03
            4574            4788     90.9328E-03     103.171E-03
            4574            4789     78.9894E-03     89.7810E-03
            4574            4803     100.364E-03     109.437E-03
            4574            4804     89.0167E-03     96.6137E-03
            4575            4789     78.9894E-03     89.7810E-03
            4575            4790     69.3106E-03     78.9733E-03
            4575            4804     89.0167E-03     96.6137E-03
            4575            4805     80.6359E-03     85.7142E-03
            4576            4790     69.3106E-03     78.9733E-03
            4576            4791     63.7405E-03     71.0288E-03
            4576            4805     80.6359E-03     85.7142E-03
            4576            4806     76.9720E-03     76.6656E-03
            4577             768     62.3204E-03     67.6582E-03
            4577             769     76.4923E-03     72.5900E-03
            4577            4791     63.7405E-03     71.0288E-03
            4577            4806     76.9720E-03     76.6656E-03
            4578             612     434.838E-03     432.116E-03
            4578             613     389.386E-03     397.334E-03
            4578            4792     403.843E-03     404.575E-03
            4578            4807     367.863E-03     374.190E-03
            4579            4792     403.843E-03     404.575E-03
            4579            4793     338.936E-03     346.095E-03
            4579            4807     367.863E-03     374.190E-03
            4579            4808     325.606E-03     331.382E-03
            4580            4793     338.936E-03     346.095E-03
            4580            4794     283.712E-03     295.018E-03
            4580            4808     325.606E-03     331.382E-03
            4580            4809     285.173E-03     293.531E-03
            4581            4794     283.712E-03     295.018E-03
            4581            4795     247.653E-03     260.008E-03
            4581            4809     285.173E-03     293.531E-03
            4581            4810     251.534E-03     262.151E-03
            4582            4795     247.653E-03     260.008E-03
            4582            4796     220.290E-03     232.832E-03
            4582            4810     251.534E-03     262.151E-03
            4582            4811     226.336E-03     237.451E-03
            4583            4796     220.290E-03     232.832E-03
            4583            4797     197.595E-03     210.349E-03
            4583            4811     226.336E-03     237.451E-03
            4583            4812     204.924E-03     215.863E-03
            4584            4797     197.595E-03     210.349E-03
            4584            4798     178.077E-03     190.657E-03
            4584            4812     204.924E-03     215.863E-03
            4584            4813     185.852E-03     196.509E-03
            4585            4798     178.077E-03     190.657E-03
            4585            4799     160.181E-03     172.530E-03
            4585            4813     185.852E-03     196.509E-03
            4585            4814     168.351E-03     178.444E-03
            4586            4799     160.181E-03     172.530E-03
            4586            4800     143.618E-03     155.517E-03
            4586            4814     168.351E-03     178.444E-03
            4586            4815     151.859E-03     161.364E-03
            4587            4800     143.618E-03     155.517E-03
            4587            4801     128.004E-03     139.266E-03
            4587            4815     151.859E-03     161.364E-03
            4587            4816     136.423E-03     145.150E-03
            4588            4801     128.004E-03     139.266E-03
            4588            4802     113.503E-03     123.873E-03
            4588            4816     136.423E-03     145.150E-03
            4588            4817     122.142E-03     129.817E-03
            4589            4802     113.503E-03     123.873E-03
            4589            4803     100.364E-03     109.437E-03
            4589            4817     122.142E-03     129.817E-03
            4589            4818     109.364E-03     115.618E-03
            4590            4803     100.364E-03     109.437E-03
            4590            4804     89.0167E-03     96.6137E-03
            4590            4818     109.364E-03     115.618E-03
            4590            4819     98.7692E-03     102.880E-03
            4591            4804     89.0167E-03     96.6137E-03
            4591            4805     80.6359E-03     85.7142E-03
            4591            4819     98.7692E-03     102.880E-03
            4591            4820     91.3834E-03     91.7003E-03
            4592            4805     80.6359E-03     85.7142E-03
            4592            4806     76.9720E-03     76.6656E-03
            4592            4820     91.3834E-03     91.7003E-03
            4592            4821     86.8885E-03     83.6295E-03
            4593             769     76.4923E-03     72.5900E-03
            4593             770     85.2118E-03     80.7929E-03
            4593            4806     76.9720E-03     76.6656E-03
            4593            4821     86.8885E-03     83.6295E-03
            4594             613     389.386E-03     397.334E-03
            4594             614     354.298E-03     354.036E-03
            4594            4807     367.863E-03     374.190E-03
            4594            4822     335.991E-03     338.581E-03
            4595            4807     367.863E-03     374.190E-03
            4595            4808     325.606E-03     331.382E-03
            4595            4822     335.991E-03     338.581E-03
            4595            4823     302.785E-03     309.181E-03
            4596            4808     325.606E-03     331.382E-03
            4596            4809     285.173E-03     293.531E-03
            4596            4823     302.785E-03     309.181E-03
            4596            4824     275.543E-03     283.373E-03
            4597            4809     285.173E-03     293.531E-03
            4597            4810     251.534E-03     262.151E-03
            4597            4824     275.543E-03     283.373E-03
            4597            4825     251.275E-03     260.113E-03
            4598            4810     251.534E-03     262.151E-03
            4598            4811     226.336E-03     237.451E-03
            4598            4825     251.275E-03     260.113E-03
            4598            4826     229.545E-03     238.942E-03
            4599            4811     226.336E-03     237.451E-03
            4599            4812     204.924E-03     215.863E-03
            4599            4826     229.545E-03     238.942E-03
            4599            4827     210.562E-03     219.595E-03
            4600            4812     204.924E-03     215.863E-03
            4600            4813     185.852E-03     196.509E-03
            4600            4827     210.562E-03     219.595E-03
            4600            4828     192.627E-03     201.063E-03
            4601            4813     185.852E-03     196.509E-03
            4601            4814     168.351E-03     178.444E-03
            4601            4828     192.627E-03     201.063E-03
            4601            4829     175.609E-03     183.429E-03
            4602            4814     168.351E-03     178.444E-03
            4602            4815     151.859E-03     161.364E-03
            4602            4829     175.609E-03     183.429E-03
            4602            4830     159.390E-03     166.521E-03
            4603            4815     151.859E-03     161.364E-03
            4603            4816     136.423E-03     145.150E-03
            4603            4830     159.390E-03     166.521E-03
            4603            4831     144.107E-03     150.466E-03
            4604            4816     136.423E-03     145.150E-03
            4604            4817     122.142E-03     129.817E-03
            4604            4831     144.107E-03     150.466E-03
            4604            4832     130.023E-03     135.358E-03
            4605            4817     122.142E-03     129.817E-03
            4605            4818     109.364E-03     115.618E-03
            4605            4832     130.023E-03     135.358E-03
            4605            4833     117.623E-03     121.461E-03
            4606            4818     109.364E-03     115.618E-03
            4606            4819     98.7692E-03     102.880E-03
            4606            4833     117.623E-03     121.461E-03
            4606            4834     107.528E-03     108.870E-03
            4607            4819     98.7692E-03     102.880E-03
            4607            4820     91.3834E-03     91.7003E-03
            4607            4834     107.528E-03     108.870E-03
            4607            4835     99.9777E-03     98.6266E-03
            4608            4820     91.3834E-03     91.7003E-03
            4608            4821     86.8885E-03     83.6295E-03
            4608            4835     99.9777E-03     98.6266E-03
            4608            4836     95.6423E-03     91.5543E-03
            4609             770     85.2118E-03     80.7929E-03
            4609             771     94.4035E-03     88.7507E-03
            4609            4821     86.8885E-03     83.6295E-03
            4609            4836     95.6423E-03     91.5543E-03
            4610             614     354.298E-03     354.036E-03
            4610             615     315.527E-03     318.902E-03
            4610            4822     335.991E-03     338.581E-03
            4610            4837     302.417E-03     305.701E-03
            4611            4822     335.991E-03     338.581E-03
            4611            4823     302.785E-03     309.181E-03
            4611            4837     302.417E-03     305.701E-03
            4611            4838     279.359E-03     284.254E-03
            4612            4823     302.785E-03     309.181E-03
            4612            4824     275.543E-03     283.373E-03
            4612            4838     279.359E-03     284.254E-03
            4612            4839     261.155E-03     268.489E-03
            4613            4824     275.543E-03     283.373E-03
            4613            4825     251.275E-03     260.113E-03
            4613            4839     261.155E-03     268.489E-03
            4613            4840     245.565E-03     253.380E-03
            4614            4825     251.275E-03     260.113E-03
            4614            4826     229.545E-03     238.942E-03
            4614            4840     245.565E-03     253.380E-03
            4614            4841     229.973E-03     237.349E-03
            4615            4826     229.545E-03     238.942E-03
            4615            4827     210.562E-03     219.595E-03
            4615            4841     229.973E-03     237.349E-03
            4615            4842     213.774E-03     220.572E-03
            4616            4827     210.562E-03     219.595E-03
            4616            4828     192.627E-03     201.063E-03
            4616            4842     213.774E-03     220.572E-03
            4616            4843     197.611E-03     203.599E-03
            4617            4828     192.627E-03     201.063E-03
            4617            4829     175.609E-03     183.429E-03
            4617            4843     197.611E-03     203.599E-03
            4617            4844     181.373E-03     186.695E-03
            4618            4829     175.609E-03     183.429E-03
            4618            4830     159.390E-03     166.521E-03
            4618            4844     181.373E-03     186.695E-03
            4618            4845     165.636E-03     170.356E-03
            4619            4830     159.390E-03     166.521E-03
            4619            4831     144.107E-03     150.466E-03
            4619            4845     165.636E-03     170.356E-03
            4619            4846     150.634E-03     154.767E-03
            4620            4831     144.107E-03     150.466E-03
            4620            4832     130.023E-03     135.358E-03
            4620            4846     150.634E-03     154.767E-03
            4620            4847     136.875E-03     140.213E-03
            4621            4832     130.023E-03     135.358E-03
            4621            4833     117.623E-03     121.461E-03
            4621            4847     136.875E-03     140.213E-03
            4621            4848     124.796E-03     126.810E-03
            4622            4833     117.623E-03     121.461E-03
            4622            4834     107.528E-03     108.870E-03
            4622            4848     124.796E-03     126.810E-03
            4622            4849     114.905E-03     115.132E-03
            4623            4834     107.528E-03     108.870E-03
            4623            4835     99.9777E-03     98.6266E-03
            4623            4849     114.905E-03     115.132E-03
            4623            4850     107.772E-03     105.476E-03
            4624            4835     99.9777E-03     98.6266E-03
            4624            4836     95.6423E-03     91.5543E-03
            4624            4850     107.772E-03     105.476E-03
            4624            4851     103.505E-03     98.8871E-03
            4625             771     94.4035E-03     88.7507E-03
            4625             772     102.077E-03     96.6410E-03
            4625            4836     95.6423E-03     91.5543E-03
            4625            4851     103.505E-03     98.8871E-03
            4626             615     315.527E-03     318.902E-03
            4626             616     281.248E-03     280.306E-03
            4626            4837     302.417E-03     305.701E-03
            4626            4852     269.937E-03     271.686E-03
            4627            4837     302.417E-03     305.701E-03
            4627            4838     279.359E-03     284.254E-03
            4627            4852     269.937E-03     271.686E-03
            4627            4853     253.739E-03     258.994E-03
            4628            4838     279.359E-03     284.254E-03
            4628            4839     261.155E-03     268.489E-03
            4628            4853     253.739E-03     258.994E-03
            4628            4854     245.443E-03     251.676E-03
            4629            4839     261.155E-03     268.489E-03
            4629            4840     245.565E-03     253.380E-03
            4629            4854     245.443E-03     251.676E-03
            4629            4855     237.443E-03     243.649E-03
            4630            4840     245.565E-03     253.380E-03
            4630            4841     229.973E-03     237.349E-03
            4630            4855     237.443E-03     243.649E-03
            4630            4856     227.403E-03     232.566E-03
            4631            4841     229.973E-03     237.349E-03
            4631            4842     213.774E-03     220.572E-03
            4631            4856     227.403E-03     232.566E-03
            4631            4857     214.766E-03     218.725E-03
            4632            4842     213.774E-03     220.572E-03
            4632            4843     197.611E-03     203.599E-03
            4632            4857     214.766E-03     218.725E-03
            4632            4858     200.271E-03     203.476E-03
            4633            4843     197.611E-03     203.599E-03
            4633            4844     181.373E-03     186.695E-03
            4633            4858     200.271E-03     203.476E-03
            4633            4859     185.285E-03     187.854E-03
            4634            4844     181.373E-03     186.695E-03
            4634            4845     165.636E-03     170.356E-03
            4634            4859     185.285E-03     187.854E-03
            4634            4860     170.235E-03     172.433E-03
            4635            4845     165.636E-03     170.356E-03
            4635            4846     150.634E-03     154.767E-03
            4635            4860     170.235E-03     172.433E-03
            4635            4861     155.844E-03     157.766E-03
            4636            4846     150.634E-03     154.767E-03
            4636            4847     136.875E-03     140.213E-03
            4636            4861     155.844E-03     157.766E-03
            4636            4862     142.504E-03     144.165E-03
            4637            4847     136.875E-03     140.213E-03
            4637            4848     124.796E-03     126.810E-03
            4637            4862     142.504E-03     144.165E-03
            4637            4863     130.863E-03     131.880E-03
            4638            4848     124.796E-03     126.810E-03
            4638            4849     114.905E-03     115.132E-03
            4638            4863     130.863E-03     131.880E-03
            4638            4864     121.396E-03     121.069E-03
            4639            4849     114.905E-03     115.132E-03
            4639            4850     107.772E-03     105.476E-03
            4639            4864     121.396E-03     121.069E-03
            4639            4865     114.636E-03     112.440E-03
            4640            4850     107.772E-03     105.476E-03
            4640            4851     103.505E-03     98.8871E-03
            4640            4865     114.636E-03     112.440E-03
            4640            4866     110.778E-03     106.180E-03
            4641             772     102.077E-03     96.6410E-03
            4641             773     109.534E-03     103.579E-03
            4641            4851     103.505E-03     98.8871E-03
            4641            4866     110.778E-03     106.180E-03
            4642             616     281.248E-03     280.306E-03
            4642             617     242.552E-03     242.622E-03
            4642            4852     269.937E-03     271.686E-03
            4642            4867     235.607E-03     237.011E-03
            4643            4852     269.937E-03     271.686E-03
            4643            4853     253.739E-03     258.994E-03
            4643            4867     235.607E-03     237.011E-03
            4643            4868     228.210E-03     232.431E-03
            4644            4853     253.739E-03     258.994E-03
            4644            4854     245.443E-03     251.676E-03
            4644            4868     228.210E-03     232.431E-03
            4644            4869     228.728E-03     233.966E-03
            4645            4854     245.443E-03     251.676E-03
            4645            4855     237.443E-03     243.649E-03
            4645            4869     228.728E-03     233.966E-03
            4645            4870     228.616E-03     232.131E-03
            4646            4855     237.443E-03     243.649E-03
            4646            4856     227.403E-03     232.566E-03
            4646            4870     228.616E-03     232.131E-03
            4646            4871     223.088E-03     224.866E-03
            4647            4856     227.403E-03     232.566E-03
            4647            4857     214.766E-03     218.725E-03
            4647            4871     223.088E-03     224.866E-03
            4647            4872     213.104E-03     213.789E-03
            4648            4857     214.766E-03     218.725E-03
            4648            4858     200.271E-03     203.476E-03
            4648            4872     213.104E-03     213.789E-03
            4648            4873     200.727E-03     200.636E-03
            4649            4858     200.271E-03     203.476E-03
            4649            4859     185.285E-03     187.854E-03
            4649            4873     200.727E-03     200.636E-03
            4649            4874     187.026E-03     186.630E-03
            4650            4859     185.285E-03     187.854E-03
            4650            4860     170.235E-03     172.433E-03
            4650            4874     187.026E-03     186.630E-03
            4650            4875     173.188E-03     172.703E-03
            4651            4860     170.235E-03     172.433E-03
            4651            4861     155.844E-03     157.766E-03
            4651            4875     173.188E-03     172.703E-03
            4651            4876     159.714E-03     159.385E-03
            4652            4861     155.844E-03     157.766E-03
            4652            4862     142.504E-03     144.165E-03
            4652            4876     159.714E-03     159.385E-03
            4652            4877     147.162E-03     147.188E-03
            4653            4862     142.504E-03     144.165E-03
            4653            4863     130.863E-03     131.880E-03
            4653            4877     147.162E-03     147.188E-03
            4653            4878     136.016E-03     136.528E-03
            4654            4863     130.863E-03     131.880E-03
            4654            4864     121.396E-03     121.069E-03
            4654            4878     136.016E-03     136.528E-03
            4654            4879     127.195E-03     127.205E-03
            4655            4864     121.396E-03     121.069E-03
            4655            4865     114.636E-03     112.440E-03
            4655            4879     127.195E-03     127.205E-03
            4655            4880     120.901E-03     119.301E-03
            4656            4865     114.636E-03     112.440E-03
            4656            4866     110.778E-03     106.180E-03
            4656            4880     120.901E-03     119.301E-03
            4656            4881     117.500E-03     114.123E-03
            4657             773     109.534E-03     103.579E-03
            4657             774     116.660E-03     112.385E-03
            4657            4866     110.778E-03     106.180E-03
            4657            4881     117.500E-03     114.123E-03
            4658             617     242.552E-03     242.622E-03
            4658             618     204.784E-03     200.667E-03
            4658            4867     235.607E-03     237.011E-03
            4658            4882     199.904E-03     199.810E-03
            4659            4867     235.607E-03     237.011E-03
            4659            4868     228.210E-03     232.431E-03
            4659            4882     199.904E-03     199.810E-03
            4659            4883     201.693E-03     205.410E-03
            4660            4868     228.210E-03     232.431E-03
            4660            4869     228.728E-03     233.966E-03
            4660            4883     201.693E-03     205.410E-03
            4660            4884     213.945E-03     215.559E-03
            4661            4869     228.728E-03     233.966E-03
            4661            4870     228.616E-03     232.131E-03
            4661            4884     213.945E-03     215.559E-03
            4661            4885     219.423E-03     218.347E-03
            4662            4870     228.616E-03     232.131E-03
            4662            4871     223.088E-03     224.866E-03
            4662            4885     219.423E-03     218.347E-03
            4662            4886     216.713E-03     214.129E-03
            4663            4871     223.088E-03     224.866E-03
            4663            4872     213.104E-03     213.789E-03
            4663            4886     216.713E-03     214.129E-03
            4663            4887     209.188E-03     205.803E-03
            4664            4872     213.104E-03     213.789E-03
            4664            4873     200.727E-03     200.636E-03
            4664            4887     209.188E-03     205.803E-03
            4664            4888     198.681E-03     195.080E-03
            4665            4873     200.727E-03     200.636E-03
            4665            4874     187.026E-03     186.630E-03
            4665            4888     198.681E-03     195.080E-03
            4665            4889     186.874E-03     183.322E-03
            4666            4874     187.026E-03     186.630E-03
            4666            4875     173.188E-03     172.703E-03
            4666            4889     186.874E-03     183.322E-03
            4666            4890     174.601E-03     171.368E-03
            4667            4875     173.188E-03     172.703E-03
            4667            4876     159.714E-03     159.385E-03
            4667            4890     174.601E-03     171.368E-03
            4667            4891     162.583E-03     159.942E-03
            4668            4876     159.714E-03     159.385E-03
            4668            4877     147.162E-03     147.188E-03
            4668            4891     162.583E-03     159.942E-03
            4668            4892     151.285E-03     149.511E-03
            4669            4877     147.162E-03     147.188E-03
            4669            4878     136.016E-03     136.528E-03
            4669            4892     151.285E-03     149.511E-03
            4669            4893     140.982E-03     140.607E-03
            4670            4878     136.016E-03     136.528E-03
            4670            4879     127.195E-03     127.205E-03
            4670            4893     140.982E-03     140.607E-03
            4670            4894     132.314E-03     133.745E-03
            4671            4879     127.195E-03     127.205E-03
            4671            4880     120.901E-03     119.301E-03
            4671            4894     132.314E-03     133.745E-03
            4671            4895     126.983E-03     127.494E-03
            4672            4880     120.901E-03     119.301E-03
            4672            4881     117.500E-03     114.123E-03
            4672            4895     126.983E-03     127.494E-03
            4672            4896     124.159E-03     121.653E-03
            4673             774     116.660E-03     112.385E-03
            4673             775     122.966E-03     119.193E-03
            4673            4881     117.500E-03     114.123E-03
            4673            4896     124.159E-03     121.653E-03
            4674             618     204.784E-03     200.667E-03
            4674             619     159.179E-03     156.025E-03
            4674            4882     199.904E-03     199.810E-03
            4674            4897     161.647E-03     160.416E-03
            4675            4882     199.904E-03     199.810E-03
            4675            4883     201.693E-03     205.410E-03
            4675            4897     161.647E-03     160.416E-03
            4675            4898     179.736E-03     177.646E-03
            4676            4883     201.693E-03     205.410E-03
            4676            4884     213.945E-03     215.559E-03
            4676            4898     179.736E-03     177.646E-03
            4676            4899     201.290E-03     195.234E-03
            4677            4884     213.945E-03     215.559E-03
            4677            4885     219.423E-03     218.347E-03
            4677            4899     201.290E-03     195.234E-03
            4677            4900     208.558E-03     200.951E-03
            4678            4885     219.423E-03     218.347E-03
            4678            4886     216.713E-03     214.129E-03
            4678            4900     208.558E-03     200.951E-03
            4678            4901     208.066E-03     200.155E-03
            4679            4886     216.713E-03     214.129E-03
            4679            4887     209.188E-03     205.803E-03
            4679            4901     208.066E-03     200.155E-03
            4679            4902     202.745E-03     195.050E-03
            4680            4887     209.188E-03     205.803E-03
            4680            4888     198.681E-03     195.080E-03
            4680            4902     202.745E-03     195.050E-03
            4680            4903     194.676E-03     187.481E-03
            4681            4888     198.681E-03     195.080E-03
            4681            4889     186.874E-03     183.322E-03
            4681            4903     194.676E-03     187.481E-03
            4681            4904     185.156E-03     178.602E-03
            4682            4889     186.874E-03     183.322E-03
            4682            4890     174.601E-03     171.368E-03
            4682            4904     185.156E-03     178.602E-03
            4682            4905     175.092E-03     169.270E-03
            4683            4890     174.601E-03     171.368E-03
            4683            4891     162.583E-03     159.942E-03
            4683            4905     175.092E-03     169.270E-03
            4683            4906     165.051E-03     160.107E-03
            4684            4891     162.583E-03     159.942E-03
            4684            4892     151.285E-03     149.511E-03
            4684            4906     165.051E-03     160.107E-03
            4684            4907     155.434E-03     151.743E-03
            4685            4892     151.285E-03     149.511E-03
            4685            4893     140.982E-03     140.607E-03
            4685            4907     155.434E-03     151.743E-03
            4685            4908     146.603E-03     144.594E-03
            4686            4893     140.982E-03     140.607E-03
            4686            4894     132.314E-03     133.745E-03
            4686            4908     146.603E-03     144.594E-03
            4686            4909     138.419E-03     139.567E-03
            4687            4894     132.314E-03     133.745E-03
            4687            4895     126.983E-03     127.494E-03
            4687            4909     138.419E-03     139.567E-03
            4687            4910     131.922E-03     137.117E-03
            4688            4895     126.983E-03     127.494E-03
            4688            4896     124.159E-03     121.653E-03
            4688            4910     131.922E-03     137.117E-03
            4688            4911     130.682E-03     133.476E-03
            4689             775     122.966E-03     119.193E-03
            4689             776     131.888E-03     130.523E-03
            4689            4896     124.159E-03     121.653E-03
            4689            4911     130.682E-03     133.476E-03
            4690             619     159.179E-03     156.025E-03
            4690             620     110.854E-03     101.860E-03
            4690            4897     161.647E-03     160.416E-03
            4690            4912     130.683E-03     117.633E-03
            4691            4897     161.647E-03     160.416E-03
            4691            4898     179.736E-03     177.646E-03
            4691            4912     130.683E-03     117.633E-03
            4691            4913     165.675E-03     148.191E-03
            4692            4898     179.736E-03     177.646E-03
            4692            4899     201.290E-03     195.234E-03
            4692            4913     165.675E-03     148.191E-03
            4692            4914     186.667E-03     169.809E-03
            4693            4899     201.290E-03     195.234E-03
            4693            4900     208.558E-03     200.951E-03
            4693            4914     186.667E-03     169.809E-03
            4693            4915     194.965E-03     179.974E-03
            4694            4900     208.558E-03     200.951E-03
            4694            4901     208.066E-03     200.155E-03
            4694            4915     194.965E-03     179.974E-03
            4694            4916     196.939E-03     183.670E-03
            4695            4901     208.066E-03     200.155E-03
            4695            4902     202.745E-03     195.050E-03
            4695            4916     196.939E-03     183.670E-03
            4695            4917     194.531E-03     182.889E-03
            4696            4902     202.745E-03     195.050E-03
            4696            4903     194.676E-03     187.481E-03
            4696            4917     194.531E-03     182.889E-03
            4696            4918     189.589E-03     179.347E-03
            4697            4903     194.676E-03     187.481E-03
            4697            4904     185.156E-03     178.602E-03
            4697            4918     189.589E-03     179.347E-03
            4697            4919     183.023E-03     173.979E-03
            4698            4904     185.156E-03     178.602E-03
            4698            4905     175.092E-03     169.270E-03
            4698            4919     183.023E-03     173.979E-03
            4698            4920     175.610E-03     167.714E-03
            4699            4905     175.092E-03     169.270E-03
            4699            4906     165.051E-03     160.107E-03
            4699            4920     175.610E-03     167.714E-03
            4699            4921     167.960E-03     161.120E-03
            4700            4906     165.051E-03     160.107E-03
            4700            4907     155.434E-03     151.743E-03
            4700            4921     167.960E-03     161.120E-03
            4700            4922     160.403E-03     154.799E-03
            4701            4907     155.434E-03     151.743E-03
            4701            4908     146.603E-03     144.594E-03
            4701            4922     160.403E-03     154.799E-03
            4701            4923     153.351E-03     149.296E-03
            4702            4908     146.603E-03     144.594E-03
            4702            4909     138.419E-03     139.567E-03
            4702            4923     153.351E-03     149.296E-03
            4702            4924     146.787E-03     145.054E-03
            4703            4909     138.419E-03     139.567E-03
            4703            4910     131.922E-03     137.117E-03
            4703            4924     146.787E-03     145.054E-03
            4703            4925     140.150E-03     143.919E-03
            4704            4910     131.922E-03     137.117E-03
            4704            4911     130.682E-03     133.476E-03
            4704            4925     140.150E-03     143.919E-03
            4704            4926     134.748E-03     146.162E-03
            4705             776     131.888E-03     130.523E-03
            4705             777     132.688E-03     147.774E-03
            4705            4911     130.682E-03     133.476E-03
            4705            4926     134.748E-03     146.162E-03
            4706             620     110.854E-03     101.860E-03
            4706             621     114.198E-03     123.974E-03
            4706            4912     130.683E-03     117.633E-03
            4706            4927     117.260E-03     118.927E-03
            4707            4912     130.683E-03     117.633E-03
            4707            4913     165.675E-03     148.191E-03
            4707            4927     117.260E-03     118.927E-03
            4707            4928     123.304E-03     118.790E-03
            4708            4913     165.675E-03     148.191E-03
            4708            4914     186.667E-03     169.809E-03
            4708            4928     123.304E-03     118.790E-03
            4708            4929     132.542E-03     129.303E-03
            4709            4914     186.667E-03     169.809E-03
            4709            4915     194.965E-03     179.974E-03
            4709            4929     132.542E-03     129.303E-03
            4709            4930     138.310E-03     135.800E-03
            4710            4915     194.965E-03     179.974E-03
            4710            4916     196.939E-03     183.670E-03
            4710            4930     138.310E-03     135.800E-03
            4710            4931     138.579E-03     137.561E-03
            4711            4916     196.939E-03     183.670E-03
            4711            4917     194.531E-03     182.889E-03
            4711            4931     138.579E-03     137.561E-03
            4711            4932     137.901E-03     137.489E-03
            4712            4917     194.531E-03     182.889E-03
            4712            4918     189.589E-03     179.347E-03
            4712            4932     137.901E-03     137.489E-03
            4712            4933     135.444E-03     135.523E-03
            4713            4918     189.589E-03     179.347E-03
            4713            4919     183.023E-03     173.979E-03
            4713            4933     135.444E-03     135.523E-03
            4713            4934     132.652E-03     132.902E-03
            4714            4919     183.023E-03     173.979E-03
            4714            4920     175.610E-03     167.714E-03
            4714            4934     132.652E-03     132.902E-03
            4714            4935     129.228E-03     129.561E-03
            4715            4920     175.610E-03     167.714E-03
            4715            4921     167.960E-03     161.120E-03
            4715            4935     129.228E-03     129.561E-03
            4715            4936     125.840E-03     126.140E-03
            4716            4921     167.960E-03     161.120E-03
            4716            4922     160.403E-03     154.799E-03
            4716            4936     125.840E-03     126.140E-03
            4716            4937     122.476E-03     122.642E-03
            4717            4922     160.403E-03     154.799E-03
            4717            4923     153.351E-03     149.296E-03
            4717            4937     122.476E-03     122.642E-03
            4717            4938     119.324E-03     119.723E-03
            4718            4923     153.351E-03     149.296E-03
            4718            4924     146.787E-03     145.054E-03
            4718            4938     119.324E-03     119.723E-03
            4718            4939     116.746E-03     116.860E-03
            4719            4924     146.787E-03     145.054E-03
            4719            4925     140.150E-03     143.919E-03
            4719            4939     116.746E-03     116.860E-03
            4719            4940     114.253E-03     115.291E-03
            4720            4925     140.150E-03     143.919E-03
            4720            4926     134.748E-03     146.162E-03
            4720            4940     114.253E-03     115.291E-03
            4720            4941     107.606E-03     118.032E-03
            4721             777     132.688E-03     147.774E-03
            4721             778     102.394E-03     120.574E-03
            4721            4926     134.748E-03     146.162E-03
            4721            4941     107.606E-03     118.032E-03
            4722             621     114.198E-03     123.974E-03
            4722             622     120.252E-03     129.773E-03
            4722            4927     117.260E-03     118.927E-03
            4722            4942     107.490E-03     119.332E-03
            4723            4927     117.260E-03     118.927E-03
            4723            4928     123.304E-03     118.790E-03
            4723            4942     107.490E-03     119.332E-03
            4723            4943     93.2802E-03     106.049E-03
            4724            4928     123.304E-03     118.790E-03
            4724            4929     132.542E-03     129.303E-03
            4724            4943     93.2802E-03     106.049E-03
            4724            4944     93.0403E-03     103.393E-03
            4725            4929     132.542E-03     129.303E-03
            4725            4930     138.310E-03     135.800E-03
            4725            4944     93.0403E-03     103.393E-03
            4725            4945     91.9582E-03     101.426E-03
            4726            4930     138.310E-03     135.800E-03
            4726            4931     138.579E-03     137.561E-03
            4726            4945     91.9582E-03     101.426E-03
            4726            4946     89.3599E-03     98.5889E-03
            4727            4931     138.579E-03     137.561E-03
            4727            4932     137.901E-03     137.489E-03
            4727            4946     89.3599E-03     98.5889E-03
            4727            4947     87.9445E-03     96.4907E-03
            4728            4932     137.901E-03     137.489E-03
            4728            4933     135.444E-03     135.523E-03
            4728            4947     87.9445E-03     96.4907E-03
            4728            4948     86.4429E-03     94.3450E-03
            4729            4933     135.444E-03     135.523E-03
            4729            4934     132.652E-03     132.902E-03
            4729            4948     86.4429E-03     94.3450E-03
            4729            4949     85.4517E-03     92.6122E-03
            4730            4934     132.652E-03     132.902E-03
            4730            4935     129.228E-03     129.561E-03
            4730            4949     85.4517E-03     92.6122E-03
            4730            4950     84.5439E-03     90.9156E-03
            4731            4935     129.228E-03     129.561E-03
            4731            4936     125.840E-03     126.140E-03
            4731            4950     84.5439E-03     90.9156E-03
            4731            4951     83.9084E-03     89.4599E-03
            4732            4936     125.840E-03     126.140E-03
            4732            4937     122.476E-03     122.642E-03
            4732            4951     83.9084E-03     89.4599E-03
            4732            4952     83.4145E-03     88.1189E-03
            4733            4937     122.476E-03     122.642E-03
            4733            4938     119.324E-03     119.723E-03
            4733            4952     83.4145E-03     88.1189E-03
            4733            4953     83.1469E-03     86.9592E-03
            4734            4938     119.324E-03     119.723E-03
            4734            4939     116.746E-03     116.860E-03
            4734            4953     83.1469E-03     86.9592E-03
            4734            4954     83.1057E-03     86.0070E-03
            4735            4939     116.746E-03     116.860E-03
            4735            4940     114.253E-03     115.291E-03
            4735            4954     83.1057E-03     86.0070E-03
            4735            4955     83.3129E-03     85.2492E-03
            4736            4940     114.253E-03     115.291E-03
            4736            4941     107.606E-03     118.032E-03
            4736            4955     83.3129E-03     85.2492E-03
            4736            4956     83.8298E-03     84.1435E-03
            4737             778     102.394E-03     120.574E-03
            4737             779     84.1958E-03     83.4248E-03
            4737            4941     107.606E-03     118.032E-03
            4737            4956     83.8298E-03     84.1435E-03
            4738             622     120.252E-03     129.773E-03
            4738             623     61.3470E-03     59.0962E-03
            4738            4942     107.490E-03     119.332E-03
            4738            4957     77.4407E-03     79.1200E-03
            4739            4942     107.490E-03     119.332E-03
            4739            4943     93.2802E-03     106.049E-03
            4739            4957     77.4407E-03     79.1200E-03
            4739            4958     100.465E-03     101.778E-03
            4740            4943     93.2802E-03     106.049E-03
            4740            4944     93.0403E-03     103.393E-03
            4740            4958     100.465E-03     101.778E-03
            4740            4959     102.551E-03     101.738E-03
            4741            4944     93.0403E-03     103.393E-03
            4741            4945     91.9582E-03     101.426E-03
            4741            4959     102.551E-03     101.738E-03
            4741            4960     97.2892E-03     98.0642E-03
            4742            4945     91.9582E-03     101.426E-03
            4742            4946     89.3599E-03     98.5889E-03
            4742            4960     97.2892E-03     98.0642E-03
            4742            4961     95.1830E-03     95.4889E-03
            4743            4946     89.3599E-03     98.5889E-03
            4743            4947     87.9445E-03     96.4907E-03
            4743            4961     95.1830E-03     95.4889E-03
            4743            4962     93.0524E-03     93.4406E-03
            4744            4947     87.9445E-03     96.4907E-03
            4744            4948     86.4429E-03     94.3450E-03
            4744            4962     93.0524E-03     93.4406E-03
            4744            4963     91.6937E-03     92.0696E-03
            4745            4948     86.4429E-03     94.3450E-03
            4745            4949     85.4517E-03     92.6122E-03
            4745            4963     91.6937E-03     92.0696E-03
            4745            4964     90.3079E-03     90.6640E-03
            4746            4949     85.4517E-03     92.6122E-03
            4746            4950     84.5439E-03     90.9156E-03
            4746            4964     90.3079E-03     90.6640E-03
            4746            4965     89.2096E-03     89.5174E-03
            4747            4950     84.5439E-03     90.9156E-03
            4747            4951     83.9084E-03     89.4599E-03
            4747            4965     89.2096E-03     89.5174E-03
            4747            4966     88.1560E-03     88.4523E-03
            4748            4951     83.9084E-03     89.4599E-03
            4748            4952     83.4145E-03     88.1189E-03
            4748            4966     88.1560E-03     88.4523E-03
            4748            4967     87.2848E-03     87.6059E-03
            4749            4952     83.4145E-03     88.1189E-03
            4749            4953     83.1469E-03     86.9592E-03
            4749            4967     87.2848E-03     87.6059E-03
            4749            4968     86.7455E-03     86.6909E-03
            4750            4953     83.1469E-03     86.9592E-03
            4750            4954     83.1057E-03     86.0070E-03
            4750            4968     86.7455E-03     86.6909E-03
            4750            4969     85.9481E-03     86.5909E-03
            4751            4954     83.1057E-03     86.0070E-03
            4751            4955     83.3129E-03     85.2492E-03
            4751            4969     85.9481E-03     86.5909E-03
            4751            4970     85.9418E-03     86.7925E-03
            4752            4955     83.3129E-03     85.2492E-03
            4752            4956     83.8298E-03     84.1435E-03
            4752            4970     85.9418E-03     86.7925E-03
            4752            4971     89.9833E-03     83.6404E-03
            4753             779     84.1958E-03     83.4248E-03
            4753             780     93.3257E-03     80.6817E-03
            4753            4956     83.8298E-03     84.1435E-03
            4753            4971     89.9833E-03     83.6404E-03
            4754             623     61.3470E-03     59.0962E-03
            4754             624     22.8485E-03     48.7607E-03
            4754            4957     77.4407E-03     79.1200E-03
            4754            4972     54.9338E-03     63.2355E-03
            4755            4957     77.4407E-03     79.1200E-03
            4755            4958     100.465E-03     101.778E-03
            4755            4972     54.9338E-03     63.2355E-03
            4755            4973     95.3010E-03     85.0651E-03
            4756            4958     100.465E-03     101.778E-03
            4756            4959     102.551E-03     101.738E-03
            4756            4973     95.3010E-03     85.0651E-03
            4756            4974     103.797E-03     93.6425E-03
            4757            4959     102.551E-03     101.738E-03
            4757            4960     97.2892E-03     98.0642E-03
            4757            4974     103.797E-03     93.6425E-03
            4757            4975     102.712E-03     93.8306E-03
            4758            4960     97.2892E-03     98.0642E-03
            4758            4961     95.1830E-03     95.4889E-03
            4758            4975     102.712E-03     93.8306E-03
            4758            4976     100.772E-03     92.4888E-03
            4759            4961     95.1830E-03     95.4889E-03
            4759            4962     93.0524E-03     93.4406E-03
            4759            4976     100.772E-03     92.4888E-03
            4759            4977     99.1397E-03     91.5760E-03
            4760            4962     93.0524E-03     93.4406E-03
            4760            4963     91.6937E-03     92.0696E-03
            4760            4977     99.1397E-03     91.5760E-03
            4760            4978     97.5279E-03     90.6320E-03
            4761            4963     91.6937E-03     92.0696E-03
            4761            4964     90.3079E-03     90.6640E-03
            4761            4978     97.5279E-03     90.6320E-03
            4761            4979     96.0969E-03     89.8761E-03
            4762            4964     90.3079E-03     90.6640E-03
            4762            4965     89.2096E-03     89.5174E-03
            4762            4979     96.0969E-03     89.8761E-03
            4762            4980     94.6697E-03     89.1708E-03
            4763            4965     89.2096E-03     89.5174E-03
            4763            4966     88.1560E-03     88.4523E-03
            4763            4980     94.6697E-03     89.1708E-03
            4763            4981     93.3815E-03     88.6135E-03
            4764            4966     88.1560E-03     88.4523E-03
            4764            4967     87.2848E-03     87.6059E-03
            4764            4981     93.3815E-03     88.6135E-03
            4764            4982     92.1858E-03     88.1661E-03
            4765            4967     87.2848E-03     87.6059E-03
            4765            4968     86.7455E-03     86.6909E-03
            4765            4982     92.1858E-03     88.1661E-03
            4765            4983     91.1328E-03     87.9065E-03
            4766            4968     86.7455E-03     86.6909E-03
            4766            4969     85.9481E-03     86.5909E-03
            4766            4983     91.1328E-03     87.9065E-03
            4766            4984     90.2120E-03     87.8158E-03
            4767            4969     85.9481E-03     86.5909E-03
            4767            4970     85.9418E-03     86.7925E-03
            4767            4984     90.2120E-03     87.8158E-03
            4767            4985     89.4760E-03     88.0234E-03
            4768            4970     85.9418E-03     86.7925E-03
            4768            4971     89.9833E-03     83.6404E-03
            4768            4985     89.4760E-03     88.0234E-03
            4768            4986     88.8881E-03     88.4694E-03
            4769             780     93.3257E-03     80.6817E-03
            4769             781     88.6451E-03     88.6983E-03
            4769            4971     89.9833E-03     83.6404E-03
            4769            4986     88.8881E-03     88.4694E-03
            4770              26     12.4077E-03     30.4317E-03
            4770             624     22.8485E-03     48.7607E-03
            4770             796     27.6981E-03     31.9210E-03
            4770            4972     54.9338E-03     63.2355E-03
            4771             795     44.9256E-03     36.9788E-03
            4771             796     27.6981E-03     31.9210E-03
            4771            4972     54.9338E-03     63.2355E-03
            4771            4973     95.3010E-03     85.0651E-03
            4772             794     50.7252E-03     43.6932E-03
            4772             795     44.9256E-03     36.9788E-03
            4772            4973     95.3010E-03     85.0651E-03
            4772            4974     103.797E-03     93.6425E-03
            4773             793     52.9011E-03     45.7970E-03
            4773             794     50.7252E-03     43.6932E-03
            4773            4974     103.797E-03     93.6425E-03
            4773            4975     102.712E-03     93.8306E-03
            4774             792     51.6742E-03     45.4834E-03
            4774             793     52.9011E-03     45.7970E-03
            4774            4975     102.712E-03     93.8306E-03
            4774            4976     100.772E-03     92.4888E-03
            4775             791     51.2580E-03     45.5411E-03
            4775             792     51.6742E-03     45.4834E-03
            4775            4976     100.772E-03     92.4888E-03
            4775            4977     99.1397E-03     91.5760E-03
            4776             790     50.2789E-03     45.0501E-03
            4776             791     51.2580E-03     45.5411E-03
            4776            4977     99.1397E-03     91.5760E-03
            4776            4978     97.5279E-03     90.6320E-03
            4777             789     49.6156E-03     44.9154E-03
            4777             790     50.2789E-03     45.0501E-03
            4777            4978     97.5279E-03     90.6320E-03
            4777            4979     96.0969E-03     89.8761E-03
            4778             788     48.7897E-03     44.6254E-03
            4778             789     49.6156E-03     44.9154E-03
            4778            4979     96.0969E-03     89.8761E-03
            4778            4980     94.6697E-03     89.1708E-03
            4779             787     48.1135E-03     44.5021E-03
            4779             788     48.7897E-03     44.6254E-03
            4779            4980     94.6697E-03     89.1708E-03
            4779            4981     93.3815E-03     88.6135E-03
            4780             786     47.4318E-03     44.3609E-03
            4780             787     48.1135E-03     44.5021E-03
            4780            4981     93.3815E-03     88.6135E-03
            4780            4982     92.1858E-03     88.1661E-03
            4781             785     46.7599E-03     44.4362E-03
            4781             786     47.4318E-03     44.3609E-03
            4781            4982     92.1858E-03     88.1661E-03
            4781            4983     91.1328E-03     87.9065E-03
            4782             784     46.3433E-03     44.2875E-03
            4782             785     46.7599E-03     44.4362E-03
            4782            4983     91.1328E-03     87.9065E-03
            4782            4984     90.2120E-03     87.8158E-03
            4783             783     45.7314E-03     44.3160E-03
            4783             784     46.3433E-03     44.2875E-03
            4783            4984     90.2120E-03     87.8158E-03
            4783            4985     89.4760E-03     88.0234E-03
            4784             782     43.2585E-03     45.9339E-03
            4784             783     45.7314E-03     44.3160E-03
            4784            4985     89.4760E-03     88.0234E-03
            4784            4986     88.8881E-03     88.4694E-03
            4785              30     41.3816E-03     47.3058E-03
            4785             781     88.6451E-03     88.6983E-03
            4785             782     43.2585E-03     45.9339E-03
            4785            4986     88.8881E-03     88.4694E-03
            4898              20     998.640E-03         1.03300
            4898             522     938.830E-03     964.706E-03
            4898             560         1.04444         1.05038
            4898            5077     973.705E-03     988.260E-03
            4899             521     846.230E-03     861.931E-03
            4899             522     938.830E-03     964.706E-03
            4899            5077     973.705E-03     988.260E-03
            4899            5078     854.167E-03     878.126E-03
            4900             520     779.176E-03     796.433E-03
            4900             521     846.230E-03     861.931E-03
            4900            5078     854.167E-03     878.126E-03
            4900            5079     773.168E-03     798.835E-03
            4901             519     715.459E-03     735.739E-03
            4901             520     779.176E-03     796.433E-03
            4901            5079     773.168E-03     798.835E-03
            4901            5080     708.905E-03     736.124E-03
            4902             518     655.168E-03     676.907E-03
            4902             519     715.459E-03     735.739E-03
            4902            5080     708.905E-03     736.124E-03
            4902            5081     647.232E-03     675.940E-03
            4903             517     594.951E-03     617.877E-03
            4903             518     655.168E-03     676.907E-03
            4903            5081     647.232E-03     675.940E-03
            4903            5082     587.809E-03     617.279E-03
            4904             516     535.191E-03     558.332E-03
            4904             517     594.951E-03     617.877E-03
            4904            5082     587.809E-03     617.279E-03
            4904            5083     528.259E-03     558.093E-03
            4905             515     474.979E-03     498.423E-03
            4905             516     535.191E-03     558.332E-03
            4905            5083     528.259E-03     558.093E-03
            4905            5084     468.719E-03     498.776E-03
            4906             514     414.694E-03     438.110E-03
            4906             515     474.979E-03     498.423E-03
            4906            5084     468.719E-03     498.776E-03
            4906            5085     408.865E-03     438.996E-03
            4907             513     354.017E-03     377.618E-03
            4907             514     414.694E-03     438.110E-03
            4907            5085     408.865E-03     438.996E-03
            4907            5086     348.871E-03     379.097E-03
            4908             512     293.334E-03     316.914E-03
            4908             513     354.017E-03     377.618E-03
            4908            5086     348.871E-03     379.097E-03
            4908            5087     288.743E-03     318.948E-03
            4909             511     232.504E-03     255.958E-03
            4909             512     293.334E-03     316.914E-03
            4909            5087     288.743E-03     318.948E-03
            4909            5088     228.759E-03     258.784E-03
            4910             510     171.897E-03     194.736E-03
            4910             511     232.504E-03     255.958E-03
            4910            5088     228.759E-03     258.784E-03
            4910            5089     169.426E-03     197.933E-03
            4911             509     111.670E-03     132.920E-03
            4911             510     171.897E-03     194.736E-03
            4911            5089     169.426E-03     197.933E-03
            4911            5090     111.189E-03     136.934E-03
            4912             508     52.4875E-03     70.0380E-03
            4912             509     111.670E-03     132.920E-03
            4912            5090     111.189E-03     136.934E-03
            4912            5091     57.6695E-03     75.5779E-03
            4913              18     23.2935E-03     38.4191E-03
            4913             508     52.4875E-03     70.0380E-03
            4913             552     32.8521E-03     44.5505E-03
            4913            5091     57.6695E-03     75.5779E-03
            4914             560         1.04444         1.05038
            4914             561         1.00314     999.226E-03
            4914            5077     973.705E-03     988.260E-03
            4914            5092     965.883E-03     974.039E-03
            4915            5077     973.705E-03     988.260E-03
            4915            5078     854.167E-03     878.126E-03
            4915            5092     965.883E-03     974.039E-03
            4915            5093     879.249E-03     903.478E-03
            4916            5078     854.167E-03     878.126E-03
            4916            5079     773.168E-03     798.835E-03
            4916            5093     879.249E-03     903.478E-03
            4916            5094     795.181E-03     822.167E-03
            4917            5079     773.168E-03     798.835E-03
            4917            5080     708.905E-03     736.124E-03
            4917            5094     795.181E-03     822.167E-03
            4917            5095     728.406E-03     752.739E-03
            4918            5080     708.905E-03     736.124E-03
            4918            5081     647.232E-03     675.940E-03
            4918            5095     728.406E-03     752.739E-03
            4918            5096     665.112E-03     687.245E-03
            4919            5081     647.232E-03     675.940E-03
            4919            5082     587.809E-03     617.279E-03
            4919            5096     665.112E-03     687.245E-03
            4919            5097     603.203E-03     624.401E-03
            4920            5082     587.809E-03     617.279E-03
            4920            5083     528.259E-03     558.093E-03
            4920            5097     603.203E-03     624.401E-03
            4920            5098     541.907E-03     562.673E-03
            4921            5083     528.259E-03     558.093E-03
            4921            5084     468.719E-03     498.776E-03
            4921            5098     541.907E-03     562.673E-03
            4921            5099     480.831E-03     501.500E-03
            4922            5084     468.719E-03     498.776E-03
            4922            5085     408.865E-03     438.996E-03
            4922            5099     480.831E-03     501.500E-03
            4922            5100     420.073E-03     440.693E-03
            4923            5085     408.865E-03     438.996E-03
            4923            5086     348.871E-03     379.097E-03
            4923            5100     420.073E-03     440.693E-03
            4923            5101     359.607E-03     380.130E-03
            4924            5086     348.871E-03     379.097E-03
            4924            5087     288.743E-03     318.948E-03
            4924            5101     359.607E-03     380.130E-03
            4924            5102     299.495E-03     319.865E-03
            4925            5087     288.743E-03     318.948E-03
            4925            5088     228.759E-03     258.784E-03
            4925            5102     299.495E-03     319.865E-03
            4925            5103     239.931E-03     260.168E-03
            4926            5088     228.759E-03     258.784E-03
            4926            5089     169.426E-03     197.933E-03
            4926            5103     239.931E-03     260.168E-03
            4926            5104     181.548E-03     201.275E-03
            4927            5089     169.426E-03     197.933E-03
            4927            5090     111.189E-03     136.934E-03
            4927            5104     181.548E-03     201.275E-03
            4927            5105     126.352E-03     142.713E-03
            4928            5090     111.189E-03     136.934E-03
            4928            5091     57.6695E-03     75.5779E-03
            4928            5105     126.352E-03     142.713E-03
            4928            5106     80.4553E-03     90.2683E-03
            4929             551     61.0085E-03     66.9665E-03
            4929             552     32.8521E-03     44.5505E-03
            4929            5091     57.6695E-03     75.5779E-03
            4929            5106     80.4553E-03     90.2683E-03
            4930             561         1.00314     999.226E-03
            4930             562     947.650E-03     968.771E-03
            4930            5092     965.883E-03     974.039E-03
            4930            5107     924.319E-03     945.781E-03
            4931            5092     965.883E-03     974.039E-03
            4931            5093     879.249E-03     903.478E-03
            4931            5107     924.319E-03     945.781E-03
            4931            5108     871.934E-03     893.372E-03
            4932            5093     879.249E-03     903.478E-03
            4932            5094     795.181E-03     822.167E-03
            4932            5108     871.934E-03     893.372E-03
            4932            5109     806.234E-03     826.712E-03
            4933            5094     795.181E-03     822.167E-03
            4933            5095     728.406E-03     752.739E-03
            4933            5109     806.234E-03     826.712E-03
            4933            5110     738.716E-03     756.162E-03
            4934            5095     728.406E-03     752.739E-03
            4934            5096     665.112E-03     687.245E-03
            4934            5110     738.716E-03     756.162E-03
            4934            5111     676.185E-03     690.241E-03
            4935            5096     665.112E-03     687.245E-03
            4935            5097     603.203E-03     624.401E-03
            4935            5111     676.185E-03     690.241E-03
            4935            5112     613.741E-03     626.176E-03
            4936            5097     603.203E-03     624.401E-03
            4936            5098     541.907E-03     562.673E-03
            4936            5112     613.741E-03     626.176E-03
            4936            5113     552.277E-03     564.028E-03
            4937            5098     541.907E-03     562.673E-03
            4937            5099     480.831E-03     501.500E-03
            4937            5113     552.277E-03     564.028E-03
            4937            5114     491.325E-03     502.823E-03
            4938            5099     480.831E-03     501.500E-03
            4938            5100     420.073E-03     440.693E-03
            4938            5114     491.325E-03     502.823E-03
            4938            5115     431.038E-03     442.362E-03
            4939            5100     420.073E-03     440.693E-03
            4939            5101     359.607E-03     380.130E-03
            4939            5115     431.038E-03     442.362E-03
            4939            5116     371.350E-03     382.542E-03
            4940            5101     359.607E-03     380.130E-03
            4940            5102     299.495E-03     319.865E-03
            4940            5116     371.350E-03     382.542E-03
            4940            5117     312.536E-03     323.509E-03
            4941            5102     299.495E-03     319.865E-03
            4941            5103     239.931E-03     260.168E-03
            4941            5117     312.536E-03     323.509E-03
            4941            5118     254.698E-03     265.639E-03
            4942            5103     239.931E-03     260.168E-03
            4942            5104     181.548E-03     201.275E-03
            4942            5118     254.698E-03     265.639E-03
            4942            5119     198.602E-03     210.513E-03
            4943            5104     181.548E-03     201.275E-03
            4943            5105     126.352E-03     142.713E-03
            4943            5119     198.602E-03     210.513E-03
            4943            5120     147.970E-03     159.291E-03
            4944            5105     126.352E-03     142.713E-03
            4944            5106     80.4553E-03     90.2683E-03
            4944            5120     147.970E-03     159.291E-03
            4944            5121     110.341E-03     113.558E-03
            4945             550     95.9408E-03     92.6269E-03
            4945             551     61.0085E-03     66.9665E-03
            4945            5106     80.4553E-03     90.2683E-03
            4945            5121     110.341E-03     113.558E-03
            4946             562     947.650E-03     968.771E-03
            4946             563     899.202E-03     896.766E-03
            4946            5107     924.319E-03     945.781E-03
            4946            5122     883.183E-03     890.193E-03
            4947            5107     924.319E-03     945.781E-03
            4947            5108     871.934E-03     893.372E-03
            4947            5122     883.183E-03     890.193E-03
            4947            5123     844.614E-03     858.678E-03
            4948            5108     871.934E-03     893.372E-03
            4948            5109     806.234E-03     826.712E-03
            4948            5123     844.614E-03     858.678E-03
            4948            5124     795.652E-03     804.162E-03
            4949            5109     806.234E-03     826.712E-03
            4949            5110     738.716E-03     756.162E-03
            4949            5124     795.652E-03     804.162E-03
            4949            5125     738.290E-03     743.283E-03
            4950            5110     738.716E-03     756.162E-03
            4950            5111     676.185E-03     690.241E-03
            4950            5125     738.290E-03     743.283E-03
            4950            5126     677.915E-03     681.573E-03
            4951            5111     676.185E-03     690.241E-03
            4951            5112     613.741E-03     626.176E-03
            4951            5126     677.915E-03     681.573E-03
            4951            5127     618.316E-03     621.106E-03
            4952            5112     613.741E-03     626.176E-03
            4952            5113     552.277E-03     564.028E-03
            4952            5127     618.316E-03     621.106E-03
            4952            5128     558.673E-03     561.311E-03
            4953            5113     552.277E-03     564.028E-03
            4953            5114     491.325E-03     502.823E-03
            4953            5128     558.673E-03     561.311E-03
            4953            5129     499.778E-03     502.273E-03
            4954            5114     491.325E-03     502.823E-03
            4954            5115     431.038E-03     442.362E-03
            4954            5129     499.778E-03     502.273E-03
            4954            5130     441.393E-03     443.893E-03
            4955            5115     431.038E-03     442.362E-03
            4955            5116     371.350E-03     382.542E-03
            4955            5130     441.393E-03     443.893E-03
            4955            5131     383.893E-03     386.220E-03
            4956            5116     371.350E-03     382.542E-03
            4956            5117     312.536E-03     323.509E-03
            4956            5131     383.893E-03     386.220E-03
            4956            5132     327.380E-03     329.681E-03
            4957            5117     312.536E-03     323.509E-03
            4957            5118     254.698E-03     265.639E-03
            4957            5132     327.380E-03     329.681E-03
            4957            5133     272.582E-03     274.973E-03
            4958            5118     254.698E-03     265.639E-03
            4958            5119     198.602E-03     210.513E-03
            4958            5133     272.582E-03     274.973E-03
            4958            5134     220.203E-03     224.009E-03
            4959            5119     198.602E-03     210.513E-03
            4959            5120     147.970E-03     159.291E-03
            4959            5134     220.203E-03     224.009E-03
            4959            5135     172.893E-03     181.348E-03
            4960            5120     147.970E-03     159.291E-03
            4960            5121     110.341E-03     113.558E-03
            4960            5135     172.893E-03     181.348E-03
            4960            5136     141.504E-03     147.459E-03
            4961             549     131.872E-03     132.031E-03
            4961             550     95.9408E-03     92.6269E-03
            4961            5121     110.341E-03     113.558E-03
            4961            5136     141.504E-03     147.459E-03
            4962             563     899.202E-03     896.766E-03
            4962             564     836.623E-03     822.591E-03
            4962            5122     883.183E-03     890.193E-03
            4962            5137     831.546E-03     818.608E-03
            4963            5122     883.183E-03     890.193E-03
            4963            5123     844.614E-03     858.678E-03
            4963            5137     831.546E-03     818.608E-03
            4963            5138     809.711E-03     797.696E-03
            4964            5123     844.614E-03     858.678E-03
            4964            5124     795.652E-03     804.162E-03
            4964            5138     809.711E-03     797.696E-03
            4964            5139     771.204E-03     760.223E-03
            4965            5124     795.652E-03     804.162E-03
            4965            5125     738.290E-03     743.283E-03
            4965            5139     771.204E-03     760.223E-03
            4965            5140     724.275E-03     714.702E-03
            4966            5125     738.290E-03     743.283E-03
            4966            5126     677.915E-03     681.573E-03
            4966            5140     724.275E-03     714.702E-03
            4966            5141     671.692E-03     663.671E-03
            4967            5126     677.915E-03     681.573E-03
            4967            5127     618.316E-03     621.106E-03
            4967            5141     671.692E-03     663.671E-03
            4967            5142     617.207E-03     610.445E-03
            4968            5127     618.316E-03     621.106E-03
            4968            5128     558.673E-03     561.311E-03
            4968            5142     617.207E-03     610.445E-03
            4968            5143     562.291E-03     555.876E-03
            4969            5128     558.673E-03     561.311E-03
            4969            5129     499.778E-03     502.273E-03
            4969            5143     562.291E-03     555.876E-03
            4969            5144     507.005E-03     500.982E-03
            4970            5129     499.778E-03     502.273E-03
            4970            5130     441.393E-03     443.893E-03
            4970            5144     507.005E-03     500.982E-03
            4970            5145     452.056E-03     446.111E-03
            4971            5130     441.393E-03     443.893E-03
            4971            5131     383.893E-03     386.220E-03
            4971            5145     452.056E-03     446.111E-03
            4971            5146     397.623E-03     391.894E-03
            4972            5131     383.893E-03     386.220E-03
            4972            5132     327.380E-03     329.681E-03
            4972            5146     397.623E-03     391.894E-03
            4972            5147     344.387E-03     338.870E-03
            4973            5132     327.380E-03     329.681E-03
            4973            5133     272.582E-03     274.973E-03
            4973            5147     344.387E-03     338.870E-03
            4973            5148     293.296E-03     288.265E-03
            4974            5133     272.582E-03     274.973E-03
            4974            5134     220.203E-03     224.009E-03
            4974            5148     293.296E-03     288.265E-03
            4974            5149     245.573E-03     241.712E-03
            4975            5134     220.203E-03     224.009E-03
            4975            5135     172.893E-03     181.348E-03
            4975            5149     245.573E-03     241.712E-03
            4975            5150     203.233E-03     203.996E-03
            4976            5135     172.893E-03     181.348E-03
            4976            5136     141.504E-03     147.459E-03
            4976            5150     203.233E-03     203.996E-03
            4976            5151     170.810E-03     183.060E-03
            4977             548     157.796E-03     177.712E-03
            4977             549     131.872E-03     132.031E-03
            4977            5136     141.504E-03     147.459E-03
            4977            5151     170.810E-03     183.060E-03
            4978              23     830.135E-03     849.581E-03
            4978             564     836.623E-03     822.591E-03
            4978             739     792.455E-03     804.281E-03
            4978            5137     831.546E-03     818.608E-03
            4979             739     792.455E-03     804.281E-03
            4979             740     737.988E-03     740.834E-03
            4979            5137     831.546E-03     818.608E-03
            4979            5138     809.711E-03     797.696E-03
            4980             740     737.988E-03     740.834E-03
            4980             741     696.219E-03     703.132E-03
            4980            5138     809.711E-03     797.696E-03
            4980            5139     771.204E-03     760.223E-03
            4981             741     696.219E-03     703.132E-03
            4981             742     649.172E-03     660.588E-03
            4981            5139     771.204E-03     760.223E-03
            4981            5140     724.275E-03     714.702E-03
            4982             742     649.172E-03     660.588E-03
            4982             743     601.440E-03     614.503E-03
            4982            5140     724.275E-03     714.702E-03
            4982            5141     671.692E-03     663.671E-03
            4983             743     601.440E-03     614.503E-03
            4983             744     551.070E-03     565.472E-03
            4983            5141     671.692E-03     663.671E-03
            4983            5142     617.207E-03     610.445E-03
            4984             744     551.070E-03     565.472E-03
            4984             745     500.215E-03     514.792E-03
            4984            5142     617.207E-03     610.445E-03
            4984            5143     562.291E-03     555.876E-03
            4985             745     500.215E-03     514.792E-03
            4985             746     448.596E-03     463.647E-03
            4985            5143     562.291E-03     555.876E-03
            4985            5144     507.005E-03     500.982E-03
            4986             746     448.596E-03     463.647E-03
            4986             747     397.060E-03     412.031E-03
            4986            5144     507.005E-03     500.982E-03
            4986            5145     452.056E-03     446.111E-03
            4987             747     397.060E-03     412.031E-03
            4987             748     345.570E-03     360.890E-03
            4987            5145     452.056E-03     446.111E-03
            4987            5146     397.623E-03     391.894E-03
            4988             748     345.570E-03     360.890E-03
            4988             749     294.847E-03     310.249E-03
            4988            5146     397.623E-03     391.894E-03
            4988            5147     344.387E-03     338.870E-03
            4989             749     294.847E-03     310.249E-03
            4989             750     245.188E-03     261.258E-03
            4989            5147     344.387E-03     338.870E-03
            4989            5148     293.296E-03     288.265E-03
            4990             750     245.188E-03     261.258E-03
            4990             751     198.310E-03     214.185E-03
            4990            5148     293.296E-03     288.265E-03
            4990            5149     245.573E-03     241.712E-03
            4991             751     198.310E-03     214.185E-03
            4991             752     155.923E-03     171.143E-03
            4991            5149     245.573E-03     241.712E-03
            4991            5150     203.233E-03     203.996E-03
            4992             752     155.923E-03     171.143E-03
            4992             753     119.514E-03     138.163E-03
            4992            5150     203.233E-03     203.996E-03
            4992            5151     170.810E-03     183.060E-03
            4993              22     102.974E-03     125.422E-03
            4993             548     157.796E-03     177.712E-03
            4993             753     119.514E-03     138.163E-03
            4993            5151     170.810E-03     183.060E-03
            5575              26     12.4077E-03     30.4317E-03
            5575             796     27.6981E-03     31.9210E-03
            5575             858     16.1506E-15     15.3108E-15
            5575            5605     11.6531E-15     11.0880E-15
            5576             795     44.9256E-03     36.9788E-03
            5576             796     27.6981E-03     31.9210E-03
            5576            5605     11.6531E-15     11.0880E-15
            5576            5606     13.7628E-15     13.6582E-15
            5577             794     50.7252E-03     43.6932E-03
            5577             795     44.9256E-03     36.9788E-03
            5577            5606     13.7628E-15     13.6582E-15
            5577            5607     22.2001E-15     23.1175E-15
            5578             793     52.9011E-03     45.7970E-03
            5578             794     50.7252E-03     43.6932E-03
            5578            5607     22.2001E-15     23.1175E-15
            5578            5608     24.3869E-15     26.1946E-15
            5579             792     51.6742E-03     45.4834E-03
            5579             793     52.9011E-03     45.7970E-03
            5579            5608     24.3869E-15     26.1946E-15
            5579            5609     19.5395E-15     21.0838E-15
            5580             791     51.2580E-03     45.5411E-03
            5580             792     51.6742E-03     45.4834E-03
            5580            5609     19.5395E-15     21.0838E-15
            5580            5610     16.1706E-15     14.0658E-15
            5581             790     50.2789E-03     45.0501E-03
            5581             791     51.2580E-03     45.5411E-03
            5581            5610     16.1706E-15     14.0658E-15
            5581            5611     17.7467E-15     12.9213E-15
            5582             789     49.6156E-03     44.9154E-03
            5582             790     50.2789E-03     45.0501E-03
            5582            5611     17.7467E-15     12.9213E-15
            5582            5612     13.4622E-15     11.2505E-15
            5583             788     48.7897E-03     44.6254E-03
            5583             789     49.6156E-03     44.9154E-03
            5583            5612     13.4622E-15     11.2505E-15
            5583            5613     9.88028E-15     9.70582E-15
            5584             787     48.1135E-03     44.5021E-03
            5584             788     48.7897E-03     44.6254E-03
            5584            5613     9.88028E-15     9.70582E-15
            5584            5614     14.0558E-15     11.7972E-15
            5585             786     47.4318E-03     44.3609E-03
            5585             787     48.1135E-03     44.5021E-03
            5585            5614     14.0558E-15     11.7972E-15
            5585            5615     19.8099E-15     17.3253E-15
            5586             785     46.7599E-03     44.4362E-03
            5586             786     47.4318E-03     44.3609E-03
            5586            5615     19.8099E-15     17.3253E-15
            5586            5616     16.1608E-15     18.3960E-15
            5587             784     46.3433E-03     44.2875E-03
            5587             785     46.7599E-03     44.4362E-03
            5587            5616     16.1608E-15     18.3960E-15
            5587            5617     9.55440E-15     12.7515E-15
            5588             783     45.7314E-03     44.3160E-03
            5588             784     46.3433E-03     44.2875E-03
            5588            5617     9.55440E-15     12.7515E-15
            5588            5618     12.0561E-15     8.98830E-15
            5589             782     43.2585E-03     45.9339E-03
            5589             783     45.7314E-03     44.3160E-03
            5589            5618     12.0561E-15     8.98830E-15
            5589            5619     16.4706E-15     12.6713E-15
            5590              30     41.3816E-03     47.3058E-03
            5590             782     43.2585E-03     45.9339E-03
            5590             838     17.4483E-15     17.3173E-15
            5590            5619     16.4706E-15     12.6713E-15
            5591             857     15.9171E-15     14.1420E-15
            5591             858     16.1506E-15     15.3108E-15
            5591            5605     11.6531E-15     11.0880E-15
            5591            5620     13.2851E-15     12.4342E-15
            5592            5605     11.6531E-15     11.0880E-15
            5592            5606     13.7628E-15     13.6582E-15
            5592            5620     13.2851E-15     12.4342E-15
            5592            5621     14.4349E-15     14.8615E-15
            5593            5606     13.7628E-15     13.6582E-15
            5593            5607     22.2001E-15     23.1175E-15
            5593            5621     14.4349E-15     14.8615E-15
            5593            5622     23.3222E-15     23.5077E-15
            5594            5607     22.2001E-15     23.1175E-15
            5594            5608     24.3869E-15     26.1946E-15
            5594            5622     23.3222E-15     23.5077E-15
            5594            5623     26.2843E-15     26.6135E-15
            5595            5608     24.3869E-15     26.1946E-15
            5595            5609     19.5395E-15     21.0838E-15
            5595            5623     26.2843E-15     26.6135E-15
            5595            5624     17.0170E-15     18.3031E-15
            5596            5609     19.5395E-15     21.0838E-15
            5596            5610     16.1706E-15     14.0658E-15
            5596            5624     17.0170E-15     18.3031E-15
            5596            5625     9.52662E-15     9.93071E-15
            5597            5610     16.1706E-15     14.0658E-15
            5597            5611     17.7467E-15     12.9213E-15
            5597            5625     9.52662E-15     9.93071E-15
            5597            5626     11.5813E-15     11.0872E-15
            5598            5611     17.7467E-15     12.9213E-15
            5598            5612     13.4622E-15     11.2505E-15
            5598            5626     11.5813E-15     11.0872E-15
            5598            5627     12.7902E-15     12.0781E-15
            5599            5612     13.4622E-15     11.2505E-15
            5599            5613     9.88028E-15     9.70582E-15
            5599            5627     12.7902E-15     12.0781E-15
            5599            5628     12.7969E-15     12.2711E-15
            5600            5613     9.88028E-15     9.70582E-15
            5600            5614     14.0558E-15     11.7972E-15
            5600            5628     12.7969E-15     12.2711E-15
            5600            5629     17.2670E-15     13.7433E-15
            5601            5614     14.0558E-15     11.7972E-15
            5601            5615     19.8099E-15     17.3253E-15
            5601            5629     17.2670E-15     13.7433E-15
            5601            5630     23.2349E-15     19.2214E-15
            5602            5615     19.8099E-15     17.3253E-15
            5602            5616     16.1608E-15     18.3960E-15
            5602            5630     23.2349E-15     19.2214E-15
            5602            5631     20.0975E-15     20.2218E-15
            5603            5616     16.1608E-15     18.3960E-15
            5603            5617     9.55440E-15     12.7515E-15
            5603            5631     20.0975E-15     20.2218E-15
            5603            5632     15.7681E-15     18.2943E-15
            5604            5617     9.55440E-15     12.7515E-15
            5604            5618     12.0561E-15     8.98830E-15
            5604            5632     15.7681E-15     18.2943E-15
            5604            5633     15.3310E-15     17.6254E-15
            5605            5618     12.0561E-15     8.98830E-15
            5605            5619     16.4706E-15     12.6713E-15
            5605            5633     15.3310E-15     17.6254E-15
            5605            5634     19.3521E-15     18.3262E-15
            5606             837     25.3354E-15     22.5999E-15
            5606             838     17.4483E-15     17.3173E-15
            5606            5619     16.4706E-15     12.6713E-15
            5606            5634     19.3521E-15     18.3262E-15
            5607             856     15.2096E-15     14.8778E-15
            5607             857     15.9171E-15     14.1420E-15
            5607            5620     13.2851E-15     12.4342E-15
            5607            5635     16.4296E-15     16.3532E-15
            5608            5620     13.2851E-15     12.4342E-15
            5608            5621     14.4349E-15     14.8615E-15
            5608            5635     16.4296E-15     16.3532E-15
            5608            5636     17.0229E-15     16.9393E-15
            5609            5621     14.4349E-15     14.8615E-15
            5609            5622     23.3222E-15     23.5077E-15
            5609            5636     17.0229E-15     16.9393E-15
            5609            5637     18.4451E-15     18.0463E-15
            5610            5622     23.3222E-15     23.5077E-15
            5610            5623     26.2843E-15     26.6135E-15
            5610            5637     18.4451E-15     18.0463E-15
            5610            5638     18.5849E-15     18.5502E-15
            5611            5623     26.2843E-15     26.6135E-15
            5611            5624     17.0170E-15     18.3031E-15
            5611            5638     18.5849E-15     18.5502E-15
            5611            5639     15.1560E-15     15.9457E-15
            5612            5624     17.0170E-15     18.3031E-15
            5612            5625     9.52662E-15     9.93071E-15
            5612            5639     15.1560E-15     15.9457E-15
            5612            5640     9.73815E-15     11.6782E-15
            5613            5625     9.52662E-15     9.93071E-15
            5613            5626     11.5813E-15     11.0872E-15
            5613            5640     9.73815E-15     11.6782E-15
            5613            5641     10.5986E-15     11.6493E-15
            5614            5626     11.5813E-15     11.0872E-15
            5614            5627     12.7902E-15     12.0781E-15
            5614            5641     10.5986E-15     11.6493E-15
            5614            5642     13.3783E-15     11.8839E-15
            5615            5627     12.7902E-15     12.0781E-15
            5615            5628     12.7969E-15     12.2711E-15
            5615            5642     13.3783E-15     11.8839E-15
            5615            5643     12.5416E-15     12.9530E-15
            5616            5628     12.7969E-15     12.2711E-15
            5616            5629     17.2670E-15     13.7433E-15
            5616            5643     12.5416E-15     12.9530E-15
            5616            5644     15.0139E-15     15.2775E-15
            5617            5629     17.2670E-15     13.7433E-15
            5617            5630     23.2349E-15     19.2214E-15
            5617            5644     15.0139E-15     15.2775E-15
            5617            5645     17.8481E-15     15.8768E-15
            5618            5630     23.2349E-15     19.2214E-15
            5618            5631     20.0975E-15     20.2218E-15
            5618            5645     17.8481E-15     15.8768E-15
            5618            5646     18.7309E-15     19.4795E-15
            5619            5631     20.0975E-15     20.2218E-15
            5619            5632     15.7681E-15     18.2943E-15
            5619            5646     18.7309E-15     19.4795E-15
            5619            5647     19.9213E-15     22.6179E-15
            5620            5632     15.7681E-15     18.2943E-15
            5620            5633     15.3310E-15     17.6254E-15
            5620            5647     19.9213E-15     22.6179E-15
            5620            5648     19.6757E-15     22.2240E-15
            5621            5633     15.3310E-15     17.6254E-15
            5621            5634     19.3521E-15     18.3262E-15
            5621            5648     19.6757E-15     22.2240E-15
            5621            5649     19.5132E-15     18.7619E-15
            5622             836     21.4082E-15     17.4655E-15
            5622             837     25.3354E-15     22.5999E-15
            5622            5634     19.3521E-15     18.3262E-15
            5622            5649     19.5132E-15     18.7619E-15
            5623             855     16.9280E-15     19.1390E-15
            5623             856     15.2096E-15     14.8778E-15
            5623            5635     16.4296E-15     16.3532E-15
            5623            5650     14.4095E-15     15.0535E-15
            5624            5635     16.4296E-15     16.3532E-15
            5624            5636     17.0229E-15     16.9393E-15
            5624            5650     14.4095E-15     15.0535E-15
            5624            5651     12.3109E-15     11.5562E-15
            5625            5636     17.0229E-15     16.9393E-15
            5625            5637     18.4451E-15     18.0463E-15
            5625            5651     12.3109E-15     11.5562E-15
            5625            5652     15.1537E-15     14.3524E-15
            5626            5637     18.4451E-15     18.0463E-15
            5626            5638     18.5849E-15     18.5502E-15
            5626            5652     15.1537E-15     14.3524E-15
            5626            5653     14.8042E-15     13.4999E-15
            5627            5638     18.5849E-15     18.5502E-15
            5627            5639     15.1560E-15     15.9457E-15
            5627            5653     14.8042E-15     13.4999E-15
            5627            5654     11.4008E-15     10.1579E-15
            5628            5639     15.1560E-15     15.9457E-15
            5628            5640     9.73815E-15     11.6782E-15
            5628            5654     11.4008E-15     10.1579E-15
            5628            5655     10.8453E-15     10.3285E-15
            5629            5640     9.73815E-15     11.6782E-15
            5629            5641     10.5986E-15     11.6493E-15
            5629            5655     10.8453E-15     10.3285E-15
            5629            5656     10.7771E-15     9.48965E-15
            5630            5641     10.5986E-15     11.6493E-15
            5630            5642     13.3783E-15     11.8839E-15
            5630            5656     10.7771E-15     9.48965E-15
            5630            5657     9.50174E-15     8.08918E-15
            5631            5642     13.3783E-15     11.8839E-15
            5631            5643     12.5416E-15     12.9530E-15
            5631            5657     9.50174E-15     8.08918E-15
            5631            5658     8.50730E-15     9.35771E-15
            5632            5643     12.5416E-15     12.9530E-15
            5632            5644     15.0139E-15     15.2775E-15
            5632            5658     8.50730E-15     9.35771E-15
            5632            5659     8.94229E-15     11.2320E-15
            5633            5644     15.0139E-15     15.2775E-15
            5633            5645     17.8481E-15     15.8768E-15
            5633            5659     8.94229E-15     11.2320E-15
            5633            5660     11.0780E-15     11.9620E-15
            5634            5645     17.8481E-15     15.8768E-15
            5634            5646     18.7309E-15     19.4795E-15
            5634            5660     11.0780E-15     11.9620E-15
            5634            5661     11.9897E-15     12.1943E-15
            5635            5646     18.7309E-15     19.4795E-15
            5635            5647     19.9213E-15     22.6179E-15
            5635            5661     11.9897E-15     12.1943E-15
            5635            5662     14.0144E-15     13.2700E-15
            5636            5647     19.9213E-15     22.6179E-15
            5636            5648     19.6757E-15     22.2240E-15
            5636            5662     14.0144E-15     13.2700E-15
            5636            5663     15.8374E-15     17.4067E-15
            5637            5648     19.6757E-15     22.2240E-15
            5637            5649     19.5132E-15     18.7619E-15
            5637            5663     15.8374E-15     17.4067E-15
            5637            5664     21.5792E-15     20.3239E-15
            5638             835     28.4489E-15     20.1817E-15
            5638             836     21.4082E-15     17.4655E-15
            5638            5649     19.5132E-15     18.7619E-15
            5638            5664     21.5792E-15     20.3239E-15
            5639             854     12.8472E-15     15.4625E-15
            5639             855     16.9280E-15     19.1390E-15
            5639            5650     14.4095E-15     15.0535E-15
            5639            5665     12.4292E-15     13.7427E-15
            5640            5650     14.4095E-15     15.0535E-15
            5640            5651     12.3109E-15     11.5562E-15
            5640            5665     12.4292E-15     13.7427E-15
            5640            5666     13.0871E-15     13.0650E-15
            5641            5651     12.3109E-15     11.5562E-15
            5641            5652     15.1537E-15     14.3524E-15
            5641            5666     13.0871E-15     13.0650E-15
            5641            5667     15.3890E-15     14.9275E-15
            5642            5652     15.1537E-15     14.3524E-15
            5642            5653     14.8042E-15     13.4999E-15
            5642            5667     15.3890E-15     14.9275E-15
            5642            5668     11.9680E-15     10.6277E-15
            5643            5653     14.8042E-15     13.4999E-15
            5643            5654     11.4008E-15     10.1579E-15
            5643            5668     11.9680E-15     10.6277E-15
            5643            5669     10.9856E-15     9.10370E-15
            5644            5654     11.4008E-15     10.1579E-15
            5644            5655     10.8453E-15     10.3285E-15
            5644            5669     10.9856E-15     9.10370E-15
            5644            5670     14.7514E-15     12.3916E-15
            5645            5655     10.8453E-15     10.3285E-15
            5645            5656     10.7771E-15     9.48965E-15
            5645            5670     14.7514E-15     12.3916E-15
            5645            5671     11.8030E-15     9.35852E-15
            5646            5656     10.7771E-15     9.48965E-15
            5646            5657     9.50174E-15     8.08918E-15
            5646            5671     11.8030E-15     9.35852E-15
            5646            5672     10.6582E-15     9.71702E-15
            5647            5657     9.50174E-15     8.08918E-15
            5647            5658     8.50730E-15     9.35771E-15
            5647            5672     10.6582E-15     9.71702E-15
            5647            5673     10.5623E-15     11.4371E-15
            5648            5658     8.50730E-15     9.35771E-15
            5648            5659     8.94229E-15     11.2320E-15
            5648            5673     10.5623E-15     11.4371E-15
            5648            5674     8.14321E-15     9.67064E-15
            5649            5659     8.94229E-15     11.2320E-15
            5649            5660     11.0780E-15     11.9620E-15
            5649            5674     8.14321E-15     9.67064E-15
            5649            5675     11.3387E-15     11.4449E-15
            5650            5660     11.0780E-15     11.9620E-15
            5650            5661     11.9897E-15     12.1943E-15
            5650            5675     11.3387E-15     11.4449E-15
            5650            5676     10.8812E-15     10.5588E-15
            5651            5661     11.9897E-15     12.1943E-15
            5651            5662     14.0144E-15     13.2700E-15
            5651            5676     10.8812E-15     10.5588E-15
            5651            5677     10.3390E-15     8.73530E-15
            5652            5662     14.0144E-15     13.2700E-15
            5652            5663     15.8374E-15     17.4067E-15
            5652            5677     10.3390E-15     8.73530E-15
            5652            5678     13.8837E-15     15.4845E-15
            5653            5663     15.8374E-15     17.4067E-15
            5653            5664     21.5792E-15     20.3239E-15
            5653            5678     13.8837E-15     15.4845E-15
            5653            5679     26.5135E-15     28.5218E-15
            5654             834     39.1279E-15     36.0501E-15
            5654             835     28.4489E-15     20.1817E-15
            5654            5664     21.5792E-15     20.3239E-15
            5654            5679     26.5135E-15     28.5218E-15
            5655             853     13.5938E-15     14.3618E-15
            5655             854     12.8472E-15     15.4625E-15
            5655            5665     12.4292E-15     13.7427E-15
            5655            5680     19.1306E-15     19.9916E-15
            5656            5665     12.4292E-15     13.7427E-15
            5656            5666     13.0871E-15     13.0650E-15
            5656            5680     19.1306E-15     19.9916E-15
            5656            5681     23.5682E-15     24.1590E-15
            5657            5666     13.0871E-15     13.0650E-15
            5657            5667     15.3890E-15     14.9275E-15
            5657            5681     23.5682E-15     24.1590E-15
            5657            5682     19.3298E-15     19.4225E-15
            5658            5667     15.3890E-15     14.9275E-15
            5658            5668     11.9680E-15     10.6277E-15
            5658            5682     19.3298E-15     19.4225E-15
            5658            5683     11.4278E-15     11.1058E-15
            5659            5668     11.9680E-15     10.6277E-15
            5659            5669     10.9856E-15     9.10370E-15
            5659            5683     11.4278E-15     11.1058E-15
            5659            5684     16.0225E-15     15.8657E-15
            5660            5669     10.9856E-15     9.10370E-15
            5660            5670     14.7514E-15     12.3916E-15
            5660            5684     16.0225E-15     15.8657E-15
            5660            5685     19.8238E-15     19.1369E-15
            5661            5670     14.7514E-15     12.3916E-15
            5661            5671     11.8030E-15     9.35852E-15
            5661            5685     19.8238E-15     19.1369E-15
            5661            5686     13.1862E-15     13.6719E-15
            5662            5671     11.8030E-15     9.35852E-15
            5662            5672     10.6582E-15     9.71702E-15
            5662            5686     13.1862E-15     13.6719E-15
            5662            5687     13.5847E-15     16.1844E-15
            5663            5672     10.6582E-15     9.71702E-15
            5663            5673     10.5623E-15     11.4371E-15
            5663            5687     13.5847E-15     16.1844E-15
            5663            5688     14.1464E-15     16.0786E-15
            5664            5673     10.5623E-15     11.4371E-15
            5664            5674     8.14321E-15     9.67064E-15
            5664            5688     14.1464E-15     16.0786E-15
            5664            5689     11.0604E-15     10.8917E-15
            5665            5674     8.14321E-15     9.67064E-15
            5665            5675     11.3387E-15     11.4449E-15
            5665            5689     11.0604E-15     10.8917E-15
            5665            5690     12.0287E-15     10.9427E-15
            5666            5675     11.3387E-15     11.4449E-15
            5666            5676     10.8812E-15     10.5588E-15
            5666            5690     12.0287E-15     10.9427E-15
            5666            5691     14.2226E-15     15.2495E-15
            5667            5676     10.8812E-15     10.5588E-15
            5667            5677     10.3390E-15     8.73530E-15
            5667            5691     14.2226E-15     15.2495E-15
            5667            5692     14.6872E-15     16.9622E-15
            5668            5677     10.3390E-15     8.73530E-15
            5668            5678     13.8837E-15     15.4845E-15
            5668            5692     14.6872E-15     16.9622E-15
            5668            5693     14.4954E-15     15.7173E-15
            5669            5678     13.8837E-15     15.4845E-15
            5669            5679     26.5135E-15     28.5218E-15
            5669            5693     14.4954E-15     15.7173E-15
            5669            5694     21.7145E-15     22.4024E-15
            5670             833     30.5320E-15     31.4240E-15
            5670             834     39.1279E-15     36.0501E-15
            5670            5679     26.5135E-15     28.5218E-15
            5670            5694     21.7145E-15     22.4024E-15
            5671              34     16.3688E-15     16.4287E-15
            5671             853     13.5938E-15     14.3618E-15
            5671             897     24.6303E-15     24.6899E-15
            5671            5680     19.1306E-15     19.9916E-15
            5672             896     27.5396E-15     27.9945E-15
            5672             897     24.6303E-15     24.6899E-15
            5672            5680     19.1306E-15     19.9916E-15
            5672            5681     23.5682E-15     24.1590E-15
            5673             895     16.3351E-15     16.0533E-15
            5673             896     27.5396E-15     27.9945E-15
            5673            5681     23.5682E-15     24.1590E-15
            5673            5682     19.3298E-15     19.4225E-15
            5674             894     10.6977E-15     10.2344E-15
            5674             895     16.3351E-15     16.0533E-15
            5674            5682     19.3298E-15     19.4225E-15
            5674            5683     11.4278E-15     11.1058E-15
            5675             893     18.2659E-15     19.4035E-15
            5675             894     10.6977E-15     10.2344E-15
            5675            5683     11.4278E-15     11.1058E-15
            5675            5684     16.0225E-15     15.8657E-15
            5676             892     19.3319E-15     20.7617E-15
            5676             893     18.2659E-15     19.4035E-15
            5676            5684     16.0225E-15     15.8657E-15
            5676            5685     19.8238E-15     19.1369E-15
            5677             891     13.4311E-15     17.1553E-15
            5677             892     19.3319E-15     20.7617E-15
            5677            5685     19.8238E-15     19.1369E-15
            5677            5686     13.1862E-15     13.6719E-15
            5678             890     12.1777E-15     18.2675E-15
            5678             891     13.4311E-15     17.1553E-15
            5678            5686     13.1862E-15     13.6719E-15
            5678            5687     13.5847E-15     16.1844E-15
            5679             889     12.4740E-15     15.5482E-15
            5679             890     12.1777E-15     18.2675E-15
            5679            5687     13.5847E-15     16.1844E-15
            5679            5688     14.1464E-15     16.0786E-15
            5680             888     11.0826E-15     9.73035E-15
            5680             889     12.4740E-15     15.5482E-15
            5680            5688     14.1464E-15     16.0786E-15
            5680            5689     11.0604E-15     10.8917E-15
            5681             887     8.49228E-15     6.16031E-15
            5681             888     11.0826E-15     9.73035E-15
            5681            5689     11.0604E-15     10.8917E-15
            5681            5690     12.0287E-15     10.9427E-15
            5682             886     15.8063E-15     17.0915E-15
            5682             887     8.49228E-15     6.16031E-15
            5682            5690     12.0287E-15     10.9427E-15
            5682            5691     14.2226E-15     15.2495E-15
            5683             885     22.0452E-15     25.8769E-15
            5683             886     15.8063E-15     17.0915E-15
            5683            5691     14.2226E-15     15.2495E-15
            5683            5692     14.6872E-15     16.9622E-15
            5684             884     14.7439E-15     16.0753E-15
            5684             885     22.0452E-15     25.8769E-15
            5684            5692     14.6872E-15     16.9622E-15
            5684            5693     14.4954E-15     15.7173E-15
            5685             883     16.3521E-15     14.4975E-15
            5685             884     14.7439E-15     16.0753E-15
            5685            5693     14.4954E-15     15.7173E-15
            5685            5694     21.7145E-15     22.4024E-15
            5686              32     24.9239E-15     22.0306E-15
            5686             833     30.5320E-15     31.4240E-15
            5686             883     16.3521E-15     14.4975E-15
            5686            5694     21.7145E-15     22.4024E-15


  Minimum                            7.85502E-15     6.16031E-15
      At Element                             892            5682
            Node                            1710             887

  Maximum                                1.04444         1.05038
      At Element                            4914            4914
            Node                             560             560

           Total                     1.69525E+03     1.73076E+03


